BEGIN IONS
PEPMASS=940.25
CHARGE=0
MSLEVEL=2
SOURCE_INSTRUMENT=LC-ESI-qTof
FILENAME=20111105_Anada_Ger_HoiamideB_MH940_qb.1.1..mgf
SEQ=*..*
IONMODE=Positive
ORGANISM=GNPS-LIBRARY
NAME=Hoiamide B M+H
PI=Gerwick
DATACOLLECTOR=Amanda
SMILES=CCC[C@@H](C)[C@@H]([C@H](C)[C@@H]1[C@H]([C@H](Cc2nc(cs2)C3=N[C@](CS3)(C4=N[C@](CS4)(C(=O)N[C@H]([C@H]([C@H](C(=O)O[C@H](C(=O)N[C@H](C(=O)O1)[C@@H](C)O)[C@@H](C)CC)C)O)[C@@H](C)CC)C)C)OC)C)O
INCHI=InChI=1S/C45H73N5O10S3/c1-14-17-24(6)34(52)26(8)37-25(7)30(58-13)18-31-46-29(19-61-31)39-49-45(12,21-62-39)43-50-44(11,20-63-43)42(57)48-32(22(4)15-2)35(53)27(9)40(55)59-36(23(5)16-3)38(54)47-33(28(10)51)41(56)60-37/h19,22-28,30,32-37,51-53H,14-18,20-21H2,1-13H3,(H,47,54)(H,48,57)/t22-,23-,24+,25-,26-,27+,28+,30-,32-,33-,34-,35-,36-,37-,44+,45+/m0/s1
INCHIAUX=N/A
PUBMED=N/A
SUBMITUSER=mwang87
TAGS=
LIBRARYQUALITY=1
SPECTRUMID=CCMSLIB00000001548
SCANS=1
278.049927 35793.0
278.957642 47593.0
281.258667 95495.0
291.996094 115278.0
293.827637 91752.0
299.065979 129040.0
309.152832 62974.0
324.236206 31157.0
334.968811 115627.0
341.283569 30547.0
343.978516 94124.0
353.147217 205611.0
353.84436 1.0
359.101166 581387.0
359.888855 18.0
368.931641 40369.0
375.024811 191523.0
375.664062 39.0
377.287628 934209.0
378.192047 295658.0
380.225586 99848.0
381.088074 28994.0
383.194763 126064.0
384.326294 119935.0
390.16333 132876.0
391.216492 152650.0
397.480957 49394.0
405.885986 15096.0
408.151367 50942.0
408.941162 1521917.0
410.069397 235028.0
412.908936 19523.0
415.317749 40832.0
416.189331 116396.0
421.346222 822444.0
422.236237 406319.0
425.736572 33271.0
430.427429 115251.0
431.030762 152986.0
436.663208 30867.0
453.213257 215667.0
453.853271 2.0
456.716797 125621.0
457.249573 718325.0
458.258514 121013.0
459.323029 42422.0
462.352295 53209.0
468.064392 56113.0
471.292297 101158.0
472.837769 17471.0
475.22522 1066899.0
476.323944 931888.0
477.293152 314415.0
481.310425 20995.0
486.095825 35999.0
488.752777 97793.0
490.151245 189397.0
491.134399 38134.0
492.823486 167781.0
493.837646 123040.0
499.340332 68929.0
500.92627 35192.0
502.819702 346672.0
503.328186 1789291.0
503.844055 115544.0
504.448425 209601.0
505.521667 210506.0
506.153992 23586.0
507.28186 1756109.0
508.139343 920658.0
508.715088 5.0
509.322998 67825.0
510.159729 125144.0
511.108826 44963.0
513.214233 63849.0
514.097351 157893.0
515.079712 76460.0
518.323853 32014.0
519.041016 240930.0
521.166443 2474045.0
522.086304 485376.0
522.963379 290176.0
529.374146 106411.0
530.899231 722904.0
532.089783 189952.0
532.834473 71377.0
534.093506 79577.0
535.231201 533187.0
536.079834 205958.0
536.935913 19616.0
537.806885 427771.0
538.545166 14.0
539.760132 185155.0
543.283936 115082.0
545.483398 53069.0
553.24353 10619710.0
554.189453 1265687.0
555.107849 885736.0
556.199341 35655.0
557.188904 144709.0
558.325073 276628.0
559.441162 38371.0
563.392944 369187.0
564.342773 53377.0
565.162598 153259.0
567.527832 90530.0
569.09668 13406.0
573.235718 244664.0
573.872803 48.0
575.213562 846336.0
576.479736 79230.0
582.099854 85856.0
583.982666 34163.0
584.817871 17642.0
585.449829 126403.0
587.480713 30454.0
589.125 202774.0
589.857056 3.0
591.335327 324628.0
593.54541 59873.0
599.153564 39495.0
601.312927 773465.0
602.344727 103997.0
605.229919 390697.0
606.044434 1.0
607.083252 438106.0
607.802979 32.0
611.162537 126605.0
613.219177 1278729.0
614.208252 134599.0
614.943481 32793.0
616.26123 35333.0
617.239929 1181920.0
617.832764 3566.0
619.109741 611095.0
620.09021 215720.0
623.606201 32893.0
625.371094 162473.0
629.113037 397263.0
631.285767 837261.0
632.427246 426749.0
633.305969 773961.0
634.005371 139725.0
635.159546 104212.0
638.429932 50215.0
639.142578 211014.0
644.970947 126358.0
645.833496 400437.0
646.540649 13.0
647.614746 28622.0
649.493652 92063.0
651.267822 2952105.0
652.501709 948097.0
653.303345 261489.0
655.203003 33201.0
656.197632 63099.0
657.307983 3027254.0
658.356934 577368.0
659.635254 85949.0
661.488525 480492.0
662.373413 76094.0
663.271667 5528330.0
664.294983 1893201.0
665.272827 48.0
671.457947 584357.0
672.555908 35863.0
675.252808 3062771.0
676.276123 1149021.0
677.002197 57.0
679.320496 347430.0
688.130615 336462.0
689.338928 5507539.0
690.380371 939865.0
691.865601 127803.0
693.103333 441499.0
694.241089 177434.0
694.866699 3.0
706.645874 764079.0
707.298584 11425631.0
708.41217 3282238.0
709.281738 37425.0
710.297302 104548.0
711.575684 59794.0
714.353027 293763.0
720.310608 463766.0
723.610229 67559.0
724.423279 333180.0
725.338684 2697145.0
726.246155 477936.0
727.232544 407357.0
727.836182 23.0
731.005493 58569.0
733.947266 42640.0
734.489502 322546.0
735.21875 30.0
736.155151 161121.0
738.186523 1302348.0
738.97168 187994.0
739.817383 181407.0
740.513184 61.0
743.460449 177286.0
744.158691 26051.0
746.365784 668916.0
746.917114 45488.0
749.86853 33868.0
752.247192 1273569.0
753.092773 124216.0
753.863403 42270.0
754.550781 53958.0
756.299866 83498.0
758.105103 72039.0
760.394287 285768.0
761.139648 92506.0
762.440063 487254.0
763.821289 118871.0
764.401733 78746.0
765.879333 244224.0
766.875977 103968.0
768.550537 359217.0
769.536011 71507.0
770.24707 6843020.0
771.345947 1834188.0
772.112915 291081.0
772.859253 98762.0
773.393433 15544.0
774.196289 89552.0
775.369934 162814.0
776.830322 39987.0
778.437683 568287.0
779.430786 387544.0
780.564697 96591.0
782.339478 146674.0
786.388916 33301.0
788.550964 179046.0
789.33606 752627.0
790.289795 2323301.0
791.421265 491574.0
792.208252 468317.0
792.876465 10.0
793.950195 158696.0
795.489502 38698.0
796.091187 954908.0
797.200439 337367.0
798.289185 46495.0
800.432495 111840.0
801.090576 18.0
802.506714 113841.0
803.42688 382726.0
804.150146 305130.0
805.09314 72883.0
805.733887 25871.0
806.318115 161990.0
807.514771 70266.0
808.27356 21070504.0
809.333984 4046391.0
810.207275 259344.0
811.469727 27873.0
812.310425 187082.0
813.238647 70162.0
814.210083 462427.0
814.969604 5.0
818.325684 249639.0
819.179932 5.0
821.257446 2401369.0
822.402405 1322524.0
823.065796 26639.0
826.38385 1256031.0
827.219849 5.0
828.190063 2491409.0
829.269775 415142.0
832.262146 456122.0
833.509155 211714.0
834.274414 8.0
836.505859 107931.0
837.125854 4.0
837.99231 18698.0
839.326721 2462282.0
840.278259 8756806.0
841.229004 1659474.0
842.093811 260534.0
843.241211 234347.0
844.313904 2187139.0
845.152466 83303.0
846.27002 2781280.0
847.444214 1204369.0
848.088745 3.0
850.265015 922613.0
851.186401 116222.0
854.273743 1016497.0
855.291382 102364.0
858.455566 702571.0
860.296204 2520372.0
861.256592 530700.0
862.471863 1859168.0
863.435181 549532.0
864.379272 443001.0
865.002441 70558.0
866.333496 12614.0
868.264954 134340.0
871.557007 123565.0
872.289917 18706856.0
873.345642 2718281.0
874.043213 315833.0
876.373779 5434008.0
876.880249 19.0
877.403809 1670336.0
878.322937 10828502.0
879.327148 2115364.0
880.158447 114122.0
886.277527 2620326.0
887.16687 545701.0
887.893188 5.0
890.246277 55866120.0
891.272888 13506386.0
892.020142 75.0
893.624634 44855.0
894.326416 18938176.0
895.376404 5114120.0
896.202576 979881.0
897.012695 226445.0
904.195679 46132128.0
905.224548 12148538.0
906.084473 13.0
906.811646 12834.0
908.183472 17888056.0
909.235107 4328052.0
910.25885 56715.0
912.229492 168909.0
913.382202 64191.0
921.45813 892847.0
922.178101 109387080.0
923.155762 23455760.0
924.007812 68.0
940.099915 1264261.0
940.88324 2.0
END IONS
BEGIN IONS
PEPMASS=667.0
CHARGE=0
MSLEVEL=2
SOURCE_INSTRUMENT=LC-ESI-qTof
FILENAME=20120412_PAVL_FT_Hectochlorin_MCl37H_667_qb.1.1..mgf
SEQ=*..*
IONMODE=Positive
ORGANISM=GNPS-LIBRARY
NAME=Hectochlorin M+H
PI=Gerwick
DATACOLLECTOR=PAVL
SMILES=C[C@H]1[C@H](CCCC(C)(Cl)Cl)OC(=O)C2=CSC(=N2)[C@@H](OC(C)=O)C(C)(C)OC(=O)C2=CSC(=N2)[C@@H](OC1=O)C(C)(C)O
INCHI=InChI=1S/C27H34Cl2N2O9S2/c1-13-17(9-8-10-27(7,28)29)38-23(34)15-11-42-21(30-15)19(37-14(2)32)26(5,6)40-24(35)16-12-41-20(31-16)18(25(3,4)36)39-22(13)33/h11-13,17-19,36H,8-10H2,1-7H3/t13-,17-,18+,19+/m0/s1
INCHIAUX=N/A
PUBMED=N/A
SUBMITUSER=mwang87
TAGS=
LIBRARYQUALITY=1
SPECTRUMID=CCMSLIB00000001552
SCANS=1
200.205383 7905.953125
201.312088 2282.589844
202.184189 2641.422119
205.254974 581.435303
206.982574 379.518494
209.032486 1169.384399
218.05217 6432.016602
219.180054 1744.249756
220.168564 6760.512695
242.027893 7910.174805
243.193573 1459.626221
244.113144 919.381775
254.144806 620.508362
275.189453 1406.236694
276.259613 729.785583
277.170776 110.534981
283.131226 521.71582
288.080658 103.833778
310.139099 292.213348
319.200684 885.143799
339.240112 791.940735
345.345703 371.740692
346.210876 493.784088
352.478333 659.311462
363.149353 2321.227783
364.372101 1041.24939
368.109222 647.620544
370.071411 20604.804688
371.081238 12483.442383
372.117126 20494.234375
380.917419 2175.933594
382.427826 894.706909
383.200317 699.094421
388.262695 916.860291
389.123352 1416.532715
390.22522 2869.912109
406.049622 40515.605469
407.048828 46765.414062
408.105499 149047.75
416.402466 611.547852
423.149506 903.423096
424.263 3908.566895
425.219299 6609.915039
425.968079 14881.638672
430.053955 2113.797852
431.029572 802.430115
432.186523 709.077515
436.881104 224.39534
440.986481 900.254395
449.141693 573.384155
458.337006 106.115013
460.371857 393.492645
465.396118 1405.191895
466.358398 8831.212891
467.167389 13780.266602
468.067596 17249.638672
469.29068 188.135635
503.287231 492.797577
504.178986 1070.433228
505.224945 436.725647
507.081726 1693.182495
508.185944 1185.526855
509.079987 3777.662842
511.124298 1534.680908
512.039185 1589.400024
512.984985 421.006287
525.199768 6306.969238
526.47644 2364.611572
527.241821 2761.420166
537.352112 364.821228
544.256226 2726.925293
545.137817 7638.5
547.123718 1689.227783
548.071167 6429.34082
549.103882 16055.711914
552.041504 159.86586
553.132324 894.180359
561.092285 1931.5271
562.148865 12955.956055
563.066345 37420.46875
565.9552 887.740967
567.140869 2663.555908
569.247192 29138.105469
570.125854 17584.548828
571.176636 35376.488281
573.120789 402.811432
587.070068 2855.422852
588.076172 2921.956787
588.984314 18578.496094
589.602722 1700.54126
605.033691 34160.875
606.080688 398522.9375
607.065552 869706.875
607.994751 4770.470215
609.033203 6662.820801
610.75116 668.346741
623.19751 5448.85791
624.035645 12635.942383
624.927429 41709.058594
625.57019 185.915268
629.005005 23515.316406
630.078735 33397.664062
631.136719 33436.390625
648.021484 4314.759766
648.940125 7562.575195
649.588867 505.956726
END IONS
BEGIN IONS
PEPMASS=532.0
CHARGE=0
MSLEVEL=2
SOURCE_INSTRUMENT=LC-ESI-qTof
FILENAME=20121103_Jenia_Ger_CarmaphycinB_MH_532_qb.1.1..mgf
SEQ=*..*
IONMODE=Positive
ORGANISM=GNPS-LIBRARY
NAME=Carmaphycin B M+H
PI=Gerwick
DATACOLLECTOR=Jenia
SMILES=C[C@]1(OC1)C([C@H](CC(C)C)NC([C@H](CCS(=O)(C)=O)NC([C@H](C(C)C)NC(CCCCC)=O)=O)=O)=O
INCHI=N/A
INCHIAUX=N/A
PUBMED=N/A
SUBMITUSER=mwang87
TAGS=Marine Cyanobacteria[Source Environment]||Cyanobacteria[Source Environment]||Proteasome Inhibitors[Bioactivity (Active against)]||Symploca [Source Environment]||Cytotoxic[Bioactivity (Active against)]||Antiproliferative[Bioactivity (Active against)]||Inhibitor[Bioactivity (Active against)]||Bacterium[Source Environment]
LIBRARYQUALITY=1
SPECTRUMID=CCMSLIB00000001577
SCANS=1
153.288116 163097.0
153.889313 3721899.0
154.596039 17.0
161.9823 64219.0
164.930359 221142.0
169.788574 275399.0
171.953033 340799.0
181.800903 3333268.0
182.622192 12.0
190.876221 121512.0
191.826569 165667.0
197.775787 1997434.0
200.023682 94099.0
221.039337 191946.0
233.942322 59225.0
235.65625 72626.0
248.890533 29370.0
259.077881 77068.0
260.965881 421421.0
261.772949 27918.0
271.780884 115832.0
288.796387 230216.0
299.082092 46484.0
299.907532 497199.0
300.734619 119365.0
316.880737 7985906.0
317.732666 112.0
334.87915 44526192.0
335.636047 229.0
342.81958 84412.0
360.153992 354002.0
360.770813 5533707.0
361.535461 31.0
362.968445 357568.0
363.569702 11.0
397.210022 112368.0
397.813293 5.0
433.971497 523068.0
434.758301 8.0
452.085388 179216.0
501.996033 427446.0
514.105103 4355834.0
514.901611 40.0
END IONS
BEGIN IONS
PEPMASS=712.31
CHARGE=0
MSLEVEL=2
SOURCE_INSTRUMENT=LC-ESI-qTof
FILENAME=20121205_Jenia_Ger_Microcolin_C_MNa712-qb.1.1..mgf
SEQ=*..*
IONMODE=Positive
ORGANISM=GNPS-LIBRARY
NAME=Microcolin C M+Na
PI=Gerwick
DATACOLLECTOR=Jenia
SMILES=CCCC[C@@H](C)C[C@@H](C)C(N(C)[C@@H](CC(C)C)C(N[C@H]([C@H](O)C)C(N(C)[C@H](C(C)C)C(N1[C@@H](C(N2C(C=C[C@@H]2C)=O)=O)CCC1)=O)=O)=O)=O
INCHI=N/A
INCHIAUX=N/A
PUBMED=N/A
SUBMITUSER=mwang87
TAGS=
LIBRARYQUALITY=1
SPECTRUMID=CCMSLIB00000001660
SCANS=1
271.888367 17345.0
289.879761 28408.0
329.993896 100546.0
331.070801 33707.0
342.196045 27877.0
344.312195 26354.0
360.777344 39080.0
362.438721 8543.0
364.084473 103097.0
366.382812 52373.0
369.692078 39771.0
370.658447 8739.0
387.101624 23373.0
397.136108 69875.0
400.970703 4476.0
401.918579 22846.0
405.116211 125563.0
413.066772 28650.0
415.014893 17033.0
431.0979 125184.0
431.834473 4.0
441.155273 34136.0
442.053711 16060.0
445.18512 36837.0
473.973755 54529.0
475.3703 34778.0
496.148926 54980.0
524.287109 11638.0
540.264404 18744.0
543.055664 28107.0
571.217773 58776.0
586.740234 23894.0
587.423828 101595.0
588.116455 8.0
597.124878 8567.0
615.182129 101658.0
616.301636 21595.0
650.498901 42826.0
651.183838 17207.0
668.338867 6434728.0
669.371582 2171794.0
670.269775 4.0
694.331543 163593.0
695.492065 21164.0
712.28894 27323872.0
713.325562 2653570.0
714.161499 1.0
END IONS
BEGIN IONS
PEPMASS=500.0
CHARGE=0
MSLEVEL=2
SOURCE_INSTRUMENT=LC-ESI-qTof
FILENAME=20121213_Ger_CarmaphycinA_enone_MH500-qb.1.1..mgf
SEQ=*..*
IONMODE=Positive
ORGANISM=GNPS-LIBRARY
NAME=CarmaphycinA_enone M+H
PI=Gerwick
DATACOLLECTOR=Jenia
SMILES=CC(C([C@H](CC(C)C)NC([C@H](CCS(C)=O)NC([C@H](C(C)C)NC(CCCCC)=O)=O)=O)=O)=C
INCHI=N/A
INCHIAUX=N/A
PUBMED=N/A
SUBMITUSER=mwang87
TAGS=
LIBRARYQUALITY=1
SPECTRUMID=CCMSLIB00000001666
SCANS=1
256.966675 8509.0
277.226624 7989.0
285.061401 24016.0
303.139893 28678.0
344.9104 45680.0
408.433533 14235.0
453.190979 5638.0
453.868286 3063.0
499.880859 7103.0
END IONS
BEGIN IONS
PEPMASS=516.0
CHARGE=0
MSLEVEL=2
SOURCE_INSTRUMENT=LC-ESI-qTof
FILENAME=20121213_Ger_Jenia_CarmaphycinB_enoneM-18_516-qb.1.1..mgf
SEQ=*..*
IONMODE=Positive
ORGANISM=GNPS-LIBRARY
NAME=CarmaphycinB_enone M+H
PI=Gerwick
DATACOLLECTOR=Jenia
SMILES=CC(C([C@H](CC(C)C)NC([C@H](CCS(=O)(C)=O)NC([C@H](C(C)C)NC(CCCCC)=O)=O)=O)=O)=C
INCHI=N/A
INCHIAUX=N/A
PUBMED=N/A
SUBMITUSER=mwang87
TAGS=
LIBRARYQUALITY=1
SPECTRUMID=CCMSLIB00000001674
SCANS=1
155.405121 14775.0
155.959015 15597.0
193.083527 9005.0
197.902756 65898.0
205.174591 4748.0
273.052002 5304.0
273.742798 3074.0
301.048737 1021440.0
301.738831 8.0
318.305298 43357.0
318.955811 2661945.0
320.012054 12668.0
357.673828 654.0
360.855408 2696188.0
361.492493 470.0
498.035828 83526.0
498.555481 2.0
END IONS
