BEGIN IONS
PEPMASS=603.278
CHARGE=1
MSLEVEL=2
SOURCE_INSTRUMENT=LC-ESI-qTof
FILENAME=f.Esposito/E-dendroides-ref/euphodendroidin U.mgf;
SEQ=*..*
IONMODE=Positive
ORGANISM=GNPS-LIBRARY
NAME=euphodendroidin U M+Na
PI=Litaudon and Paolini
DATACOLLECTOR=Esposito
SMILES=C[C@@]1(O)C[C@](O)(C([C@@H](C)/C=C/C(C)(C)[C@H](OC(C)=O)[C@H](OC(C)=O)/C=C(C)\[C@@H]2OC(C(C)C)=O)=O)C2([H])[C@H]1OC(C)=O
INCHI=
INCHIAUX=
PUBMED=
SUBMITUSER=Esposito
TAGS=
LIBRARYQUALITY=3
SPECTRUMID=CCMSLIB00004680119
SCANS=1
55.025658 35.4142
55.061981 150.743698
55.075832 18.3078
55.082901 10.701
57.041874 74.878471
57.056042 11.40532
57.077141 35.01638
65.046173 10.93986
67.063049 197.278702
67.078583 21.5438
67.085503 14.05136
69.042282 146.406204
69.046898 21.948429
69.052155 12.9825
69.058304 17.36887
69.063759 15.70392
69.078461 142.284103
69.082214 21.866409
69.086884 20.982121
69.094566 16.46372
69.149261 14.04405
69.210022 11.16957
71.057693 118.2677
71.064949 13.72821
71.07357 11.5909
74.040314 25.875
77.048225 17.284161
79.062424 59.526718
79.06881 10.20083
81.079468 118.818199
81.096931 17.57547
83.022079 49.117641
83.058365 2024.980957
83.066277 229.984406
83.076149 182.654404
83.083771 77.65609
83.090149 39.225208
83.095337 118.758301
83.105919 41.076191
83.113083 47.898022
83.12104 15.29282
84.062248 44.663219
85.038139 139.964005
85.044899 10.2175
85.055717 16.324989
85.073692 54.244919
85.112236 14.7025
87.070671 17.31739
87.078445 10.31136
91.064293 175.827301
91.081581 18.36466
91.094482 11.87895
93.07943 100.878403
93.086792 29.45322
93.097221 11.18032
95.058853 192.958099
95.067612 27.369499
95.076874 30.38636
95.095016 456.742401
95.102814 68.237953
95.113396 46.988281
95.120117 20.735941
95.154388 10.45625
96.062668 15.3625
97.074265 181.774796
97.083794 40.524231
97.093369 23.062321
97.110458 84.354897
97.119278 13.33606
97.133865 13.33741
99.053848 86.866478
99.064728 10.64083
103.048416 11.03291
103.063217 24.4053
103.072281 10.03846
105.079399 212.935898
105.086617 20.62278
105.097389 21.273279
105.107826 21.280689
105.298508 10.24845
107.057686 39.684349
107.06385 10.71645
107.095421 136.549805
107.10508 12.62333
107.114807 12.58394
107.122704 11.39691
109.075195 95.945251
109.084946 14.54583
109.094971 12.05115
109.102448 10.4875
109.11087 371.255402
109.120125 46.578419
109.130661 49.031979
109.139381 14.69778
109.482742 12.85343
111.091621 61.11607
112.812851 17.914289
113.070435 55.032879
113.090675 10.017
117.080353 51.662701
117.089195 15.59417
119.059441 136.634796
119.067757 32.560181
119.0784 13.27515
119.095825 405.358795
119.107849 32.193459
119.116852 33.397598
119.125214 11.41888
120.097305 14.73884
121.038063 81.124413
121.047913 16.293449
121.075188 138.294907
121.092659 11.4925
121.111382 170.382797
121.120674 23.41497
121.131683 26.00972
123.054001 208.937393
123.062065 43.59977
123.074242 33.291759
123.090446 904.355774
123.100296 88.788651
123.110283 107.155502
123.120773 47.311131
123.128754 41.76189
123.138359 28.36116
123.14814 12.56007
123.157173 16.17556
125.032127 15.0405
125.069328 47.17561
125.104729 147.639694
125.112984 32.009022
125.125938 16.73271
125.138504 11.32048
127.064224 14.90213
127.086403 37.486099
127.114441 13.9893
128.071777 31.724739
129.078339 90.604057
129.088852 22.844259
129.099518 14.23667
130.086929 15.99453
131.060104 50.39753
131.096268 113.652802
131.107498 29.557131
131.118103 10.61818
132.099243 22.02103
133.075714 74.116959
133.086685 21.23904
133.096756 10.04209
133.111588 400.256805
133.123215 60.07991
133.13414 36.548851
133.142807 25.534241
133.156967 18.608259
135.056885 15.33412
135.091095 178.852905
135.101883 32.019661
135.114243 15.15742
135.126816 173.886597
135.138336 24.22419
135.149704 27.8447
136.094849 24.226311
137.070465 76.195183
137.105988 188.905899
137.115463 30.81625
137.128616 21.906639
137.142319 35.394199
137.15593 11.02974
139.048019 16.91316
139.086227 261.037903
139.097351 31.86627
139.104813 14.26331
139.110397 20.64403
139.121826 97.376022
139.132401 11.57609
139.143753 16.872141
141.064194 12.01657
142.089172 11.55125
143.095169 278.610687
143.106567 51.108452
143.118607 29.727289
143.127228 13.95685
145.112076 416.906799
145.122498 57.51487
145.135605 45.878021
145.148834 29.543409
146.082565 12.18409
147.063675 12.59245
147.073563 21.967501
147.09082 1399.921021
147.101776 211.842194
147.113815 164.520294
147.127945 167.690704
147.136002 16.227699
147.143112 54.40905
147.152496 24.663111
147.163223 25.057249
147.758026 10.4
148.129318 10.35833
149.070908 111.4104
149.083725 21.730511
149.093506 11.01376
149.105621 177.022293
149.122864 23.94742
149.142426 19.984671
151.086456 237.605804
151.099152 45.918739
151.110336 27.8687
151.122726 86.999046
151.156204 12.35522
153.062866 39.99165
153.101807 51.03463
155.096085 41.470249
155.107468 13.43224
157.075912 55.30127
157.11203 163.579102
157.123276 40.415859
157.135498 10.05396
158.08313 12.81653
158.122559 21.37096
159.09137 129.346603
159.100983 13.61803
159.115402 17.133989
159.127731 192.610504
159.140091 14.01319
159.151718 29.07156
160.101044 16.29174
161.051514 11.04028
161.069122 51.72646
161.078094 13.47233
161.107056 948.455322
161.118652 220.781296
161.131714 93.106972
161.1436 119.931099
161.15387 11.26217
161.163193 21.868509
161.175659 16.05015
161.184647 11.17029
161.397736 13.94196
161.921509 10.93889
162.073502 10.82609
162.11528 18.42955
163.050659 10.84694
163.086136 111.426697
163.094696 37.20211
163.122421 116.489403
163.142212 19.97603
165.101868 893.953125
165.11293 123.441002
165.126511 93.059067
165.139908 89.58284
165.157333 22.88929
165.169098 11.68583
165.178268 11.46402
167.080963 22.776699
167.095108 79.458229
167.11377 57.140251
167.129486 11.90431
168.103775 39.403419
168.122849 17.191071
169.112595 82.366959
169.123672 22.471809
170.118134 18.70739
171.090591 368.582794
171.10228 67.573502
171.115509 27.844749
171.127808 245.707794
171.139709 26.77837
171.152374 28.11957
171.166412 31.345909
171.207443 10.81319
172.133682 23.826071
173.106949 288.137299
173.118164 66.770111
173.129608 20.711109
173.142776 393.973907
173.156357 35.493279
173.167236 37.58707
173.180801 20.85216
174.153473 32.045509
174.166458 13.69724
175.085999 164.197693
175.099274 23.1527
175.110947 13.7269
175.121414 100.803902
175.129929 13.0247
175.143021 18.97028
175.1595 51.02005
175.177048 12.94178
176.093628 12.81571
177.066284 11.1338
177.101868 166.464005
177.113556 36.78231
177.127121 17.224239
177.139633 61.562698
177.156219 17.60054
179.082092 31.43565
179.118027 295.973389
179.129166 33.769291
179.14444 32.142712
179.156021 15.02397
179.174393 10.97197
180.10173 18.65941
180.110306 10.79205
181.07225 23.04286
181.097183 10.4
181.110596 27.602739
183.092438 67.368057
183.128494 100.304298
183.154358 10.16195
184.096497 20.52763
185.107574 70.465782
185.126633 20.82411
185.143082 163.606995
185.153793 22.260851
185.168839 20.90885
186.076279 19.89395
186.115967 15.05353
186.152176 28.44923
187.087112 39.718689
187.123489 137.519302
187.135193 27.268709
187.148422 13.37917
187.158905 74.572647
187.175705 20.20739
188.162323 10.88169
189.102219 2336.669922
189.115036 214.001297
189.128189 226.208801
189.138107 250.122894
189.156967 108.844597
189.175949 33.013302
189.185745 39.135159
189.199219 12.6922
189.373871 12.1935
189.384674 10.45621
189.410675 10.16387
189.453323 16.042231
189.504868 10.25126
190.093002 20.73601
190.104065 22.815281
191.079056 63.904171
191.097794 34.425819
191.118713 88.382088
191.130127 11.12407
191.153534 32.282379
191.166656 11.09012
192.124619 13.80074
193.098022 164.986603
193.12233 12.41167
193.132401 104.917099
193.145264 23.75317
193.157867 16.43417
193.17746 11.34062
194.099106 10.31902
194.120728 12.45125
195.076233 17.75655
195.128036 103.144897
195.140747 13.51351
196.099228 23.742661
196.137131 12.93266
197.108673 112.777901
197.123657 13.75987
197.143967 261.399597
197.155136 30.605471
197.167358 22.208771
197.178925 11.10347
197.190125 10.53253
198.113068 44.494141
199.08638 95.620338
199.100906 13.91028
199.12352 100.9123
199.1409 17.688271
199.158386 72.614258
199.172684 22.202259
200.132324 21.5175
201.101898 147.951004
201.113037 19.60482
201.126434 22.29438
201.138474 130.022903
201.151352 35.188599
201.171173 33.384281
201.186874 10.54694
202.111725 16.668249
203.117676 129.352097
203.130371 12.65167
203.14444 19.2169
203.154816 43.589809
205.098053 43.632408
205.137161 44.78093
205.17305 13.71012
206.119919 29.966339
206.141174 29.24231
207.112808 727.600708
207.125946 130.706207
207.140945 75.516068
207.152954 35.490768
207.165314 11.90792
207.176331 14.3284
207.199524 11.01193
207.431152 10.60427
208.119797 11.00388
208.137131 12.96996
209.129761 12.2962
209.144928 104.305901
209.16684 21.906509
210.115189 19.657089
210.152222 29.778
211.122818 246.716797
211.134644 53.5882
211.160751 166.966599
211.175568 29.84868
211.191116 17.669769
212.092133 12.51424
212.130798 33.219181
213.102493 18.02282
213.112946 10.5226
213.138184 245.884598
213.15033 37.56776
213.167374 34.4226
213.177811 11.95178
213.191345 11.36472
214.137421 19.619881
215.119537 154.616699
215.153854 88.697769
215.164062 30.414181
215.183426 13.94583
216.126404 35.28685
217.097321 471.975403
217.111725 91.452782
217.133759 203.953003
217.151276 35.105659
217.166779 33.421051
217.188416 12.29935
217.373032 10.92857
219.095428 10.27826
219.113113 34.38187
219.129532 15.3861
219.150604 46.154362
220.139633 12.19201
221.143494 26.881741
223.105423 13.30132
223.122879 16.088631
223.160355 32.71981
224.130463 38.320251
224.168488 14.50371
225.120178 18.31884
225.138687 97.566269
225.157181 13.7618
225.176208 130.517197
225.1884 29.1399
225.205978 12.80942
226.108932 11.3375
226.146042 14.94088
226.181259 11.80793
227.079742 13.89456
227.091156 14.8325
227.119781 57.79364
227.137146 15.41089
227.154816 138.7332
227.173813 33.099571
227.192581 10.00758
228.087723 18.088091
228.122299 25.676279
228.13472 15.31567
228.16095 29.22373
229.133698 495.225494
229.148392 88.213737
229.16716 101.487801
229.182434 10.15165
229.195236 20.55184
229.21962 19.20583
230.142838 31.86525
231.113068 101.114403
231.127518 25.4202
231.149841 274.553894
231.163071 41.451279
231.177139 35.99017
231.191422 12.29425
233.129547 31.793221
233.143188 22.280001
233.165909 27.722561
234.14978 25.00738
234.162094 25.325199
235.106934 61.946861
235.120682 21.18066
235.146179 75.825531
235.158844 73.143356
235.176788 27.409901
237.141174 98.396797
237.160782 18.513241
237.1772 17.41186
238.150269 25.33127
239.118179 235.2742
239.132248 51.307178
239.155106 209.965195
239.169601 22.044331
239.190308 124.594398
239.206024 32.456181
239.220795 22.59104
239.236542 10.74101
240.126999 12.26217
241.135635 32.650028
241.148865 14.24889
241.170303 22.623711
241.186172 10.16745
241.209167 17.9753
241.956284 10.83906
243.149567 134.356903
243.186981 138.177307
243.223999 16.056141
244.132446 11.83087
244.189056 12.31806
245.131012 16.55238
245.202301 18.318411
247.145218 94.001572
247.161758 20.26634
247.183167 18.55946
248.132202 10.05559
249.123962 107.313301
249.137466 28.376829
249.158829 47.285969
249.177307 173.451401
249.209625 20.074459
250.091812 11.29013
251.10347 17.86447
251.153 35.37632
251.189331 49.820549
251.205917 13.66583
252.163147 67.133369
252.178543 22.483789
253.133194 52.499401
253.145874 15.34901
253.170441 149.210602
253.185226 28.339399
253.201889 11.11583
255.150574 112.093903
255.166641 28.23436
255.185287 26.036739
257.129028 144.906601
257.15155 13.24098
257.166351 87.28051
257.179749 35.798161
257.200806 33.804821
258.099854 12.21157
259.148895 48.128792
261.159546 20.00054
261.199524 14.23273
262.147003 17.876829
262.15802 10.245
265.13324 20.338039
265.150879 12.02063
267.134583 373.396088
267.147888 59.69067
267.166992 38.999531
267.185913 294.758911
267.202454 77.447777
267.219452 38.704861
267.233521 20.490391
268.142242 11.36957
268.156586 25.879511
269.166962 15.85245
269.200409 66.810219
270.132324 10.88412
271.149384 28.055889
271.180603 181.822998
271.197235 53.070129
271.21637 47.389091
273.158752 44.259209
273.177856 16.22389
275.139587 22.523491
277.170929 78.553864
277.189209 30.973829
279.147491 13.6389
279.18512 31.23872
280.134644 11.6075
280.156281 22.93185
280.170776 11.54957
285.19632 294.766998
285.213104 69.584373
285.231842 34.658401
285.252075 10.94691
286.200104 19.282459
287.179565 46.501678
287.194427 17.623199
289.155975 12.30091
295.180817 555.109375
295.195526 134.944794
295.213867 73.00721
295.234894 27.269991
295.256104 14.02417
295.277344 11.83537
297.194946 48.857342
297.224121 16.385019
299.209839 18.33803
303.206573 10.50595
309.192017 18.243389
313.191742 676.441284
313.20871 92.821251
313.225555 57.58326
313.23877 23.476561
313.261963 16.19219
313.291351 13.02479
314.195251 21.43115
319.178497 20.54821
321.194092 31.864321
331.202667 276.905396
331.221161 44.447979
331.239532 26.75547
332.203674 26.39329
332.224396 11.41562
335.17453 100.153099
335.203979 18.10512
337.189423 106.158897
337.217163 21.11021
337.235748 13.96723
345.218414 70.790779
347.15744 10.50025
347.235168 19.52227
352.176392 14.32656
353.182159 20.021919
355.206207 40.78611
357.21344 11.82222
361.17395 17.828171
361.227722 21.147619
363.226776 10.76132
373.211975 118.180298
373.228729 34.84124
373.278656 11.54977
375.361908 10.6
377.18158 16.49205
381.216766 52.363609
383.230133 15.99748
391.221802 59.757092
391.234344 23.79888
391.266174 10.12541
395.172516 13.83393
395.19519 230.837601
395.212799 46.432522
395.235596 33.893559
395.256897 13.56726
397.21109 100.865303
397.243164 25.320499
413.207092 156.662506
413.241364 37.421501
414.202179 10.65215
423.226166 80.890823
423.24292 10.3175
423.260254 12.07728
424.232758 14.31364
439.223358 14.61895
439.256714 73.817909
439.269165 11.05485
439.291229 15.01511
441.242096 20.055559
455.2146 173.453903
455.234833 48.089451
455.25827 53.14864
455.692047 11.63782
457.228394 40.192631
483.245636 539.412781
483.263306 111.957603
483.288483 58.662781
483.311615 21.48448
483.332916 20.72517
484.253967 46.232731
515.236511 65.554604
515.262268 22.21015
543.263611 42.081989
543.268005 560.17511
543.297424 125.0783
543.327087 42.31786
543.359375 14.65357
544.035095 12.78607
544.086792 14.21446
544.271423 53.720081
544.322205 12.23784
603.283936 13.31133
END IONS
