BEGIN IONS
PEPMASS=679.273
CHARGE=1
MSLEVEL=2
SOURCE_INSTRUMENT=LC-ESI-qTof
FILENAME=3b_7b_13b_17-O-tetracetoxy-5a-O-benzoyloxy-15b-hydroxy-14-oxopremyrsinol.mgf
SEQ=*..*
IONMODE=Positive
ORGANISM=GNPS-LIBRARY
NAME=3,7,13,17-O-tetraacetyl-5-O-benzoyl-14-oxopremyrsinol M+Na
PI=LITAUDON/TOUBOUL
DATACOLLECTOR=Esposito
SMILES=O=C1[C@@](C)(OC(C)=O)[C@@]2([H])[C@]([C@H](OC(C)=O)C[C@@]3([H])[C@]2([H])C3(C)C)(COC(C)=O)[C@H](OC(C4=CC=CC=C4)=O)[C@@]5([H])[C@@H](OC(C)=O)[C@@H](C)C[C@@]51O
INCHI=
INCHIAUX=
PUBMED=N/A
SUBMITUSER=lfnothias
TAGS=
LIBRARYQUALITY=1
SPECTRUMID=CCMSLIB00000840340
SCANS=1
55.054703 379.5513
57.033508 229.330704
65.038887 202.142899
69.033653 1381.281006
69.041039 176.9608
69.070503 1885.962036
69.077072 302.567291
71.049149 336.318695
77.038788 1445.452026
77.047417 163.2854
79.054672 686.374329
79.062721 151.100006
81.034698 193.083298
81.070229 1428.118042
81.077538 175.193802
81.086937 153.173798
82.075172 150.639999
83.010605 4633.334961
83.01725 769.814026
83.028473 334.930298
83.049629 436.727692
83.085938 179.565201
85.028175 174.333298
91.054062 325.444885
93.069824 620.973877
95.049934 313.084503
95.085625 931.797974
95.094246 131.337997
97.06485 1249.378052
99.043648 352.156494
100.113045 176.2966
105.033546 19210.179688
105.041908 2749.934082
105.052933 1474.286011
105.069435 1263.333008
105.079216 360.892609
105.0886 247.203293
106.035957 1655.677002
106.046852 160.446396
107.039581 175.75
107.049911 570.26532
107.085808 2384.521973
107.098709 199.531906
107.105515 226.611603
108.051865 147.727295
108.08831 184.031296
109.06411 787.92157
109.072754 135.019196
111.044083 404.820496
115.055038 281.019196
116.058678 147.313599
116.334846 182.722198
117.069603 646.020386
119.049118 462.592499
119.085831 1550.677979
119.097008 157.041702
121.064507 1115.18396
121.074966 137.011902
121.103531 276.449097
123.079567 715.014221
123.089478 192.454498
123.116753 255.980804
124.083183 184.594406
125.019699 331.810699
125.060165 375.404999
125.068718 130.329895
125.096725 160.5728
127.074982 145.781799
129.0681 771.125
129.078247 190.942505
131.085587 936.002014
131.093491 173.058807
132.055084 177.846207
132.089218 164.760406
133.064468 423.06189
133.101501 1466.027954
135.043182 311.485291
135.079987 793.059204
135.088654 156.667892
136.081223 150.202301
137.095566 459.191193
138.062866 145.300003
138.101364 137.782593
141.053818 388.227814
141.070099 726.794128
142.077789 180.090393
143.047928 241.975403
143.085251 1222.208984
143.098145 156.440002
143.107697 162.25
144.089005 374.531586
145.02655 958.002808
145.033585 277.75
145.064926 187.816696
145.10141 1370.660034
145.112701 294.088989
147.04248 170.259399
147.081253 295.274689
147.116409 297.571411
148.11853 267.356506
149.059723 262.472198
149.096329 602.023621
151.075089 515.03949
154.07811 136.667892
155.084595 851.244812
156.091217 380.758789
157.100693 1386.197021
157.113403 343.279114
158.107712 466.218903
158.118576 142.339294
159.080185 849.555725
159.088882 137.1147
159.116745 865.13678
159.126968 135.015594
161.059586 244.532593
161.095078 608.661316
161.132584 225.889694
163.075577 681.631104
165.069138 210.934601
166.077316 244.640503
166.085999 128.6306
166.098862 244.877594
167.070786 307.316406
167.085037 1526.540039
167.108749 169.008301
168.091171 289.291687
169.066879 260.368896
169.101532 2177.585938
169.126282 154.470596
170.108887 160.0
171.080307 842.449707
171.092331 133.325607
171.117065 2355.054932
171.127121 421.720215
171.141953 207.625
172.120209 357.008301
172.129486 182.878998
173.057739 244.570999
173.095932 1175.087036
173.105698 311.884308
173.132278 303.864105
174.098892 190.526306
175.074753 204.185303
175.111832 469.639191
176.084396 179.892899
176.115356 157.8526
177.091049 619.437927
178.077286 315.765808
179.085892 756.893616
179.106247 270.819489
180.093338 670.019226
181.100784 2726.196045
181.112656 516.052979
181.125763 202.440201
182.068756 213.414993
182.108734 584.008423
182.123398 147.391006
183.079819 682.088379
183.090012 155.454498
183.116241 3095.3479
183.128754 472.149414
183.142654 263.008514
184.085327 161.488007
184.121445 321.705505
185.058243 331.387787
185.096054 844.627014
185.133316 353.021301
187.111023 1528.680054
187.122787 157.079498
187.136475 131.336105
188.111954 238.419998
189.090744 578.169617
189.127579 689.571411
191.085068 383.310089
191.106003 241.470596
192.094757 858.728577
192.142258 271.072601
193.101349 2514.999023
193.113663 454.402405
193.127686 185.5625
194.105438 1323.77002
194.119476 288.865814
195.116699 4785.060059
195.143387 391.82019
196.09021 409.388092
196.120621 1240.008057
196.131653 221.041702
197.095779 3546.784912
197.107071 534.201721
197.132492 2595.625
197.143265 518.520081
197.158188 170.9646
198.099121 761.574585
198.113815 203.145401
198.134048 441.432098
199.112427 1719.097046
199.14682 206.875
200.114761 263.133301
201.090622 780.328003
201.127457 849.268799
202.095123 223.204193
202.130112 197.960403
203.085907 412.191498
203.105011 544.004822
203.121368 152.858795
204.109146 164.070404
205.099075 197.413193
206.112152 177.7901
206.125122 258.152313
207.060379 172.533798
207.101837 173.481705
207.115952 5361.130859
207.130539 759.448975
207.143173 330.868713
207.156616 140.245697
208.121521 1989.843994
208.150742 156.882797
209.094818 1453.014038
209.132462 3744.274902
209.160843 271.516113
210.135818 904.190125
211.075089 238.339005
211.112091 4139.048828
211.146194 1301.593018
211.158981 363.227814
211.175507 143.001801
212.117142 578.068787
212.128922 203.966995
212.151703 364.597687
213.07457 155.198807
213.089447 286.609802
213.127563 1909.150024
213.13974 343.225708
213.155365 166.837006
213.16748 149.011902
214.132278 459.347198
215.107712 473.609802
215.117355 153.005997
215.138046 212.546707
219.117218 606.720093
220.088562 279.667389
220.123199 495.34259
221.096283 745.504822
221.110428 226.000793
221.132782 1042.967041
221.14476 196.688904
222.104233 511.118591
222.1353 315.761902
223.111099 2149.197998
223.148712 1069.203979
223.163315 270.893494
224.117294 620.942017
224.153854 687.224976
224.167252 207.257095
225.127106 5986.166016
225.163666 3217.274902
225.176575 628.601624
225.192795 287.197601
226.095993 193.246902
226.130142 642.882324
226.143417 198.641006
226.166962 658.5
226.181061 153.015396
227.106689 1473.473999
227.142136 481.581299
228.108185 195.869995
229.122635 290.106812
231.098465 304.2565
231.114731 191.563599
232.124603 190.3853
233.133484 625.349487
234.104141 360.551208
234.139938 738.239685
235.111008 3258.903076
235.122726 717.366882
235.147018 2277.263916
235.179153 188.372498
236.115585 750.030518
236.152725 524.507812
236.165192 170.240005
237.126953 1340.093018
237.142593 247.800003
237.162491 958.49231
237.177444 181.063797
238.132217 453.152405
238.14296 156.347198
238.167099 218.426193
239.106689 1588.670044
239.121033 295.324707
239.143021 1098.159058
239.179932 2589.187988
239.209595 198.922806
240.110672 659.233826
240.145508 167.007095
240.182098 495.471313
241.122559 920.717712
241.134399 249.471207
241.157852 577.285583
241.175476 178.803604
241.187119 145.041702
242.126678 227.430801
242.16301 216.487305
243.137375 313.640015
243.176285 455.121002
244.12561 489.153687
245.120453 235.515198
246.103195 178.058807
247.110092 280.385315
247.147018 302.214996
248.119659 299.222595
249.126846 289.33609
249.163925 8541.119141
249.17659 1732.303955
249.193863 592.640015
249.208984 159.115402
250.133408 220.916702
250.167435 2662.775879
250.182556 520.597717
250.198517 226.155899
251.142319 968.950928
251.158096 187.778397
251.179504 3495.075928
251.20752 215.0
252.114273 305.593903
252.150543 1326.626953
252.164795 277.082214
252.183746 821.191528
253.121872 3245.114014
253.158615 8521.521484
253.171875 1581.001953
253.188614 631.456116
253.202194 222.152405
254.124084 658.276978
254.161636 2616.080078
254.1754 516.143982
254.191772 171.044998
255.136963 226.761795
255.164749 172.740906
255.177322 162.050003
256.139252 149.113602
257.188721 307.589294
259.148499 571.615417
260.152008 320.533905
262.135254 2249.865967
262.14798 472.703796
262.165497 161.911407
263.137451 227.291199
264.145325 157.009598
265.158691 2319.36499
265.190308 144.337997
266.165222 776.530579
267.139465 505.197601
267.174133 17934.820312
267.205139 1281.885986
268.178345 4733.09082
268.192261 865.363586
268.211731 331.968811
269.116913 218.959702
269.153046 251.735306
269.17984 643.347229
269.192627 344.299988
271.133636 309.126312
271.16864 483.784088
271.183594 171.212997
273.158569 194.230804
275.144226 227.444595
277.158813 10623.179688
277.18988 614.788879
278.161682 3463.11499
278.193298 283.13089
279.136261 177.408997
279.169373 372.914307
280.145386 545.703186
280.16095 161.755402
283.16748 778.51062
283.18399 181.656799
284.171814 248.293701
285.184784 2144.241943
285.21759 153.395203
286.189148 651.889526
286.20285 179.102905
286.217224 144.358002
287.138977 168.115402
289.122711 147.858795
289.155243 899.929871
289.172791 139.469498
290.159943 307.031311
291.172211 238.509003
292.234497 136.920105
293.152344 195.921097
295.169342 20730.910156
295.201477 1501.030029
295.242554 168.336105
296.172363 5299.921875
296.187439 956.537781
296.207367 265.428589
297.177063 774.808899
297.192902 190.347794
299.140625 217.449799
299.158997 129.246597
300.141968 210.001205
304.140869 479.571014
304.153107 160.085098
305.116669 153.512299
305.151031 760.943481
307.164703 165.907394
309.18335 494.612793
310.187561 180.0
311.20224 151.757599
313.180145 4278.001953
313.214233 225.3853
313.234497 151.555801
314.181976 1066.503052
314.197754 238.166199
315.188385 147.272202
317.130981 287.288086
317.151215 14616.589844
317.185638 1007.073975
318.13324 150.040604
318.154785 3808.955078
318.186676 260.822815
319.157593 429.001495
319.169922 171.571396
320.158569 213.617294
325.179108 619.010986
327.195801 2863.794922
327.211395 505.186615
327.231201 147.692307
328.197876 775.200378
331.168304 160.788895
331.192902 236.355698
333.183105 254.506897
333.204712 133.240402
335.161804 1599.133057
335.177765 275.449097
335.189056 226.1875
336.16391 389.007812
337.137939 146.842102
337.180237 943.777527
337.195435 144.692307
338.182648 289.778198
343.112823 130.360001
345.205933 172.9673
347.158813 137.467499
349.176758 727.083374
349.193024 245.645599
350.183533 132.173904
355.190033 3554.293945
355.2258 227.285706
356.193176 1663.416992
356.215942 170.490005
357.193604 140.128494
359.160889 254.203293
364.165405 164.964905
365.173798 275.020813
369.182159 129.900406
371.199982 342.136292
373.200073 507.6875
374.203979 188.222702
377.148651 147.033295
377.172302 18580.949219
377.207733 1329.479004
378.174561 5152.89209
378.209595 483.332092
379.178467 883.281982
380.181702 140.414001
387.214752 237.304794
388.194305 193.138794
389.208893 221.810699
393.202423 473.581604
393.222076 186.024994
395.183136 7892.001953
395.220795 554.18927
395.240295 168.25
396.186401 2632.697021
396.226746 264.746094
397.190887 219.408295
399.195435 446.204895
409.197144 999.186279
410.199677 148.480301
415.210999 342.891815
416.215851 225.231598
417.203339 770.889282
417.221527 222.291702
418.209229 414.013306
435.213928 141.415207
437.1073 174.4375
437.193024 20650.029297
437.233032 1485.255981
438.196381 7171.12793
438.256134 210.265594
439.197235 1673.631958
439.237213 183.803604
440.198883 383.882996
440.214355 130.246902
455.203949 3115.025879
455.224945 762.041321
456.20755 1295.869995
456.234222 217.777893
457.211395 304.728485
465.152924 227.9888
469.218201 2201.937988
469.254852 259.666687
470.221283 878.147522
471.225555 445.883911
472.218231 239.212997
477.226593 388.3703
478.22522 231.283005
497.214264 15517.620117
497.255859 1132.005005
498.217133 5160.01709
498.255615 385.177887
499.20932 21090.009766
500.212128 8986.213867
500.275726 197.523499
501.215546 1493.562988
501.253754 148.375
515.242554 132.290298
516.231567 143.012894
517.221069 433.673706
517.237549 152.909103
529.24469 195.781296
531.236572 141.262802
537.247375 851.112
538.244141 352.826508
538.259399 303.760101
557.233459 1643.151978
557.250671 601.372192
557.274841 179.083298
558.23938 409.532806
559.230103 56023.300781
559.274292 4295.371094
559.903259 145.350601
559.947571 188.696701
559.979736 135.876999
560.233459 26804.179688
560.275513 2013.222046
560.374329 194.6129
560.738464 138.3237
561.210754 208.266098
561.234924 4764.408203
562.240051 819.253723
577.241577 749.296021
578.242432 331.714905
591.254578 665.365417
592.258972 264.122894
617.928223 129.322403
619.251221 128579.703125
619.953186 263.007904
620.034607 182.951401
620.173828 153.106705
620.254456 63519.101562
620.716797 184.436401
620.815674 190.041901
620.851318 145.056305
620.999817 182.967606
621.066223 133.343307
621.193298 156.790604
621.256836 14113.290039
621.356506 197.519196
621.554199 155.289307
621.597839 179.161804
621.723206 193.358704
622.209717 169.717896
622.259338 2586.74707
622.307312 254.022293
623.258301 346.886414
651.322388 147.222198
679.220947 145.897995
679.272339 38435.351562
679.800232 139.558105
679.877075 131.203506
679.984802 154.365295
680.020569 140.835693
680.139038 131.251999
680.183533 144.187897
680.275085 19271.660156
680.390808 156.239502
680.428406 202.444595
680.636475 152.846603
680.836853 160.171906
681.278931 5484.095215
681.352234 132.591095
681.465698 140.382401
682.074219 165.619995
682.278198 926.030029
END IONS
