BEGIN IONS
PEPMASS=793.347
CHARGE=1
MSLEVEL=2
SOURCE_INSTRUMENT=LC-ESI-Orbitrap
FILENAME=Cpd_5_793.mgf
SEQ=*..*
IONMODE=Positive
ORGANISM=GNPS-LIBRARY
NAME=euphodendroidin K M+Na
PI=LITAUDON/TOUBOUL
DATACOLLECTOR=Esposito
SMILES=C[C@@]1(OC(C)=O)C[C@](O)(C([C@@H](C)/C=C/C(C)(C)[C@H](OC(C)=O)[C@H](OC(C)=O)[C@@H](OC(C2=CC=CC=C2)=O)C([C@@H]3OC(C(C)C)=O)=C)=O)[C@]3([H])[C@H]1OC(C(C)C)=O
INCHI=
INCHIAUX=
PUBMED=N/A
SUBMITUSER=lfnothias
TAGS=
LIBRARYQUALITY=1
SPECTRUMID=CCMSLIB00000840538
SCANS=1
247.14888 20479.009766
251.142929 26296.824219
265.160065 245625.3125
275.144073 26065.048828
282.913269 16872.222656
283.168793 172710.078125
293.155212 246988.625
311.165558 458290.875
311.913544 19351.398438
325.181793 36318.273438
329.175446 119323.65625
333.855377 16240.835938
343.187988 25853.390625
344.517883 15104.892578
345.602905 19609.169922
353.173096 51722.285156
358.05835 16306.373047
371.183258 88630.023438
381.206696 231615.671875
385.077515 20615.974609
385.203186 53353.027344
387.199127 27372.386719
393.086487 19195.335938
393.168976 70241.210938
399.217651 179200.1875
413.191132 34068.761719
415.191345 58532.179688
421.195038 42522.777344
428.534058 17567.4375
431.207977 70318.414062
431.709167 23806.736328
433.204315 29045.722656
435.180237 70752.359375
441.224823 63534.804688
453.187256 131292.640625
455.184204 18996.257812
456.102936 18583.080078
459.240173 69610.09375
463.207428 65441.96875
471.43692 16734.464844
481.217163 93739.546875
491.239105 22400.263672
493.228058 21975.119141
494.347473 16664.908203
501.246521 30328.882812
503.245453 34707.679688
509.244965 34738.421875
516.255432 17188.365234
523.230713 115257.828125
541.238281 104002.796875
551.262146 56645.472656
553.243225 39386.382812
557.217773 228509.0
569.268311 34785.359375
575.216492 22265.714844
583.254517 79318.28125
585.250183 149887.78125
611.285278 504228.6875
613.277466 23285.154297
617.233215 131322.703125
623.280151 34104.925781
645.270752 2177404.25
651.320618 81737.054688
671.302246 435912.09375
673.304626 669664.0625
705.282104 2181412.0
711.336487 4374204.5
731.841553 24961.384766
731.931335 18816.109375
731.961304 27803.046875
732.14093 36122.574219
732.260681 30753.070312
732.290649 23124.980469
732.320557 27716.246094
732.350525 39298.125
732.380493 26405.464844
732.410461 27696.613281
732.44043 38085.5
732.470398 34332.734375
732.500305 30935.238281
732.530273 42931.296875
732.560242 43835.917969
732.59021 36465.476562
732.620178 38623.367188
732.650146 60087.0625
732.680176 39114.304688
732.710144 48357.414062
732.740112 58422.917969
732.770081 50645.929688
732.800049 55171.765625
732.830017 75018.117188
732.860046 63876.984375
732.890015 66075.460938
732.919983 86160.875
732.950012 78933.851562
732.97998 94879.703125
733.01001 102411.070312
733.039978 98983.359375
733.069946 136207.546875
733.099976 132429.96875
733.130005 135452.359375
733.159973 155581.265625
733.190002 200384.84375
733.219971 152428.921875
733.325012 28536368.0
733.430115 178686.765625
733.460144 147476.015625
733.490112 165928.8125
733.520142 150997.625
733.550171 134846.28125
733.5802 109789.554688
733.610229 104964.953125
733.640259 105666.96875
733.670288 75810.070312
733.700378 91515.578125
733.730408 72019.757812
733.760437 77250.015625
733.790466 65240.109375
733.820496 62575.664062
733.850586 53288.738281
733.880615 58085.859375
733.910645 47850.6875
733.940735 56406.84375
733.970764 47071.5625
734.000793 43993.472656
734.030884 35409.039062
734.060913 49336.894531
734.091003 37907.089844
734.121033 39939.628906
734.151123 38095.339844
734.181213 32889.527344
734.211243 33470.257812
734.241333 28080.902344
734.301453 51542.597656
734.361633 29657.351562
734.421753 33617.386719
734.481934 31160.144531
734.572205 24527.595703
734.632385 23388.919922
734.722717 29033.675781
734.782898 21978.679688
734.812988 24937.689453
737.969177 26887.546875
END IONS
