BEGIN IONS
PEPMASS=683.283
CHARGE=1
MSLEVEL=2
SOURCE_INSTRUMENT=LC-ESI-qTof
FILENAME=3b_14b-O-diacetoxy-5a-7b-O-dibenzoyloxy-15b-hydroxy-17_13-oxypremyrsinol.mgf
SEQ=*..*
IONMODE=Positive
ORGANISM=GNPS-LIBRARY
NAME="3_,14_-O-diacetoxy-5_-7_-O-dibenzoyloxy-15_-hydroxy-17,13-oxypremyrsinol " M+Na
PI=LITAUDON/TOUBOUL
DATACOLLECTOR=Esposito
SMILES=CC1(C)[C@@]2([H])[C@]1([H])C[C@@H](OC(C3=CC=CC=C3)=O)[C@@]4(CO5)[C@H](OC(C6=CC=CC=C6)=O)[C@@]7([H])[C@@H](OC(C)=O)[C@@H](C)C[C@]7(O)[C@@H](OC(C)=O)[C@@]5(C)[C@@]42[H]
INCHI=
INCHIAUX=
PUBMED=N/A
SUBMITUSER=lfnothias
TAGS=
LIBRARYQUALITY=1
SPECTRUMID=CCMSLIB00000840353
SCANS=1
55.053471 102.033302
66.953316 17.778851
100.120491 60.595589
121.424271 24.0947
126.71933 15.48214
156.181442 36.680561
173.908646 14.08333
180.673889 32.88044
181.122955 96.209297
219.380035 21.174999
255.514969 28.68598
265.190216 33.440479
265.696655 54.225811
305.146454 15.01136
317.204926 111.209
327.563324 24.326611
333.956024 11.40833
340.320312 34.038792
341.438416 39.027439
342.036926 21.875
342.879242 11.77885
371.218842 51.172871
389.231171 68.564034
405.263336 131.262802
405.756134 25.008329
426.884399 18.605
429.093414 57.400002
444.808289 74.288368
449.094574 42.778851
469.286926 39.013889
495.34848 165.021301
505.167206 30.24695
541.344482 45.51524
559.353821 15.1875
585.379272 68.097557
623.947632 19.90132
665.407715 21.014709
682.463928 60.25
682.546692 41.112499
683.447937 1872.597046
683.74823 21.28125
683.811035 31.69565
683.912231 132.205002
684.235168 37.96196
684.321411 25.00658
684.449524 21.4
684.829834 27.69231
685.179138 33.117649
685.998474 17.111839
END IONS
