BEGIN IONS
PEPMASS=906.33
CHARGE=1
MSLEVEL=2
SOURCE_INSTRUMENT=LC-ESI-Hybrid FT
FILENAME=f.novakj/siderophores/Fe_TAFC.mzXML;
SEQ=*..*
IONMODE=Positive
ORGANISM=GNPS-LIBRARY
NAME=Ferri triacetylfusarinin C [M+Fe-2H] M+H
PI=Havlicek
DATACOLLECTOR=
SMILES=CC(=O)NC1CCCN2O[Fe]3ON(CCCC(NC(C)=O)C(=O)OCCC(C)=CC(=O)N(CCCC(NC(C)=O)C(=O)OCCC(C)=CC2=O)O3)C(=O)C=C(C)CCOC1=O
INCHI=
INCHIAUX=
PUBMED=27956353
SUBMITUSER=novakj
TAGS=
LIBRARYQUALITY=3
SPECTRUMID=CCMSLIB00001059080
SCANS=1
116.921181 2760283.0
138.179688 2295602.0
151.997513 3236246.0
168.333405 3365689.0
267.13382 2785205.0
283.263062 5184884.0
293.395782 2639849.0
301.619263 3283038.0
311.294464 3395158.0
313.273651 2268910.0
315.965973 2737143.0
323.068726 3308101.0
338.055878 2366468.0
355.069824 2475206.0
359.02832 2169663.0
383.330536 2604988.0
413.266113 5365733.0
429.088226 2250262.0
433.105286 2105171.0
435.121063 3384477.0
437.193207 30521326.0
438.19635 7775664.0
449.359833 10688855.0
450.108093 5602336.0
450.363373 3386190.0
451.116241 2028374.0
453.167145 13575304.0
454.170624 2941309.0
463.37561 2579185.0
465.369781 2785161.0
468.118469 3232192.0
472.642029 17945534.0
473.143677 7460372.0
473.645355 2617160.0
477.39093 2597018.0
491.370178 2884558.0
510.140594 4692566.0
515.442993 3613607.0
517.458679 2518762.0
521.381042 2218784.0
528.151367 2100326.0
537.394348 6074187.0
538.397583 2042128.0
551.503296 2593279.0
576.186279 3418103.0
594.197815 3875983.0
604.182251 18334756.0
605.185486 4700659.0
620.197632 3910582.0
621.202759 1995795.0
622.19281 82846256.0
623.196289 21576972.0
624.199829 3337836.0
625.265137 3366425.0
627.280518 3055900.0
640.203491 11799034.0
641.207092 3155932.0
734.2453 12564372.0
735.248535 3553360.0
777.251648 2274820.0
794.278564 3347172.0
860.324219 6162017.0
861.328491 2668789.0
888.319519 33674760.0
889.322876 13544462.0
890.324463 4271626.0
904.338989 2178985.0
906.330322 45976608.0
907.333801 18395760.0
908.336792 4120247.0
909.714233 2073643.0
END IONS
