BEGIN IONS
PEPMASS=671.267
CHARGE=1
MSLEVEL=2
SOURCE_INSTRUMENT=LC-ESI-Hybrid FT
FILENAME=f.lfnothias/140221_LF_015_AcOEt_ASE-cpd-3.mzXML;
SEQ=*..*
IONMODE=Positive
ORGANISM=GNPS-LIBRARY
NAME=3,5,7,15-tetraacetoxy-2-hydroxy-8-tigloyloxy-9,14-dioxojatropha-6(17),11E-diene M+Na
PI=Louis-Felix NOTHIAS
DATACOLLECTOR=Louis-Felix NOTHIAS
SMILES=C=C([C@@H]1OC(C)=O)[C@H](OC(C)=O)[C@@H](OC(/C(C)=C/C)=O)C(C(C)(C)/C=C/[C@@H](C)C([C@]2(OC(C)=O)[C@]1([H])[C@@H](OC(C)=O)[C@](C)(O)C2)=O)=O
INCHI=InChI=1S/C33H44O13/c1-12-16(2)30(40)45-26-25(43-20(6)35)18(4)24(42-19(5)34)23-29(44-21(7)36)32(11,41)15-33(23,46-22(8)37)27(38)17(3)13-14-31(9,10)28(26)39/h12-14,17,23-26,29,41H,4,15H2,1-3,5-11H3/b14-13+,16-12+/t17-,23+,24?,25?,26-,29?,32-,33?/m1/s1
INCHIAUX=
PUBMED=24926807
SUBMITUSER=lfnothias
TAGS=
LIBRARYQUALITY=3
SPECTRUMID=CCMSLIB00000424719
SCANS=1
189.257462 1556.684692
189.25943 2162.194824
189.261398 2343.310059
189.263367 2094.234863
189.265335 1409.342407
200.59375 2000.765015
200.595901 3913.219238
200.598053 4771.359863
200.600189 3629.749512
200.602341 1173.850708
203.063889 1763.518433
203.066071 4215.123047
203.068268 6797.163086
203.07045 6880.680664
203.072632 3884.050293
203.074829 44.545776
209.092575 829.594238
209.094864 2110.956055
209.097137 2866.75
209.099426 2675.650391
209.101715 2055.027832
209.73381 1805.22229
209.736099 2527.145996
209.738388 2737.477539
209.740692 2137.818359
209.742981 891.486328
211.106247 1250.925171
211.108566 2727.842773
211.110886 3534.286621
211.113205 2791.500977
211.115524 994.776978
223.105621 636.988403
223.108139 2882.796875
223.110657 4739.103516
223.113174 4830.314453
223.115692 3322.325195
223.11821 1567.290161
225.085541 48.495605
225.088089 2223.714844
225.090637 3982.866211
225.093185 3737.779785
225.095749 1908.990845
225.121262 2276.291016
225.123825 5741.49707
225.126373 8174.421387
225.128922 7485.085449
225.131485 4130.79834
225.134033 709.982788
229.177689 1680.007202
229.180313 2149.466797
229.182938 2466.654785
229.185562 2293.660645
229.188187 1500.566528
231.058578 1866.38562
231.061234 3413.160156
231.063889 4484.786133
231.066544 4074.993164
231.069199 2346.080078
231.071854 607.192261
235.140976 907.464111
235.143707 3884.688477
235.146423 6114.708496
235.149155 5654.749023
235.151871 2655.220703
238.128342 1334.640503
238.131119 2373.120605
238.133896 3087.344238
238.136673 2565.820312
238.13945 921.252197
239.097672 383.457764
239.100464 3476.354492
239.103256 7326.091309
239.106049 9446.466797
239.108841 8292.694336
239.111633 5029.751465
239.114426 2117.419922
239.117218 612.846069
239.13678 1191.942261
239.139572 2123.217773
239.14238 2742.692871
239.145172 2479.989258
239.147964 1572.207153
241.113571 413.405396
241.116394 2438.238281
241.119232 4518.401367
241.122055 4929.367188
241.124878 3301.843262
241.127716 1136.258667
246.677124 1316.027954
246.680054 2125.741211
246.682983 2450.58252
246.685913 2116.59082
246.688843 1350.903687
253.115814 593.446777
253.118851 2495.710449
253.121887 3852.165527
253.124939 3314.537598
253.127975 1505.938843
253.149292 2053.753418
253.152328 9574.933594
253.15538 19745.710938
253.158417 25018.712891
253.161469 20911.832031
253.164505 11002.008789
253.167557 2755.310059
253.170593 237.233032
255.130173 1163.139771
255.133255 2527.003418
255.136337 3532.24707
255.13942 3513.225098
255.142487 2263.907715
255.145569 323.307129
263.084381 1593.218628
263.087585 3576.765137
263.09082 4643.11377
263.094055 3765.559082
263.09726 1532.085083
263.132751 1517.796997
263.135956 7906.604004
263.139191 16056.970703
263.142426 20212.080078
263.14566 17017.035156
263.148865 9253.604492
263.1521 2677.542969
263.155334 92.912231
267.0961 1840.469116
267.099396 3271.223145
267.102692 3536.291992
267.105988 2416.976562
267.109283 901.078247
267.129089 932.631836
267.132385 3184.561035
267.135681 5163.362793
267.138977 5096.795898
267.142273 3048.48584
267.145569 897.567749
268.883057 1773.014038
268.886383 2380.222168
268.889709 2624.500977
268.893036 2193.984375
268.896393 1140.987915
271.088959 472.117676
271.092316 2248.387695
271.095703 3597.948242
271.09906 3336.26709
271.102448 1744.585815
271.15979 1106.613892
271.163177 4535.27002
271.166534 7859.891113
271.169922 8646.583008
271.173279 6292.90332
271.176666 2777.742188
271.180054 698.046021
281.138367 1170.212524
281.141937 3086.855957
281.145508 23312.927734
281.149048 52327.867188
281.152618 70518.21875
281.156189 62765.90625
281.15976 35777.148438
281.1633 10378.910156
285.10553 1371.580933
285.109161 3859.82959
285.112823 4570.956543
285.116455 3105.992188
285.120087 1046.71521
291.125488 1196.863159
291.129242 4070.672852
291.132996 8945.018555
291.136749 11839.722656
291.140503 10237.189453
291.144257 5389.373047
291.14801 874.834961
295.161011 1166.139526
295.164825 2930.20752
295.168671 3766.07373
295.172485 3099.134766
295.176331 1358.740845
299.148041 1277.512085
299.151947 5538.696289
299.155853 18715.890625
299.15976 36480.355469
299.163666 45858.753906
299.167572 38828.214844
299.171509 21490.091797
299.175415 6827.412109
299.179321 1042.964722
302.122101 1593.730835
302.126068 2256.154785
302.130035 2538.84668
302.134003 2449.100586
302.13797 1954.278442
307.99234 1554.589233
307.996429 2281.45752
308.000519 2717.975098
308.004578 2547.295898
308.008667 1730.001343
309.131042 442.369629
309.135132 4840.887207
309.139252 21064.728516
309.143372 43902.394531
309.147461 57219.433594
309.151581 49536.652344
309.15567 27271.197266
309.15979 7480.635254
309.16391 153.889526
311.934753 1806.148804
311.938934 3447.442383
311.943085 4274.655273
311.947266 3886.450684
311.951416 2208.213379
311.955597 232.400269
323.15329 1826.231323
323.157684 2885.096191
323.162079 3385.081055
323.166473 2499.269043
323.170868 944.57019
327.114014 2131.994629
327.118469 2531.515137
327.122955 3246.828125
327.127411 3439.812012
327.131897 2399.525879
327.136353 1238.444946
327.140839 182.96228
327.145294 4509.754883
327.14978 21480.796875
327.154236 43316.09375
327.158722 53929.808594
327.163177 44213.394531
327.167664 22808.601562
327.172119 5873.005859
327.176605 105.317871
334.368103 831.049561
334.372711 2284.971191
334.37735 2827.387207
334.381958 2434.494629
334.386566 1436.655151
341.160339 2018.887817
341.1651 7908.990723
341.169861 15142.793945
341.174622 18169.001953
341.179382 14221.330078
341.184143 6594.301758
341.188904 1351.258911
345.161926 3437.242676
345.166779 6610.19043
345.171631 7250.925293
345.176483 5124.11084
345.181305 2088.291016
351.150909 2392.656738
351.155884 5141.304199
351.160858 5759.009766
351.165833 3943.947266
351.170807 1606.816772
353.203644 623.862305
353.208649 2557.585449
353.213684 3272.92041
353.218689 2612.853027
353.223694 1742.448364
359.172455 1541.766235
359.177612 3731.578125
359.18277 5742.37793
359.187897 5637.76416
359.193054 3377.29248
359.198181 754.593384
363.124542 658.262817
363.129791 3134.129883
363.13501 9281.256836
363.140228 15203.09082
363.145477 15981.478516
363.150696 10841.131836
363.155945 4073.286133
363.161163 180.206299
365.167297 1855.6698
365.172546 2353.774902
365.177826 2431.425781
365.183105 2261.460938
365.188385 1935.630737
369.154694 2430.680664
369.160034 9710.056641
369.165405 16948.105469
369.170746 18551.015625
369.176117 13221.851562
369.181488 5457.85498
369.186829 654.406494
381.184662 933.447632
381.190277 2472.674316
381.195923 7898.778809
381.201538 13423.555664
381.207153 14649.040039
381.212799 10659.636719
381.218414 4926.105957
381.22403 1485.393921
385.106567 1024.617554
385.112274 2357.132812
385.117981 3314.081055
385.123688 2962.448242
385.129395 1220.297729
387.16507 780.794189
387.170837 3067.458984
387.176575 5083.083496
387.182343 5076.585938
387.18811 2868.962402
387.193848 362.584106
391.179871 2003.948608
391.185699 3866.533691
391.191559 4059.685547
391.197418 2378.252441
391.203247 658.199219
409.146729 1221.769409
409.152985 3156.449219
409.159241 4646.362793
409.165497 4492.622559
409.171753 2724.171875
409.178009 1431.78186
409.184265 3258.385742
409.190521 10556.808594
409.196777 17681.001953
409.203033 18439.888672
409.20929 12237.322266
409.215546 4240.350098
427.196991 1234.245483
427.203644 2591.675293
427.210327 3227.328125
427.21701 2709.12793
427.223663 1620.02478
429.172211 1130.348755
429.178925 6505.612305
429.185638 11984.84668
429.192383 13428.75
429.199097 9891.319336
429.205811 4605.95752
429.212524 1352.695435
431.167938 1828.397583
431.174713 5112.347168
431.181458 7118.687012
431.188232 6287.759277
431.195007 3519.915039
431.201782 981.800293
431.743622 1870.422729
431.750397 3317.621094
431.757172 4174.060059
431.763947 3552.772949
431.770721 1692.68103
451.146088 743.797852
451.15332 3212.76709
451.160583 7110.712891
451.167816 10592.650391
451.175049 10828.984375
451.182312 7235.76123
451.189545 2137.129883
451.196777 700.502808
451.204041 3061.337402
451.211273 3946.172363
451.218506 3275.652344
451.225769 1625.471558
469.156128 323.641357
469.163818 3849.226562
469.171478 11047.273438
469.179169 16650.650391
469.186859 16012.705078
469.194519 8978.892578
469.202209 47.284546
469.2099 6394.539062
469.21756 10233.043945
469.22525 9859.332031
469.232941 6413.810059
469.240601 2276.232422
485.134521 1927.191528
485.142578 2909.881836
485.150665 3457.502441
485.158752 3212.237793
485.166809 2311.713867
485.174896 1251.286499
491.17392 883.031616
491.182159 5119.961914
491.190369 14437.707031
491.198608 23114.210938
491.206818 23989.748047
491.215057 16141.255859
491.223297 5918.440918
509.184845 732.227173
509.193542 3267.308105
509.202209 7631.869629
509.210907 10891.470703
509.219574 10133.197266
509.228271 5883.15918
509.236969 1906.391968
511.170349 3237.313965
511.179077 9553.40625
511.187805 15271.141602
511.196564 16095.197266
511.205292 11066.291016
511.21402 4058.433105
511.222748 3980.95752
511.231476 6463.47168
511.240234 6291.257324
511.248962 4365.338379
511.25769 2204.942871
511.266418 747.136597
515.22052 1567.640259
515.22937 2466.972656
515.23822 2945.755371
515.247009 2559.873047
515.255859 1516.917847
523.213318 2631.503906
523.222351 5402.30957
523.231384 6104.122559
523.240417 4233.018555
523.249451 1951.227661
529.169556 170.986816
529.178772 4787.120605
529.187927 15154.68457
529.197144 25561.490234
529.20636 27760.796875
529.215515 19442.326172
529.224731 8862.02832
529.233948 9840.609375
529.243164 11878.349609
529.252319 8990.805664
529.261536 3966.507324
529.270752 271.85376
551.194397 27270.951172
551.204163 106202.070312
551.213928 209547.515625
551.223694 262670.0625
551.233521 219384.15625
551.243286 116272.164062
551.253052 30579.246094
557.009827 1550.052124
557.019714 2348.010742
557.029663 2455.570801
557.039612 2164.717773
557.049561 1594.603394
564.151123 644.982056
564.161255 2388.774902
564.171387 4046.227051
564.181519 4260.964844
564.19165 2451.128418
564.201782 14.184204
569.197205 2136.210449
569.207458 6301.669434
569.217712 20376.021484
569.227966 34332.371094
569.23822 36752.753906
569.248535 25676.011719
569.258789 10240.509766
569.269043 360.97168
583.212646 759.884521
583.223267 5712.509766
583.233948 15701.953125
583.244568 24832.498047
583.255249 25752.59375
583.265869 17373.203125
583.276489 6172.223145
607.715515 784.209717
607.726807 3307.023926
607.738159 4694.182129
607.749451 5325.493652
607.760803 4981.992676
607.772095 3325.618652
607.783447 825.237549
610.282288 414.040039
610.29364 3704.068359
610.305054 2506.641602
610.316467 2995.830078
610.32782 2891.817871
610.339233 1839.170532
610.350647 1645.425171
610.362 3018.649414
610.373413 2671.870605
610.384827 2653.104004
610.396179 2483.027344
610.407593 4261.21582
610.419006 3429.600098
610.43042 2334.525391
610.441772 1667.488159
610.453186 3788.29541
610.4646 2812.939453
610.476013 3259.245605
610.487366 2560.343262
610.498779 3902.67627
610.510193 3769.989258
610.521606 2233.17334
610.532959 1464.336304
610.544373 5155.580566
610.555786 4370.565918
610.5672 3468.790527
610.578613 3622.555664
610.589966 3906.227051
610.601379 2832.115723
610.612793 4753.154785
610.624207 3854.675293
610.63562 4237.065918
610.647034 3824.783203
610.658386 4033.60498
610.6698 3188.985352
610.681213 5249.545898
610.692627 4320.063965
610.704041 5030.732422
610.715454 3572.216797
610.726868 6508.306641
610.73822 5625.939941
610.749634 5061.188965
610.761047 5012.098633
610.772461 5085.663086
610.783875 4273.738281
610.795288 7116.655273
610.806702 5633.536621
610.818115 7057.898926
610.829529 6483.01416
610.840881 6535.348145
610.852295 6441.662598
610.863708 6383.850098
610.875122 5502.580078
610.886536 8708.124023
610.897949 7595.432129
610.909363 7651.061035
610.920776 6526.130859
610.93219 9695.834961
610.943604 8245.224609
610.955017 9738.490234
610.966431 8268.806641
610.977844 11130.604492
610.989258 9487.461914
611.000671 12318.624023
611.012085 11706.530273
611.023499 10839.439453
611.034912 9270.210938
611.046326 15623.621094
611.057739 13063.102539
611.069153 16548.359375
611.080566 14545.641602
611.09198 17886.082031
611.103394 16649.185547
611.114807 18428.791016
611.126221 16281.144531
611.137634 22726.806641
611.149048 19738.179688
611.160461 20825.433594
611.171875 16516.199219
611.18335 4041.362793
611.194763 18064.021484
611.206177 185772.84375
611.21759 1101942.0
611.229004 2661586.75
611.240417 3890580.0
611.251831 3774543.5
611.263245 2406318.0
611.274658 884042.8125
611.286072 93309.171875
611.297546 27495.056641
611.30896 10756.580078
611.320374 15083.329102
611.331787 17925.494141
611.343201 20891.257812
611.354614 17887.089844
611.366028 21832.953125
611.377502 16740.246094
611.388916 18885.087891
611.40033 15307.359375
611.411743 16104.107422
611.423157 12590.407227
611.434631 15796.199219
611.446045 12373.567383
611.457458 13863.263672
611.468872 11457.43457
611.480286 11791.120117
611.49176 9317.15918
611.503174 11790.958008
611.514587 9421.041992
611.526001 9765.746094
611.537476 7216.45459
611.548889 10942.625
611.560303 8492.286133
611.571716 9377.830078
611.583191 8448.802734
611.594604 6776.296387
611.606018 5251.679688
611.617432 9032.539062
611.628906 7224.140137
611.64032 6979.554688
611.651733 6536.904297
611.663147 5610.883789
611.674622 4256.442871
611.686035 7969.276855
611.697449 6725.188477
611.708923 4730.77002
611.720337 4234.160156
611.73175 5959.01123
611.743225 4901.231934
611.754639 5001.249512
611.766052 4903.600098
611.777527 6087.465332
611.78894 3646.030762
611.800354 7520.549316
611.811829 6750.838379
611.823242 2510.151367
611.834717 2260.571777
611.84613 5675.199707
611.857544 4818.891602
611.869019 3397.371094
611.880432 2840.570801
611.891907 4512.319336
611.90332 4156.706543
611.914734 2488.723633
611.926208 1604.53064
611.937622 4927.313965
611.949097 3706.3125
611.96051 4064.108887
611.971985 4206.757324
611.983398 3134.5
611.994812 1639.723999
612.006287 5268.690918
612.0177 4299.983398
612.029175 2309.932129
612.040588 2916.459473
612.052063 2554.840332
612.063477 1275.037964
612.223755 1286.790405
612.235168 3287.37793
612.246643 2380.622559
612.258057 2334.00293
612.269531 2679.671875
612.281006 939.702881
612.338257 1389.031128
612.34967 3733.366699
612.361145 2254.084473
612.372559 2247.978027
612.384033 2830.958496
612.395508 1661.640259
617.895081 1620.133423
617.906738 3047.881836
617.918335 3537.587402
617.929932 2576.427246
617.941528 1632.751831
629.202454 95.154785
629.214355 5688.401855
629.226257 40437.261719
629.23822 101388.375
629.250122 151695.109375
629.262085 150462.71875
629.273987 98226.921875
629.28595 36730.222656
629.297852 2974.137207
629.309814 513.894409
END IONS
