BEGIN IONS
PEPMASS=543.093
CHARGE=1
MSLEVEL=2
SOURCE_INSTRUMENT=LC-ESI-qTof
FILENAME=f.philipwi/0_WilliamsFreshwaterCyanosStandardsConvertedTo_mzXML_v2/PW-36_P1-D-9_Dendroamide_B_520amu_01_15551_Scan776-819.mzXML;
SEQ=*..*
IONMODE=Positive
ORGANISM=GNPS-LIBRARY
NAME=Dendroamide B M+Na
PI=Philip Williams
DATACOLLECTOR=Williams
SMILES=CC1C2=NC(=C(O2)C)C(=O)NC(C3=NC(=CS3)C(=O)NC(C4=NC(=CS4)C(=O)N1)CCSC)C
INCHI=
INCHIAUX=
PUBMED=
SUBMITUSER=philipwi
TAGS=
LIBRARYQUALITY=3
SPECTRUMID=CCMSLIB00000424849
SCANS=791
166.420258 36.0
167.037552 72.0
175.056747 112.0
176.011063 140.0
180.008133 312.0
182.049301 84.0
182.91037 40.0
186.261841 28.0
190.513779 176.0
198.236145 52.0
200.035156 144.0
210.013641 136.0
222.989655 112.0
225.012177 120.0
229.518997 168.0
230.031097 136.0
234.011993 180.0
236.554153 96.0
237.515915 148.0
239.514343 140.0
241.818436 40.0
242.020004 224.0
242.602158 32.0
243.022461 252.0
248.766724 44.0
249.018127 112.0
251.026047 336.0
251.246124 32.0
251.377487 28.0
251.518997 192.0
252.019379 112.0
252.520813 144.0
253.0681 40.0
254.31691 28.0
256.027924 232.0
256.527588 164.0
256.609283 32.0
257.534241 300.0
258.542816 40.0
259.045288 116.0
260.072235 36.0
263.72403 36.0
265.041351 560.0
265.553619 248.0
265.839996 44.0
266.043091 112.0
268.580444 44.0
268.653564 28.0
273.533875 144.0
274.029602 136.0
279.885315 32.0
280.033875 576.0
280.531586 84.0
280.771149 52.0
281.037384 628.0
281.54071 120.0
281.711853 64.0
283.920166 24.0
286.881561 32.0
288.676636 36.0
288.947449 32.0
289.042908 1044.0
289.549438 252.0
289.853516 40.0
290.043915 336.0
290.194885 36.0
290.540009 148.0
291.04248 80.0
291.553833 140.0
291.924011 28.0
292.741425 40.0
294.926758 112.0
308.052856 64.0
309.980194 64.0
311.305939 116.0
316.038361 128.0
319.103302 84.0
324.064362 36.0
330.96283 76.0
333.228027 148.0
334.04306 100.0
335.010742 56.0
344.977692 68.0
347.065826 116.0
349.241211 44.0
350.986572 128.0
354.994659 56.0
363.05072 100.0
367.09433 100.0
367.98645 48.0
369.075562 84.0
370.04364 56.0
371.04245 80.0
371.418274 24.0
372.008209 112.0
377.028992 64.0
382.987183 76.0
389.055237 112.0
392.988007 132.0
404.007568 72.0
405.033234 72.0
407.049866 120.0
410.981873 36.0
413.220551 36.0
426.043182 76.0
429.021973 76.0
433.012695 160.0
435.063812 40.0
439.021698 72.0
448.056519 72.0
452.032288 84.0
453.632935 52.0
454.624573 80.0
458.097046 28.0
469.795013 28.0
471.98056 64.0
473.116821 100.0
475.032196 56.0
475.129425 76.0
478.037872 60.0
485.312714 64.0
487.069672 56.0
488.054932 100.0
496.299591 68.0
501.025482 36.0
502.067627 56.0
506.089233 48.0
518.090759 80.0
521.095886 232.0
521.840942 28.0
522.103088 56.0
522.43811 32.0
523.087219 64.0
524.100464 44.0
525.078674 76.0
540.085632 84.0
540.350098 36.0
540.583923 412.0
540.690918 24.0
541.075317 324.0
541.298828 60.0
541.461975 32.0
541.595459 216.0
541.847717 44.0
542.090942 100.0
542.233582 32.0
542.382019 36.0
542.75647 92.0
543.091064 6688.0
543.728882 40.0
544.098877 1652.0
544.386841 48.0
544.670654 28.0
545.088806 872.0
545.593445 32.0
545.846558 36.0
546.083191 172.0
546.427551 36.0
547.068481 108.0
547.754517 60.0
548.082825 104.0
548.620178 112.0
549.068176 144.0
549.456604 28.0
550.218933 36.0
551.236206 32.0
555.254456 32.0
557.299133 84.0
559.063416 392.0
560.063599 168.0
560.418518 40.0
560.644897 24.0
561.044983 52.0
562.053101 180.0
565.060852 44.0
572.861023 204.0
575.840027 20.0
609.213257 100.0
655.515869 44.0
719.001465 148.0
729.414185 100.0
735.884521 36.0
753.960876 84.0
883.469543 176.0
993.542725 56.0
1005.978638 84.0
1238.246826 76.0
1466.509399 56.0
END IONS
