BEGIN IONS
PEPMASS=839.455
CHARGE=1
MSLEVEL=2
SOURCE_INSTRUMENT=LC-ESI-qTof
FILENAME=3954_839.mzXML
SEQ=*..*
IONMODE=Positive
ORGANISM=GNPS-LIBRARY
NAME=Arylomycin A4 M+H
PI=Dorrestein
DATACOLLECTOR=Peng
SMILES=CC1C(=O)NC(CC2=CC(=C(C=C2)O)C3=C(C=CC(=C3)C(C(=O)N1)N(C)C(=O)CNC(=O)C(C)NC(=O)C(CO)N(C)C(=O)CCCCCCCCCC(C)C)O)C(=O)O
INCHI=InChI=1S/C43H62N6O11/c1-25(2)14-12-10-8-7-9-11-13-15-36(53)48(5)33(24-50)41(57)45-26(3)39(55)44-23-37(54)49(6)38-29-17-19-35(52)31(22-29)30-20-28(16-18-34(30)51)21-32(43(59)60)47-40(56)27(4)46-42(38)58/h16-20,22,25-27,32-33,38,50-52H,7-15,21,23-24H2,1-6H3,(H,44,55)(H,45,57)(H,46,58)(H,47,56)(H,59,60)/t26-,27+,32+,33-,38+/m0/s1
INCHIAUX=N/A
PUBMED=ChemSpider ID: 8163610
SUBMITUSER=y6peng
TAGS=
LIBRARYQUALITY=2
SPECTRUMID=CCMSLIB00000075066
SCANS=1
240.279083 4.236288
244.208618 1.048069
246.227188 0.534021
247.150101 0.744678
249.078659 3.182552
250.249832 0.888126
252.265259 1.167254
254.345001 0.788909
255.204041 8.256117
256.320923 4.203412
257.976044 1.101094
260.077972 1.548005
261.134033 2.765508
264.156433 9.92164
265.290771 5.881193
266.497711 1.116335
268.287659 7.284814
270.204163 23.426258
278.175537 0.314865
280.232697 111.069962
281.158936 16.732555
282.005219 2.436249
283.298645 14.510867
284.31546 5.176738
286.06778 0.651075
292.200623 9.258289
293.171875 1.317917
294.177734 2.551264
296.279846 6.369506
298.184509 783.932861
298.86438 2.211786
306.224731 2.952436
307.187317 1.41296
309.065948 57.571842
310.160889 16.637522
311.131958 52.334686
311.948914 5.107309
313.180176 0.812405
314.154938 1.934905
315.313416 1.317512
321.364594 2.682906
322.132599 0.56273
323.237305 2.324337
327.152222 21.171301
329.272614 2.633053
335.090942 4.557172
337.286926 4.802176
338.148346 3.266144
350.445801 2.732086
351.2453 11.179744
353.310364 0.739027
355.110016 229.84169
356.02948 0.351765
364.743652 3.367177
365.369934 2.031447
368.633484 2.470397
370.334869 1.907739
372.449188 1.298128
374.431763 0.871107
376.374573 3.191765
377.148193 1.494125
379.352966 2.270579
380.874512 2.328333
383.171631 620.447632
384.142944 3.035478
385.942932 1.276612
386.699707 2.407756
391.980957 2.126812
397.049774 1.878803
400.091827 0.672666
401.375488 10.466484
403.198822 0.352685
408.328857 2.524845
409.296265 7.316513
411.126587 0.869596
414.066498 1263.825562
415.236908 5.526104
420.089325 1.421552
421.499298 1.077935
422.290588 1.935947
426.287659 9.157845
427.115234 2.231911
427.762756 0.614401
428.506287 0.977803
429.33606 0.596493
433.43515 2.200152
435.200256 5.194971
439.089935 195.678894
444.121826 0.692295
450.330383 0.387813
451.295532 1.106403
454.425354 5.543723
455.534302 2.858297
456.913696 348.925812
457.653564 2.134634
460.438538 1.08723
468.577209 1.686466
471.050964 149.098175
472.156677 0.751859
473.103821 4.039074
480.237823 0.435382
481.952881 1.668779
484.069641 1.542734
485.401154 1.180968
486.584564 1.249496
494.373688 5.086191
500.276123 1.324922
505.36676 1.946608
506.187286 2.608574
507.525238 2.695553
508.2146 0.767468
510.309143 3.647367
511.105621 4.266608
512.443176 1.168345
515.461426 0.571509
516.531128 1.954274
522.116089 0.321832
524.183105 23.347263
526.267944 3.451319
527.19458 1.358551
529.929688 2.131751
532.240601 2.183146
534.329285 2.55379
536.289307 1.965325
540.722534 7.958713
542.082886 459.895508
543.253296 0.230107
547.258179 2.338678
549.549316 5.801473
554.305664 2.735463
556.128601 1.175189
557.402588 2.370078
561.30896 2.58969
562.63147 1.691923
564.455688 0.396204
567.348633 1.809295
570.237183 1.309065
572.305542 1.136595
573.263794 1.420245
575.722656 1.235585
576.954712 1.918459
579.55188 1.414979
581.016296 0.80635
582.563599 1.33503
586.468262 1.401018
589.472534 3.039609
592.309753 1.393142
594.05658 15.874853
594.779358 1.946541
596.604736 5.377615
597.248657 1.279026
600.374756 5.207807
601.56781 1.325335
604.701233 1.443472
606.827759 5.647931
608.480103 1.502827
609.38208 1.196996
610.510254 1.050671
611.163452 0.667937
612.300415 1.567307
613.279907 2.72207
614.380371 0.822211
615.505005 2.659306
621.507446 1.827974
622.953308 0.836345
625.333374 11.861338
626.09436 4.311188
626.708496 0.82622
629.247925 0.388456
630.267822 2.532458
631.337097 0.60649
634.173828 11.441798
635.62915 0.440397
636.510376 6.10329
637.233093 2.41021
638.317871 1.67941
640.333374 4.385608
640.94043 4.941871
642.071655 2.811895
643.043579 1.248885
643.68811 3.13533
645.283813 1.039932
646.711182 4.853536
647.930908 5.470175
649.461304 1.480828
652.229736 1.313614
656.234009 1.935934
657.404724 3.26692
664.108582 2.61895
665.782166 1.69719
666.432251 3.485465
667.424011 2.058427
668.572998 0.651439
670.915527 3.654314
671.63623 4.41962
673.074951 0.966021
674.248901 7.08384
674.985779 1.297047
675.801758 2.71218
677.45105 11.349247
678.389404 3.280957
679.384888 2.937024
680.478271 15.692356
681.203125 1.917699
684.128113 4.631601
684.952515 0.589512
686.421265 2.498316
688.339294 8.605727
689.384216 2.827866
690.526917 0.817392
691.32196 0.481045
693.337158 1.216587
694.4198 0.779305
695.211914 1.132159
701.170349 2.086713
702.143677 1.064711
703.815491 1.579484
705.290466 2.071983
706.277283 3.459696
707.261963 5.158116
707.899292 1.451108
708.591187 3.10834
709.370605 5.78354
710.597778 6.920166
711.280029 0.245034
713.167969 1.354966
713.859314 1.140723
715.282227 0.537829
716.228882 0.238185
718.927429 0.578862
720.351501 9.744884
721.143738 5.843349
721.820679 3.576411
722.623657 4.149897
723.497498 6.753343
724.532227 7.2518
725.317017 10.24773
726.153198 1.852435
727.585327 4.133673
729.784363 0.797852
734.215454 1.070508
735.981567 6.485395
737.140503 1.722391
738.470825 9.322927
739.375 0.914627
740.557373 7.69538
742.467041 6.429994
743.480591 2.566998
745.128174 3.837965
745.852173 2.498015
747.47937 3.595126
748.225464 0.661692
749.654175 5.895612
751.638672 1.54231
752.276245 2.010003
753.287842 0.909272
754.37207 2.321695
755.488403 3.159126
757.217163 2.314198
758.488525 4.754673
761.600464 7.463912
763.430542 0.807907
764.117188 1.493167
764.924194 0.611313
765.551025 3.490659
766.517822 4.637406
767.346191 0.969003
768.278198 6.373985
768.953979 2.229295
769.967407 1.192987
771.287231 2.84622
771.97998 4.80042
774.766724 1.566103
775.78064 7.75364
776.510498 0.924006
779.487061 1.390213
780.31958 2.337787
781.013428 8.965887
782.654541 2.026281
784.650757 4.789351
785.28418 5.231355
786.539185 3.727705
787.536499 6.109453
788.422485 1.072099
789.43689 1.362188
792.519287 3.382165
793.530273 11.190382
794.361816 10.432855
795.398804 5.514766
796.612183 1.660818
799.546143 3.257814
801.17627 1.669152
801.837646 11.290483
803.416382 106.857132
804.165894 4.913864
804.766479 1.548456
806.302124 2.537345
807.359131 6.130919
808.431763 5.010855
809.183105 18.221598
810.213623 8.486786
811.325317 56.269836
812.187134 7.828274
814.815674 5.406642
815.931152 6.002126
816.559326 5.629963
817.891724 2.032402
819.704712 21.305042
820.49231 129.691513
821.260864 1065.522217
822.309814 23.770035
823.752686 13.600753
824.481079 8.457194
826.086304 9.193405
828.440186 13.413122
829.621094 17.286959
830.289917 5.389195
831.000488 4.067917
838.641357 2.868968
839.738647 0.887273
840.753784 3.065624
846.529663 3.147029
END IONS
