BEGIN IONS
PEPMASS=723.295
CHARGE=1
MSLEVEL=2
SOURCE_INSTRUMENT=LC-ESI-qTof
FILENAME=euphodendroidin_F.mgf
SEQ=*..*
IONMODE=Positive
ORGANISM=GNPS-LIBRARY
NAME=euphodendroidin F M+Na
PI=LITAUDON/TOUBOUL
DATACOLLECTOR=Esposito
SMILES=C[C@@]1(O)C[C@](O)(C([C@@H](C)/C=C/C(C)(C)[C@H](OC(C)=O)[C@H](OC(C)=O)[C@@H](OC(C2=CC=CC=C2)=O)C([C@@H]3OC(C(C)C)=O)=C)=O)[C@]3([H])[C@H]1OC(C)=O
INCHI=
INCHIAUX=
PUBMED=N/A
SUBMITUSER=lfnothias
TAGS=
LIBRARYQUALITY=1
SPECTRUMID=CCMSLIB00000840317
SCANS=1
71.048592 293.475189
77.038231 322.378204
83.048805 366.57901
95.084778 298.355591
105.032928 2528.700928
109.100693 1220.636963
123.079178 346.423798
133.099808 265.473389
135.079025 327.742004
145.063293 247.405594
147.078293 249.750305
151.073669 267.054688
157.098816 308.547699
159.079132 368.859406
159.115555 400.201111
163.073746 612.644714
171.11586 958.449524
175.07402 353.765289
185.131439 251.667801
187.074295 684.517883
187.109543 382.699188
189.125519 310.698212
195.115768 277.308014
201.126038 279.04361
205.085022 774.090027
207.114975 259.906311
209.13031 319.161285
213.125839 331.18631
215.067261 269.274689
215.105026 288.076996
223.108688 249.769806
223.147171 455.175415
225.126022 616.944214
227.105179 242.411194
227.140945 265.437286
229.119629 298.901703
237.124863 301.531799
237.162125 388.009613
241.12056 382.522797
241.157272 611.297913
247.146912 341.706299
251.140778 265.279205
253.120956 362.408813
255.13649 359.913696
255.172379 525.102722
265.109406 240.912796
265.157135 1487.984009
269.152222 374.814209
283.167633 2336.226074
293.15213 1187.743042
301.178009 594.174377
311.162659 2716.811035
329.173462 1237.192017
333.144958 756.64032
343.188477 681.202576
351.155365 875.05127
353.172211 246.667099
371.183258 547.531616
389.194031 437.934296
393.165527 1659.633057
409.195221 265.264099
411.176208 1964.02002
421.19574 279.895386
425.191132 405.838898
453.186249 2119.167969
455.184662 360.984985
471.197021 3207.030029
472.200256 295.046692
473.190033 300.466614
481.218018 1404.890991
499.228088 2943.354004
500.23175 378.840515
513.20874 1021.396973
515.203003 1050.276001
533.212891 1315.661987
541.239197 4097.395996
542.240356 422.171387
559.249878 677.148804
575.223267 2401.924072
576.226379 309.652893
577.238525 254.634796
601.26001 9525.385742
602.262878 1050.010986
603.254578 1834.432983
604.258179 268.904114
635.245361 4007.641113
636.249084 495.990509
663.275818 21156.980469
664.279602 2556.779053
723.296936 233435.796875
724.300537 25562.300781
724.448975 269.021515
END IONS
