BEGIN IONS
PEPMASS=1586.01
CHARGE=-1
MSLEVEL=2
SOURCE_INSTRUMENT=LC-ESI-qTof
FILENAME=f.crath3/Lipids/Figure_S11B.mgf;
SEQ=*..*
IONMODE=Negative
ORGANISM=GNPS-LIBRARY
NAME=Penta acylated lipid IVa M-H
PI=C. Rath
DATACOLLECTOR=C. Rath
SMILES=O=C(C[C@@H](CCCCCCCCCCC)OC(CCCCCCCCCC)=O)N[C@@H]1[C@H]([C@H](O)[C@@H](CO[C@@H]2O[C@H](CO)[C@@H](OP(O)(O)=O)[C@H](OC(C[C@@H](CCCCCCCCCCC)O)=O)[C@H]2NC(C[C@@H](CCCCCCCCCCC)O)=O)O[C@@H]1OP(O)(O)=O)OC(C[C@@H](CCCCCCCCCCC)O)=O
INCHI=
INCHIAUX=
PUBMED=27681620
SUBMITUSER=crath3
TAGS=Lipid, Lipid IVa is an intermeidate in the Raetz pathway for LPS biosysnthesis in gram negative bacteria.  The penta acylated product is an intermediate between Lipid IVa and Lipid A and/or LPA[Chemical Family]
LIBRARYQUALITY=3
SPECTRUMID=CCMSLIB00000840425
SCANS=1
77.988747 122643.101562
96.969887 214923.0
158.926361 284781.59375
160.928772 7986.51416
176.937241 181445.203125
466.223602 17234.470703
508.234436 23768.089844
526.243591 15033.05957
799.455994 15894.110352
817.466248 19011.980469
1017.646362 24209.400391
1018.649902 10137.349609
1035.647095 16578.419922
1043.662476 29745.609375
1044.665527 13270.519531
1243.842407 55276.820312
1244.845459 34807.410156
1245.84729 12829.980469
1261.852539 22908.439453
1262.855835 11400.55957
1323.807129 14700.599609
1341.819336 38121.191406
1342.822998 22893.300781
1343.824585 8729.996094
1488.047485 20522.689453
1489.049927 12115.139648
1586.024292 27576.900391
1587.028076 19083.849609
1588.030396 8793.154297
END IONS
