BEGIN IONS
PEPMASS=801.26
CHARGE=1
MSLEVEL=2
SOURCE_INSTRUMENT=LC-ESI-Hybrid FT
FILENAME=f.novakj/siderophores/Ferri_ferrichrysin.mzXML;
SEQ=*..*
IONMODE=Positive
ORGANISM=GNPS-LIBRARY
NAME=Ferrichrysin [M+Fe-2H] M+H
PI=Havlicek
DATACOLLECTOR=
SMILES=CC1=[O][Fe]2345ON1CCCC1NC(=O)CNC(=O)C(CO)NC(=O)C(CO)NC(=O)C(CCCN(O2)C(C)=[O]3)NC(=O)C(CCCN(O4)C(C)=[O]5)NC1=O
INCHI=
INCHIAUX=
PUBMED=27956353
SUBMITUSER=novakj
TAGS=
LIBRARYQUALITY=3
SPECTRUMID=CCMSLIB00001059078
SCANS=1
141.225555 465953.0
143.725555 511776.0
144.521774 505975.0
144.963531 485902.0
147.04248 479641.0
150.769165 492775.0
151.342484 491571.0
151.558456 460810.0
152.502014 460756.0
153.878983 483800.0
155.095108 658035.0
157.61795 468736.0
159.652679 501430.0
160.491638 492328.0
161.610077 471887.0
166.982025 559375.0
167.179535 486327.0
170.514877 459787.0
172.8936 527120.0
175.671066 479575.0
177.403793 497684.0
186.725311 485217.0
190.023895 1520908.0
191.790314 478545.0
213.241425 473815.0
226.720047 496634.0
226.866638 503327.0
229.273987 525409.0
234.013672 1636322.0
255.995514 724366.0
259.562286 522822.0
265.760742 491285.0
266.83078 511902.0
277.672485 513750.0
278.058716 576840.0
288.345215 7062945.0
288.346405 888269.0
291.757568 590593.0
294.049988 5632332.0
295.053406 663623.0
297.787994 532091.0
298.037628 504538.0
311.207947 763333.0
322.035919 581107.0
340.046112 528839.0
351.062225 558362.0
352.046204 1730706.0
354.098175 506693.0
361.055695 1480637.0
370.056763 1922394.0
370.09314 7283124.0
371.096283 783473.0
380.040985 793335.0
391.057098 811748.0
397.067383 798337.0
398.084564 561591.0
398.087982 12888212.0
398.09024 1000550.0
399.091339 1446289.0
409.067535 1659841.0
410.087982 1814183.0
416.098419 844693.0
419.354767 539053.0
421.067627 1719849.0
422.07547 524131.0
424.373688 563056.0
426.082642 548856.0
427.078094 1422550.0
427.114532 1800397.0
429.668732 551004.0
437.098907 1028163.0
438.082703 837427.0
439.078156 1659742.0
455.109375 15178546.0
455.113922 732286.0
456.112762 1660325.0
457.088562 2549409.0
457.124756 733506.0
466.810791 620911.0
467.109283 2481263.0
471.939087 552905.0
479.109528 653148.0
485.119812 2333918.0
496.135895 1237475.0
497.119904 884080.0
506.120117 653150.0
508.13562 528542.0
512.130615 530279.0
514.146362 2566131.0
518.1203 760523.0
518.677429 690075.0
523.146545 691959.0
524.130615 6252834.0
525.134094 791615.0
534.115051 1683684.0
535.14679 1038797.0
536.130676 1772904.0
542.141235 10558192.0
543.144592 1363683.0
546.115112 642757.0
547.146667 1010099.0
548.130554 793774.0
551.141113 745814.0
551.601318 543795.0
552.12561 1255786.0
553.157104 3224404.0
554.141113 646167.0
554.160522 565814.0
563.141357 2507726.0
564.125549 1785540.0
565.157227 3791757.0
566.141113 3458220.0
566.160706 601311.0
567.144409 658365.0
575.141357 1758934.0
576.12561 1633603.0
577.129211 536971.0
580.167419 636229.0
581.151978 5748434.0
582.155396 967621.0
582.172363 2014104.0
583.167664 3677649.0
583.512939 578770.0
592.167969 556491.0
593.151917 13326492.0
593.156921 983119.0
594.135986 2951123.0
594.155518 2531550.0
598.178528 1273131.0
599.162598 1831900.0
601.178284 1772316.0
610.17865 1044546.0
611.162476 15181845.0
611.167786 1126301.0
612.165771 2512927.0
627.194153 746642.0
629.172974 14981512.0
629.178589 1197051.0
629.234192 644092.0
629.269104 540326.0
630.176392 2790504.0
642.446472 554688.0
666.868225 568028.0
669.796814 610811.0
671.311218 670131.0
701.622498 566737.0
707.231323 750542.0
708.214844 654706.0
725.241089 746920.0
735.226318 986880.0
737.24176 830331.0
742.275635 668230.0
753.236389 877197.0
755.252808 593961.0
765.236389 3092590.0
766.239502 795869.0
769.315308 583667.0
771.363342 586856.0
783.246643 1630355.0
783.363831 1125766.0
784.358704 722435.0
801.257202 1083033.0
END IONS
