BEGIN IONS
PEPMASS=290.15
CHARGE=1
MSLEVEL=2
SOURCE_INSTRUMENT=LC-ESI-qTof
FILENAME=f.amcaraballor/20150613_CocultureEndophytes_01_All_mzXML/A7F4_Green_P1-G-3_01_23338.mzXML;
SEQ=*..*
IONMODE=Positive
ORGANISM=GNPS-LIBRARY
NAME=Antibiotic TAN 1169B M+H
PI=MT Pupo
DATACOLLECTOR=amcaraballor
SMILES=O=C(NC)OC1=CC=C(NC2C3(C)CCN2C(C)=O)C3=C1
INCHI=
INCHIAUX=
PUBMED=
SUBMITUSER=amcaraballor
TAGS=
LIBRARYQUALITY=3
SPECTRUMID=CCMSLIB00000840418
SCANS=273
145.087952 368.0
146.059753 496.0
147.067017 352.0
159.066391 996.0
160.1035 752.0
161.087585 320.0
172.07518 1172.0
173.08316 8000.0
174.089432 1344.0
175.093674 556.0
188.105927 16924.0
189.109238 1460.0
231.112656 3996.0
232.114197 600.0
290.154175 384.0
END IONS
