BEGIN IONS
PEPMASS=874.33
CHARGE=1
MSLEVEL=2
SOURCE_INSTRUMENT=LC-ESI-Orbitrap
FILENAME=f.Rolandoo1/GNPS spectra/Lycium-barbarum-root-MeOH-Lyciumin-A.mzXML;
SEQ=*..*
IONMODE=Positive
ORGANISM=GNPS-LIBRARY
NAME=Lyciumin A M+H
PI=Jing-Ke Weng
DATACOLLECTOR=Roland Kersten
SMILES=CC(C)C1C(=O)NCC(=O)NC(C(=O)NC(Cc2cn(c3c2cccc3)C(C(=O)N1)NC(=O)C(Cc4ccc(cc4)O)NC(=O)C5CCCN5C(=O)C6CCC(=O)N6)C(=O)O)CO
INCHI=InChI=1S/C42H51N9O12/c1-21(2)34-39(59)43-18-33(55)45-29(20-52)37(57)47-28(42(62)63)17-23-19-51(30-7-4-3-6-25(23)30)35(40(60)48-34)49-36(56)27(16-22-9-11-24(53)12-10-22)46-38(58)31-8-5-15-50(31)41(61)26-13-14-32(54)44-26/h3-4,6-7,9-12,19,21,26-29,31,34-35,52-53H,5,8,13-18,20H2,1-2H3,(H,43,59)(H,44,54)(H,45,55)(H,46,58)(H,47,57)(H,48,60)(H,49,56)(H,62,63)
INCHIAUX=IPOLXDNCMOVXCP-UHFFFAOYSA-N
PUBMED=
SUBMITUSER=Rolandoo1
TAGS=
LIBRARYQUALITY=3
SPECTRUMID=CCMSLIB00000579926
SCANS=1
66.714592 708.321106
66.715103 1371.724365
66.715622 1716.336792
66.716141 1501.589111
66.71666 872.896179
70.026863 34.540462
70.02742 1593.451172
70.027969 4159.133789
70.028526 8721.086914
70.029083 11153.025391
70.02964 8883.285156
70.030197 5105.032227
70.030754 1812.309692
70.031303 209.800735
70.062996 1060.320679
70.063553 3230.964111
70.064102 10777.349609
70.064659 23093.3125
70.065216 36582.503906
70.065773 38577.769531
70.06633 26571.6875
70.066887 13306.329102
70.067444 3697.883789
70.068001 309.632965
72.043129 40.841248
72.043709 800.016113
72.044289 1609.24353
72.044868 1980.023193
72.045448 1633.602051
72.046028 852.766479
72.077927 4.846433
72.078514 698.640381
72.079094 3738.435547
72.079674 13684.699219
72.080254 29830.675781
72.080833 47023.441406
72.081413 49874.621094
72.081993 33601.523438
72.082573 16990.566406
72.083153 4545.711914
72.083733 553.949097
75.701683 92.219643
75.702309 1015.322083
75.702934 1568.634033
75.70356 1731.172119
75.704185 1401.817749
75.704811 747.509583
91.051552 116.969986
91.052376 744.073914
91.0532 1872.206421
91.054024 2972.880127
91.054848 3320.332275
91.055672 2679.680908
91.056496 1521.704346
91.05732 522.913696
97.050133 210.115204
97.051041 893.095337
97.051949 1268.624268
97.052856 1337.105347
97.053764 1079.897705
97.054672 556.066833
99.051514 780.68689
99.052452 4811.152344
99.053383 13097.904297
99.054321 24006.480469
99.055252 30782.337891
99.05619 26281.173828
99.057121 15291.988281
99.05806 6242.019043
99.05899 1580.995117
99.059929 297.227509
100.128685 263.064819
100.129631 1039.105103
100.130585 1450.398315
100.131531 1490.140747
100.132484 1134.546509
100.13343 510.672363
111.05014 36.875271
111.051247 1505.811035
111.052361 6686.611328
111.053467 14130.597656
111.054581 21283.642578
111.055687 20657.03125
111.056801 13665.390625
111.057907 6225.494141
111.059021 1971.372437
111.060127 374.918518
115.047707 528.31189
115.048874 1505.078613
115.050049 1858.651367
115.051216 1729.55957
115.052383 1210.500244
115.053558 476.621979
119.04554 516.893982
119.046768 1715.217407
119.047997 2719.606201
119.049232 2980.135254
119.050461 2281.631104
119.051697 1139.832642
119.052925 221.301666
127.121277 487.084747
127.122635 1214.630005
127.123993 1419.603516
127.125351 1307.470093
127.126709 940.888306
127.128075 367.789673
130.059311 775.552063
130.060715 4970.01123
130.062119 12759.088867
130.063538 21792.466797
130.064941 25135.181641
130.066345 19479.785156
130.067749 10698.347656
130.069153 4156.432129
130.070557 957.905151
131.525894 305.012207
131.527328 892.610229
131.528763 1314.184326
131.530197 1404.996094
131.531616 1135.231445
131.533051 477.626495
136.064087 273.704132
136.065598 1316.752075
136.067093 2366.592285
136.068604 10938.963867
136.070114 44992.242188
136.071609 142990.390625
136.07312 287925.59375
136.074631 415334.625
136.076126 410152.1875
136.077637 281829.46875
136.079147 136932.140625
136.080643 43934.199219
136.082153 12630.277344
136.083664 5534.768066
136.085159 2423.814453
136.08667 238.098816
139.0439 435.919739
139.045456 1402.438232
139.047012 2523.627197
139.048553 3320.63501
139.05011 3300.87915
139.051666 2483.12915
139.053223 1370.811279
139.054779 407.408112
144.0737 502.532318
144.075348 2123.321045
144.076981 5738.916016
144.078629 10131.712891
144.080261 11848.973633
144.081909 9435.831055
144.083542 5141.685059
144.08519 1939.343506
144.086823 407.947601
145.054382 830.396423
145.05603 3299.561035
145.057693 6952.018066
145.059357 10417.032227
145.061005 10845.167969
145.062668 7865.602539
145.064316 4072.232422
145.065979 1418.487183
145.067627 254.135574
146.053467 176.298401
146.055145 916.401428
146.056824 2263.686279
146.058487 3537.106689
146.060165 3840.367676
146.061844 2947.859619
146.063507 1544.956787
146.065186 422.949738
153.097168 647.321594
153.098953 1684.477661
153.100754 2222.27124
153.102554 2093.657471
153.104355 1414.727173
153.10614 478.504791
155.039261 469.137238
155.041092 1434.262085
155.042923 2350.478271
155.044754 2760.22583
155.04657 2384.60498
155.048401 1463.268433
155.050232 469.81076
156.075027 505.217773
156.076874 1446.241943
156.07872 2117.891602
156.080566 2217.633545
156.082413 1633.29187
156.084259 598.331238
157.091324 1749.343384
157.093185 5936.419434
157.095062 10672.654297
157.096924 12692.246094
157.098785 10107.268555
157.100662 5676.347656
157.102524 2054.372559
157.104401 340.320221
158.053497 510.864288
158.055389 1661.908081
158.057266 2864.82666
158.059158 3502.299805
158.061035 3103.75
158.062927 1946.765747
158.064804 605.71698
159.081619 107.027122
159.083511 1708.867188
159.085419 8520.979492
159.087326 22019.738281
159.089218 38848.671875
159.091125 47698.941406
159.093033 39360.699219
159.09494 23091.142578
159.096832 9476.825195
159.09874 2951.530029
159.100647 685.514038
169.066116 841.082458
169.068207 5553.925781
169.070282 20649.720703
169.072372 41841.539062
169.074463 60722.621094
169.076538 58195.949219
169.078629 39079.339844
169.080719 18222.554688
169.082794 5660.288086
169.084885 1443.518311
169.086975 314.97699
169.091141 420.998383
169.093216 1488.948608
169.095306 2751.786621
169.097397 3375.685059
169.099472 2809.357422
169.101562 1573.987915
169.103653 420.003479
170.050125 1142.772095
170.052216 6286.126465
170.054321 21971.763672
170.056427 45540.589844
170.058533 66827.109375
170.060638 66793.085938
170.062744 46115.242188
170.064835 22333.703125
170.06694 6939.871094
170.069046 1730.622925
170.071152 355.049194
171.080917 18.778002
171.083038 1128.753906
171.085159 5987.01123
171.08728 14929.764648
171.089417 25417.605469
171.091537 30190.716797
171.093658 24026.642578
171.095779 13254.097656
171.0979 4746.596191
171.100021 681.918091
171.104263 749.952576
171.106384 1924.451294
171.108505 3063.757812
171.110626 4300.945312
171.112747 4798.827637
171.114883 4010.140137
171.117004 2420.909668
171.119125 753.677734
172.069748 744.444153
172.071884 1845.878784
172.07402 2363.106201
172.076172 2240.786865
172.078308 1536.763062
172.080444 545.730957
173.099564 360.914398
173.101715 1146.770386
173.103882 1884.899536
173.106033 2213.05542
173.1082 1892.437988
173.110352 1133.786011
173.112518 350.073914
181.083832 409.330597
181.086136 4569.726074
181.08844 22710.673828
181.090759 78189.757812
181.093063 159801.015625
181.095383 235454.796875
181.097687 235644.921875
181.100006 164554.96875
181.10231 81476.921875
181.10463 28168.314453
181.106934 8755.204102
181.109238 3919.172852
181.111557 1636.522095
181.113861 184.674454
182.048904 332.804565
182.051239 2193.696289
182.053574 8544.211914
182.055893 17677.730469
182.058228 25789.623047
182.060562 24543.224609
182.062881 16295.5625
182.065216 7518.889648
182.067551 2274.194092
182.06987 463.831085
183.033478 304.45224
183.035812 1098.485718
183.038162 1894.785034
183.040512 2075.820801
183.042862 1498.346191
183.045212 530.621704
183.085144 465.110809
183.087494 1924.069458
183.089844 3467.563721
183.092194 3922.089844
183.094543 3108.501953
183.096893 1550.292236
183.099243 341.682373
184.099442 1050.109497
184.101822 3748.178223
184.104187 7320.699707
184.106552 10531.710938
184.108917 10701.512695
184.111298 7171.787109
184.113663 3382.510742
184.116028 984.081665
187.079361 263.223328
187.081787 1090.406128
187.084213 2208.610596
187.086639 2909.43335
187.089066 2696.964111
187.091507 1757.973145
187.093933 571.372864
188.058609 849.311462
188.06105 4878.291504
188.063492 18697.828125
188.065933 41141.585938
188.06839 64123.238281
188.070831 68166.460938
188.073273 49576.273438
188.075714 25384.376953
188.078171 8769.021484
188.080612 2235.447021
188.083054 441.456543
195.063934 154.454056
195.066528 1778.69812
195.069107 7064.925781
195.071686 15212.303711
195.07428 23060.255859
195.076859 23977.341797
195.079437 17025.664062
195.082016 8477.061523
195.08461 2735.525146
195.087189 538.24823
197.060577 687.963196
197.063202 2506.975098
197.065826 5541.729492
197.068451 9206.073242
197.071075 10567.31543
197.0737 8247.166016
197.076324 4592.194824
197.078949 1845.052979
197.081573 407.721985
198.047958 518.336182
198.050598 1373.75293
198.053238 1839.19751
198.055878 1768.07251
198.058533 1203.708008
198.061172 413.051086
199.074722 402.670929
199.077393 3408.210205
199.080048 11269.948242
199.082718 22293.953125
199.085373 30757.894531
199.088043 28760.28125
199.090698 18807.111328
199.093369 8848.254883
199.096024 2479.364502
199.098694 754.074768
199.101364 1583.533569
199.104019 3123.063232
199.106689 3681.237305
199.109344 3100.128906
199.112015 2106.335693
199.114685 1083.194214
199.11734 246.633224
205.082977 368.701965
205.085754 1941.559448
205.088547 8390.53125
205.091324 20241.789062
205.094116 33980.945312
205.096893 38390.261719
205.099686 29154.777344
205.102463 15799.186523
205.105255 6245.875977
205.108032 2110.676758
205.110825 496.738403
208.095642 681.657227
208.098495 2446.77002
208.101334 6298.3125
208.104187 12024.976562
208.10704 15787.145508
208.109879 13755.114258
208.112732 7962.266113
208.11557 3274.529297
208.118423 775.675171
209.078323 1012.765503
209.081192 4519.220215
209.084061 15333.265625
209.086914 32536.009766
209.089783 49134.707031
209.092651 50757.234375
209.09552 35958.390625
209.098389 17816.070312
209.101257 5684.397461
209.104126 1249.101685
209.106995 192.626389
211.07338 339.437866
211.076294 1644.845825
211.079208 4454.663086
211.082108 8289.982422
211.085022 11292.304688
211.087921 10572.085938
211.090836 6804.665039
211.09375 2957.438477
211.096649 615.565002
212.091904 436.065277
212.094818 1959.270386
212.097748 4332.991211
212.100677 7496.825195
212.103607 8246.956055
212.106537 5259.009277
212.109467 2121.356689
212.112396 437.898895
213.091248 357.762573
213.094193 1413.081421
213.097153 3071.233887
213.100098 5940.230469
213.103043 7006.037598
213.106003 4667.8125
213.108948 2188.901855
213.111893 633.191711
215.054428 155.419083
215.057419 1132.804321
215.06041 3009.454834
215.0634 2952.141846
215.066391 1815.469727
215.069382 3615.725342
215.072372 14130.71875
215.075363 33054.59375
215.078354 54755.5
215.081345 62150.609375
215.084335 47477.953125
215.087326 25709.0625
215.090317 9533.257812
215.093307 2390.302979
215.096298 455.794189
216.101913 217.849106
216.104935 1541.782715
216.107941 3408.829346
216.110962 4517.279785
216.113968 4393.72168
216.116989 3090.359131
216.119995 1310.098999
216.123001 213.970093
217.087311 1014.153687
217.090347 3175.958496
217.093384 5372.279297
217.096405 6490.916016
217.099442 5716.45166
217.102478 3584.725342
217.105515 1133.026367
224.091812 484.438538
224.094986 1505.489136
224.098175 2592.728027
224.101349 3192.108887
224.104523 2859.367676
224.107712 1823.397827
224.110886 494.821533
226.10289 858.874756
226.106125 4086.2229
226.109344 15646.883789
226.112564 34125.449219
226.115784 53406.457031
226.119019 56336.316406
226.122238 40604.175781
226.125458 20650.830078
226.128693 7097.700195
226.131912 1744.596436
226.135132 89.332214
229.081879 273.086029
229.085159 2278.530029
229.08844 9127.561523
229.091736 17745.876953
229.095016 24882.037109
229.098312 21965.566406
229.101593 13759.388672
229.104889 5778.376953
229.10817 1587.932129
229.111465 371.483002
232.093292 607.936279
232.096634 2091.569092
232.099991 6098.078125
232.103348 12151.128906
232.106705 16443.058594
232.110046 14843.313477
232.113403 9115.463867
232.11676 3808.297607
232.120117 705.447144
236.087067 111.461037
236.0905 2300.210938
236.093948 8927.206055
236.097382 17956.441406
236.10083 25583.955078
236.104263 23940.285156
236.107697 15810.806641
236.111145 7064.833984
236.114578 2034.407349
236.118027 349.760651
238.087875 496.16571
238.09137 1319.578491
238.094849 1879.863647
238.098328 1894.624878
238.101822 1360.334106
238.105301 451.718475
240.054276 412.524292
240.0578 1276.129272
240.061325 2224.911621
240.06485 2813.552979
240.068375 2679.297363
240.071915 1907.437134
240.075439 636.811951
240.100128 712.576416
240.103653 2312.013184
240.107178 4204.638184
240.110718 5499.233887
240.114243 5344.703125
240.117767 3815.63916
240.121292 1704.344727
240.124817 322.225739
241.087433 618.405334
241.090988 1928.025146
241.094528 3187.620605
241.098083 3557.99292
241.101624 2780.76001
241.105179 1506.081421
241.108734 404.647888
241.122925 943.33728
241.12648 2649.019775
241.130035 4116.811523
241.133591 4532.299805
241.137131 3530.592285
241.140686 1842.90979
241.144241 478.059357
244.118713 1042.451294
244.12233 3045.557129
244.125946 4833.751465
244.129562 5444.785645
244.133179 4467.670898
244.136795 2609.531738
244.140411 753.954956
250.085083 862.636841
250.088837 2483.428955
250.09259 4002.927002
250.096344 4636.049805
250.100082 3900.556641
250.103836 2132.515625
250.10759 522.927795
250.686203 451.98584
250.689957 1220.254761
250.693726 1840.65686
250.697495 2006.254272
250.701248 1599.005249
250.705017 559.752441
251.066772 995.794617
251.070541 3095.522949
251.07431 6199.892578
251.078079 9279.106445
251.081863 9250.841797
251.085632 6240.181152
251.089401 2951.288818
251.09317 707.100037
252.137741 773.149536
252.141541 1801.572998
252.145325 2341.729248
252.149124 2227.861328
252.152924 1483.641479
252.156723 55.625546
253.116272 242.47673
253.120087 4571.395508
253.123901 13191.52832
253.127716 22919.435547
253.131546 27570.578125
253.135361 21029.410156
253.139175 11964.923828
253.143005 4237.392578
253.14682 829.131592
253.150635 149.568008
254.092819 933.032349
254.096664 3332.001709
254.100494 13574.303711
254.10434 39085.707031
254.108185 71935.8125
254.11203 93921.914062
254.11586 81005.601562
254.119705 50376.46875
254.12355 21383.984375
254.127396 6296.85791
254.131226 2069.82959
254.135071 561.858337
256.097931 602.103699
256.101807 1556.03418
256.105713 2164.700684
256.109589 2063.179443
256.113464 1302.18396
256.117371 368.356598
257.080078 725.515259
257.083984 2113.30249
257.087891 3458.467529
257.091797 4007.387695
257.095703 3345.763428
257.09964 1959.742432
257.103546 554.294495
260.092499 1124.366943
260.096466 2969.528564
260.100433 4317.839844
260.104431 4525.238281
260.108398 3510.440186
260.112366 1661.793091
260.116364 245.278748
260.132263 503.394623
260.136261 1127.290771
260.140228 1379.726196
260.144196 1262.232422
260.148193 842.886719
260.152161 265.570282
264.079468 174.066162
264.083557 2504.125977
264.087616 9462.743164
264.091675 18601.46875
264.095764 26285.052734
264.099823 23880.785156
264.103882 14886.1875
264.107971 5979.392578
264.11203 1351.988525
264.116119 123.366699
268.092224 269.982208
268.096405 1672.691162
268.100555 3890.307617
268.104736 5699.32959
268.108887 6058.742676
268.113037 4855.390625
268.117218 2994.570557
268.121368 1440.470337
268.125549 925.927063
268.1297 1472.425415
268.133881 2997.022949
268.138031 5471.920898
268.142181 7503.743164
268.146362 6883.505859
268.150513 3954.200439
268.154694 1638.730591
268.158844 411.413391
269.081451 664.202271
269.085663 1544.633789
269.089844 2031.418335
269.094025 2048.700195
269.098206 1661.000366
269.102386 1127.800903
269.106567 368.842621
269.110779 786.745972
269.11496 2484.167236
269.119141 6489.185547
269.123322 11859.226562
269.127502 14227.272461
269.131683 11086.831055
269.135895 5674.708496
269.140076 2342.876709
269.144257 619.589478
270.143524 321.949829
270.147736 1517.19519
270.151947 3612.425781
270.156158 5730.115234
270.16037 6512.066406
270.164581 5353.185547
270.168793 3095.281738
270.173004 846.04657
274.106384 838.628479
274.110687 2216.949707
274.11499 3353.470215
274.119293 3658.161621
274.123596 2927.670654
274.127899 1674.397583
274.132202 456.065369
278.077942 786.52594
278.082336 2290.369873
278.086731 3912.586914
278.091125 4849.734863
278.09552 4372.915527
278.099915 2604.483887
278.104309 1053.941162
278.108704 175.938217
280.125061 211.364273
280.129486 3024.938721
280.133942 10173.166016
280.138397 19109.787109
280.142822 25037.353516
280.147278 21173.857422
280.151733 12878.453125
280.156158 5277.310547
280.160614 1371.533203
280.16507 154.818405
281.105682 1072.478882
281.110168 5977.953613
281.114624 21857.214844
281.11911 48372.886719
281.123566 77967.390625
281.128021 86918.375
281.132507 66086.984375
281.136963 35993.324219
281.141449 13631.898438
281.145905 3661.005859
281.150391 1414.269775
281.154846 322.885559
282.087006 659.341675
282.091492 3009.48291
282.095978 11144.779297
282.100464 23725.816406
282.10498 36754.398438
282.109467 38124.46875
282.113953 27220.429688
282.118439 13947.555664
282.122955 4969.455078
282.127441 1250.432983
282.131927 204.006653
284.092346 876.225098
284.096863 2101.27124
284.10141 2943.102295
284.105957 3128.685059
284.110504 2591.557129
284.115021 1684.960327
284.119568 499.224152
284.124115 843.187622
284.128662 2189.107666
284.133209 4176.976562
284.137756 6058.88623
284.142273 4879.103516
284.14682 2679.397217
284.151367 1171.121338
284.155914 252.061996
286.100769 497.936096
286.105347 2070.728027
286.109955 5201.411133
286.114532 8788.475586
286.119141 9837.533203
286.123718 7453.633789
286.128296 3794.185547
286.132904 1339.323608
286.137482 261.689056
288.25119 621.583069
288.255829 1478.754272
288.260498 2046.784912
288.265137 2115.309326
288.269775 1658.16272
288.274414 322.990875
292.108734 267.289886
292.113464 3718.155029
292.118195 12112.771484
292.122955 22383.263672
292.127686 28970.275391
292.132416 24097.664062
292.137146 14730.697266
292.141876 5917.913086
292.146606 1491.881592
292.151367 220.011276
294.073792 965.717041
294.078583 2267.108887
294.083344 3118.30957
294.088135 3142.218018
294.092926 2318.095459
294.097687 1206.586914
294.102478 296.995789
296.121521 1414.489014
296.126373 5463.496094
296.131195 11210.611328
296.136017 16941.568359
296.140869 17247.400391
296.145691 11980.146484
296.150513 5823.351562
296.155365 2173.033447
296.160187 482.986877
298.137054 882.148621
298.141937 2929.439209
298.14679 5693.789062
298.151672 9408.448242
298.156555 8676.491211
298.161438 5563.321777
298.166321 2797.278809
298.171204 547.510803
299.115723 1272.427246
299.120636 6245.588379
299.125549 14047.290039
299.130432 22852.541016
299.135345 24235.757812
299.140259 17196.986328
299.145172 8732.601562
299.150055 3259.388184
299.154968 845.605225
308.124451 370.707336
308.129578 1049.839844
308.134705 1716.32959
308.139832 1981.631104
308.144989 1678.130981
308.150116 1045.594116
308.155243 285.019684
310.098206 542.951233
310.103363 3372.438477
310.108551 8234.290039
310.113739 13509.881836
310.118927 15481.885742
310.124084 12085.862305
310.129272 6523.258301
310.13446 2056.266602
310.139618 225.968796
312.080505 535.739075
312.085724 1585.113403
312.090973 2734.913574
312.096191 3371.501953
312.10141 3051.227783
312.106659 2030.015503
312.111877 841.946899
312.117096 1139.2323
312.122345 3408.810791
312.127563 6340.95166
312.132782 8241.753906
312.138031 7019.502441
312.14325 4198.699219
312.148468 1706.748291
312.153717 281.571655
314.124115 369.730347
314.129395 2047.865234
314.134674 9087.473633
314.139954 20548.431641
314.145233 33181.875
314.150513 35664.109375
314.155792 25867.078125
314.161072 13456.494141
314.166351 4644.59082
314.171631 837.904175
319.119019 625.128601
319.12442 2420.626221
319.129822 5537.673828
319.135223 8619.742188
319.140625 8891.554688
319.146057 5718.807129
319.151459 2656.535645
319.15686 629.042419
322.140442 1130.176147
322.145935 2641.121582
322.151428 3629.863281
322.156891 3598.89209
322.162384 2526.31958
322.167877 650.303467
324.112244 1679.96582
324.117767 7643.02002
324.123322 17867.267578
324.128845 29702.308594
324.134369 33690.085938
324.139923 25434.642578
324.145447 13795.77832
324.15097 4695.259766
324.156525 731.803162
325.149414 1068.33313
325.154968 3268.359375
325.160522 6823.28418
325.166077 8679.043945
325.171661 7038.961914
325.177216 3998.016113
325.18277 1474.870483
325.188324 300.582886
326.124542 118.356232
326.130127 2078.006592
326.135712 7660.355957
326.141296 15213.125977
326.146881 21192.677734
326.152466 19833.839844
326.158051 12993.042969
326.163635 5935.028809
326.16922 1322.212036
326.174805 17.025454
330.131775 612.121216
330.137451 1262.266357
330.143158 1506.98291
330.148834 1288.464722
330.154541 751.501343
330.160217 182.847275
335.136444 667.257568
335.142273 1505.727295
335.148071 1982.486084
335.1539 1849.020874
335.159729 1197.957642
335.165527 307.358612
336.115967 1115.223022
336.121826 4621.515625
336.127655 8860.97168
336.133514 11311.121094
336.139343 9543.275391
336.145172 5719.575195
336.151031 2234.169189
336.15686 380.272156
338.135101 1113.186279
338.140991 2587.169678
338.146881 3588.7146
338.152802 3561.758301
338.158691 2520.949707
338.164581 1210.716797
338.170471 258.831879
341.108459 1337.624023
341.114441 3099.836914
341.120422 4137.783203
341.126373 3867.425049
341.132355 2467.218018
341.138336 624.243103
342.1203 263.659821
342.126312 1710.890625
342.132294 4358.768066
342.138306 8271.519531
342.144318 9888.125977
342.150299 7574.587402
342.156311 3957.823242
342.162292 1363.199951
342.168304 223.322983
344.139374 1324.370483
344.145416 5538.872559
344.151489 11264.244141
344.157532 16103.411133
344.163574 15188.510742
344.169647 9981.5625
344.17569 4268.260742
344.181763 947.711121
344.187805 55.075478
349.145294 693.697449
349.151459 1490.330444
349.157654 1897.501465
349.163849 1759.386597
349.170013 1181.436401
349.176208 151.779236
353.132141 147.215485
353.138428 3938.666992
353.144745 15294.93457
353.151031 29439.982422
353.157318 41380.324219
353.163605 36971.875
353.169891 23663.896484
353.176208 10167.37207
353.182495 3105.314941
353.188782 887.987732
353.195068 168.862183
354.122162 957.436157
354.128479 2993.619873
354.134796 6749.290039
354.141113 9766.473633
354.14743 9141.553711
354.153748 5548.9375
354.160065 2556.349854
354.166382 553.26062
356.140198 1186.202148
356.146576 3380.911621
356.152954 5706.298828
356.159302 6766.509766
356.16568 5772.037598
356.172058 3463.643311
356.178436 1007.335693
356.184814 87.887321
359.109406 394.373016
359.115845 1435.6427
359.122284 4578.088867
359.128754 8334.886719
359.135193 9955.59375
359.141663 6825.476074
359.148102 3523.354492
359.154572 1148.967773
359.161011 142.341309
365.147034 1008.929199
365.153656 2123.863037
365.160278 2781.115967
365.166901 2784.818359
365.173523 2157.376221
365.180115 1258.946899
365.186737 292.54425
367.153442 461.224731
367.160095 2062.308594
367.166779 4265.116699
367.173431 5733.334961
367.180115 5424.598145
367.186798 3591.246338
367.193451 1538.56958
367.200134 283.163391
369.095703 463.489288
369.102417 1488.244385
369.109161 2815.168213
369.115875 3690.755127
369.122589 3405.054932
369.129333 2103.190674
369.136047 752.655945
369.142761 112.045807
371.148346 934.563843
371.155121 3163.815918
371.161896 7359.933594
371.168671 10990.081055
371.175446 10539.064453
371.18222 6948.57666
371.189026 3100.806152
371.195801 635.717285
372.126617 425.83609
372.133423 2725.711914
372.140228 7670.739746
372.147034 13792.631836
372.153839 18509.410156
372.160645 15232.053711
372.16745 8946.99707
372.174255 3519.626221
372.181061 562.805847
377.139008 691.751099
377.145966 1940.780151
377.152893 3234.320801
377.159851 3808.520752
377.166779 3268.386475
377.173737 2034.206543
377.180695 908.491333
377.187622 174.455948
380.164276 609.347595
380.171326 1456.148071
380.178345 2122.169189
380.185364 2263.47998
380.192413 1799.870728
380.199432 1061.751587
380.206451 234.724609
381.129059 600.312317
381.136108 2274.512207
381.143158 5905.807129
381.150208 10192.431641
381.157288 11517.665039
381.164337 8618.147461
381.171387 4504.706055
381.178436 1595.794312
381.185516 271.550507
382.104584 773.906433
382.111664 3307.978516
382.118744 12043.849609
382.125824 27595.636719
382.132904 45892.15625
382.140015 52055.175781
382.147095 39521.507812
382.154175 21376.199219
382.161255 7658.522949
382.168335 1845.589478
382.175415 296.19223
384.131165 422.200989
384.138306 1037.787964
384.145447 1549.099854
384.152588 1631.270264
384.159729 1190.681641
384.16687 253.228043
389.141296 359.106659
389.14856 2061.579346
389.155853 9132.125977
389.163116 30557.945312
389.17041 59794.585938
389.177673 86493.875
389.184967 82412.515625
389.192261 55394.902344
389.199524 25540.507812
389.206818 7546.255371
389.214081 1301.244019
389.221375 100.612045
394.161011 712.699585
394.168427 3220.352051
394.175873 6994.088379
394.183289 10460.283203
394.190704 10126.52832
394.19812 6864.430176
394.205536 3122.60083
394.212952 582.067017
395.142334 377.818329
395.149811 3136.160645
395.157257 7626.719238
395.164703 12446.90332
395.17215 13510.657227
395.179596 9867.764648
395.187042 5020.759766
395.194489 1215.467285
395.201935 75.181618
396.187164 594.030212
396.194641 2444.887939
396.202118 3650.07251
396.209595 3623.077637
396.217072 2657.699707
396.224548 1241.227905
396.232025 241.576218
399.127228 760.266174
399.134796 3883.409668
399.142365 15967.232422
399.149933 40869.449219
399.157471 70993.015625
399.165039 86235.015625
399.172607 68302.8125
399.180176 39723.609375
399.187744 15214.439453
399.195282 4312.180664
399.20285 1783.552612
399.210419 397.701447
404.149384 934.338684
404.157074 2016.501465
404.164795 2772.373291
404.172485 2849.609375
404.180206 2180.973145
404.187897 1168.529541
404.195618 231.294815
405.129608 536.745361
405.13736 2227.443359
405.145081 4282.081543
405.152802 5417.979492
405.160553 4793.029297
405.168274 2866.973633
405.176025 595.167847
412.171509 884.937988
412.179443 2227.395752
412.187378 3574.655762
412.195312 4173.011719
412.203247 3582.980957
412.211182 2212.437744
412.219116 938.348206
412.227051 159.888306
413.157196 834.53479
413.165161 1831.208618
413.173126 2436.631592
413.181091 2265.84082
413.189056 1415.540771
413.196991 247.764572
422.132141 1173.519897
422.14035 2390.634033
422.14859 7128.838867
422.156799 26815.337891
422.165039 65269.058594
422.173248 110346.6875
422.181488 129324.460938
422.189728 98605.703125
422.197937 55719.472656
422.206177 20570.201172
422.214386 6010.115723
422.222626 2507.699951
422.230835 1436.635742
422.239075 290.110901
423.137268 1080.842651
423.145538 3752.233398
423.153778 7893.966797
423.162048 11766.283203
423.170288 11380.350586
423.178558 7604.585449
423.186798 3395.437012
423.195068 547.257629
424.154297 359.313751
424.162598 1481.887573
424.170868 7168.726562
424.179169 20399.185547
424.187439 36748.460938
424.19574 47110.675781
424.20401 39121.425781
424.21228 23763.75
424.220581 9213.791992
424.228851 1969.149414
424.237152 156.417389
425.150055 532.344421
425.158386 1651.38916
425.166687 4749.958008
425.174988 8137.244141
425.183319 8814.635742
425.19162 5582.169434
425.199951 2734.432129
425.208252 925.957397
425.216553 131.073227
433.132751 377.498383
433.141296 1078.396973
433.149841 1745.037598
433.158386 1931.905884
433.166931 1511.637817
433.175476 822.222412
433.184021 187.56543
438.159424 935.056946
438.168121 1951.543945
438.176819 2455.025146
438.185516 2160.640869
438.194214 1308.805542
438.202911 249.889969
440.149078 1355.352905
440.157837 5609.65625
440.166595 21198.40625
440.175354 49178.121094
440.184113 81905.164062
440.192871 93141.226562
440.20163 69909.109375
440.210388 38332.511719
440.219147 13647.492188
440.227905 3487.019775
440.236664 515.686218
441.149017 1136.858643
441.157806 2916.490234
441.166595 6407.075195
441.175385 6989.146973
441.184174 4745.488281
441.192932 2362.156982
441.201721 997.923706
441.21051 188.706635
442.152344 1218.075317
442.161163 2348.792969
442.169983 5481.274902
442.178802 17874.191406
442.187622 52036.964844
442.196442 95698.257812
442.205231 128670.0
442.21405 112940.65625
442.22287 71621.726562
442.231689 29769.003906
442.240509 8000.837402
442.249329 1734.680298
442.258148 279.892487
450.140625 1489.450317
450.149689 6366.858398
450.158752 15771.657227
450.167786 27434.990234
450.176849 32842.332031
450.185913 26084.695312
450.194977 14516.270508
450.204041 5275.244141
450.213074 1279.529175
450.222137 149.898895
451.129364 750.026062
451.138458 1869.368286
451.147552 4565.828613
451.156647 7752.127441
451.16571 7952.894043
451.174805 5301.580078
451.183899 2085.335693
451.192993 381.249573
458.161316 763.71759
458.170624 3510.020508
458.179932 11291.125
458.18924 22258.212891
458.198517 31971.609375
458.207825 30355.712891
458.217133 20108.970703
458.22644 8775.114258
458.235718 1865.792969
458.245026 149.188278
468.131897 4893.677734
468.14151 8441.521484
468.151123 25049.099609
468.160706 86602.28125
468.170319 183203.609375
468.179932 289497.90625
468.189545 305892.84375
468.199127 218261.28125
468.20874 113561.953125
468.218353 39679.558594
468.227966 11214.487305
468.237579 5767.008301
468.247192 3073.012451
468.256775 2953.425049
468.266388 980.93103
468.276001 87.540871
475.212891 1149.560303
475.222717 2202.92749
475.232544 2527.617432
475.242371 1968.034302
475.252197 982.485291
475.262024 156.717499
485.18042 736.504578
485.190552 2736.593506
485.200684 4777.918457
485.210815 5728.262695
485.220947 5020.727051
485.231079 3188.020996
485.241211 1365.813843
485.251343 216.52063
486.114075 973.061523
486.124237 2607.684814
486.134399 7134.950195
486.144562 10003.025391
486.154724 23546.396484
486.164886 79408.265625
486.175049 220346.359375
486.185211 393703.25
486.195374 512797.28125
486.205566 431630.53125
486.215729 266780.84375
486.225891 107138.070312
486.236053 30219.130859
486.246216 9449.261719
486.256378 6148.133789
486.266541 2461.172607
486.276733 406.863464
503.17746 1737.591553
503.188171 7115.743164
503.198883 23298.675781
503.209595 43869.242188
503.220276 61079.894531
503.230988 54208.367188
503.241699 34509.660156
503.252411 14112.223633
503.263092 3657.304932
503.273804 998.862732
503.284515 150.327682
510.513306 815.083496
510.524261 1384.895752
510.535187 1532.214966
510.546143 1239.633545
510.557068 689.34436
510.568024 112.171547
583.217529 909.315308
583.230835 1886.817871
583.244202 2477.697021
583.257568 2291.353027
583.270935 1474.978271
583.284302 163.628891
646.087341 1295.373047
646.102966 2224.18042
646.11853 2561.616455
646.134094 2139.187012
646.149658 1270.928345
646.165222 87.907257
666.230103 948.607361
666.246399 3143.10791
666.262695 7266.169922
666.278992 10436.390625
666.295349 9704.0
666.311646 5870.006348
666.327942 2803.818115
666.344238 165.142014
670.226746 885.67395
670.243225 2272.509277
670.259644 3804.765625
670.276123 4527.420898
670.292542 3890.841553
670.309021 2345.883789
670.3255 922.235107
670.341919 47.177334
681.489197 1062.714233
681.506042 1856.563477
681.522949 2225.853271
681.539795 1922.30835
681.556702 1134.420898
681.573547 55.149704
765.736511 1213.677368
765.756592 1943.334839
765.776733 2292.982666
765.796814 1978.554321
765.816895 1149.453979
765.836975 2.749189
856.248474 42.158119
856.272217 1115.127197
856.296021 4035.667236
856.319763 8692.953125
856.343506 13221.606445
856.36731 13307.966797
856.391052 8616.114258
856.414795 3904.355469
856.438599 248.952164
874.251404 33.325336
874.27594 758.9953
874.300476 2717.608154
874.324951 6182.797363
874.349487 9948.328125
874.374023 10434.086914
874.398499 6038.285156
874.423035 2978.10083
874.447571 538.022461
END IONS
