BEGIN IONS
PEPMASS=1030.71
CHARGE=1
MSLEVEL=2
SOURCE_INSTRUMENT=DI-ESI-qTof
FILENAME=srf_c13_Na.mzXML
SEQ=*..*
IONMODE=Positive
ORGANISM=GNPS-LIBRARY
NAME=Surfactin C13 M+Na
PI=Dorrestein
DATACOLLECTOR=J Yang
SMILES=CC(C)CCCCCCCC1CC(=O)NC(C(=O)NC(C(=O)NC(C(=O)NC(C(=O)NC(C(=O)NC(C(=O)NC(C(=O)O1)CC(C)C)CC(C)C)CC(=O)O)C(C)C)CC(C)C)CC(C)C)CCC(=O)O
INCHI=InChI=1S/C51H89N7O13/c1-28(2)18-16-14-13-15-17-19-34-26-41(59)52-35(20-21-42(60)61)45(64)53-36(22-29(3)4)46(65)55-38(24-31(7)8)49(68)58-44(33(11)12)50(69)56-39(27-43(62)63)48(67)54-37(23-30(5)6)47(66)57-40(25-32(9)10)51(70)71-34/h28-40,44H,13-27H2,1-12H3,(H,52,59)(H,53,64)(H,54,67)(H,55,65)(H,56,69)(H,57,66)(H,58,68)(H,60,61)(H,62,63)/t34-,35+,36+,37-,38-,39+,40+,44+/m0/s1
INCHIAUX=N/A
PUBMED=24025162
SUBMITUSER=mwang87
TAGS=
LIBRARYQUALITY=1
SPECTRUMID=CCMSLIB00000006889
SCANS=1
304.393738 1.36322
305.796631 8.117839
312.174713 1.257262
319.216339 7.290393
320.316376 185.069336
321.420135 32.287594
322.192749 2.937077
325.290833 6.72401
330.334564 4.645265
331.264313 1.593189
332.341461 9.56571
333.113525 1.568272
336.272003 3.858162
337.724518 9.186032
346.23349 38.344528
347.27597 31.207726
348.278625 20.864811
350.169556 23.229834
351.189453 2.480705
352.034576 17.053452
353.351929 2.872699
357.367249 6.809493
360.193268 10.156869
361.277466 11.289882
362.866455 8.540297
363.573395 16.399265
365.23996 286.609222
366.173462 165.950333
367.194794 14.605469
368.183441 66.979897
369.17926 8.344688
373.405609 12.061666
374.262695 6.508043
375.382782 83.259064
376.461945 32.856087
377.395111 68.398979
378.225159 10.366127
379.407013 3.565729
380.627777 7.596419
382.259399 52.18335
383.456818 13.693268
387.298889 3.381397
388.844147 9.338466
391.253296 1175.418945
392.260437 277.12323
392.915649 7.383209
396.303467 3.49604
398.341522 6.469329
400.485229 1.370593
402.49884 5.408956
405.578186 4.72263
407.194763 5.404446
415.655487 1.467056
417.399658 6.424536
419.271118 41.569366
420.332092 4.304552
421.237213 3.204998
423.759338 6.476385
429.340881 7.204118
431.114441 14.403044
433.431091 17.067781
434.352417 4.336849
435.311584 51.35849
436.268188 11.393681
437.415588 2.278926
439.456848 1.36872
440.913818 4.968513
446.49884 7.853613
447.467316 11.066828
449.308411 274.412476
450.361145 66.728966
451.229706 2.054958
459.321045 35.894272
460.661987 13.363272
461.663696 8.098969
463.249573 4221.157715
464.340759 853.062439
465.274536 4.580481
466.203064 6.635507
467.371307 43.508648
468.253204 6.385606
469.402771 1.159708
473.407928 17.98716
474.310333 5.257896
476.1698 5.03898
477.156799 49.513958
478.397888 6.42136
479.523376 8.491843
481.21875 722.200317
482.393372 157.373535
484.611511 2.236858
486.465088 3.2116
487.311523 2.123245
488.158478 9.712417
489.122345 5.054097
490.019348 1.782765
491.716736 4.260606
492.36911 1.220962
495.39325 5.570523
501.026367 6.079252
502.459534 47.520527
503.546478 7.380813
507.56012 1.501068
509.305939 8.75436
516.478027 3.411359
518.093811 6.971972
519.674866 7.709808
520.293213 11.376358
521.364075 3.889651
522.308838 2.047693
523.274658 2.061006
526.315552 6.145164
527.182251 3.090728
529.340027 1.411037
530.644531 4.469569
531.344116 3.757072
532.559082 3.022866
533.847168 4.321946
534.471619 1.591446
535.27832 5.105964
537.71698 3.827729
540.203003 3.942295
541.477295 2.627359
542.386902 8.330125
544.018433 35.284355
544.624634 56.60891
545.490417 29.142012
546.529419 21.189861
547.40918 7.96611
548.391113 63.534966
549.36145 14.539303
550.399902 2.11307
555.410767 2.820804
556.69519 3.14335
557.51593 8.078643
558.523621 20.551443
559.491333 14.152267
560.265625 21.341827
561.20105 5.017888
562.34967 97.955238
563.393799 24.217234
564.427002 6.274404
566.359131 18.949226
567.561157 5.384909
571.499146 13.047791
572.324463 53.198093
573.650269 48.542923
574.441772 61.651669
575.338806 18.357475
576.376099 170.314621
577.461975 46.000977
578.462219 16.050877
579.771667 22.397955
580.399536 206.909836
581.402588 48.291706
583.273438 2.611232
585.438477 3.215162
586.559937 8.56093
588.309204 7.329567
589.793335 70.572815
590.42395 390.001251
591.482178 125.860519
592.532959 62.039749
594.349304 2470.800049
595.491699 654.023743
596.514465 3.978594
597.743958 8.788734
599.270874 2.951117
600.248535 5.036315
602.973267 9.215602
604.374207 48.567051
605.391724 20.271952
608.226196 17.555058
609.616577 12.590469
611.126587 1.168643
613.325623 5.441365
615.29364 1.557359
616.426453 21.108198
618.082947 20.741306
619.304443 46.493477
621.598999 3.297471
623.616943 3.646945
625.328857 67.310547
626.57312 30.641609
627.362793 7.06171
628.612061 6.387027
633.315857 4.603882
634.751038 7.180681
635.578369 4.572215
636.540955 3.99188
638.668823 3.950668
639.551758 11.177082
640.421631 11.079068
641.569763 3.545751
643.474304 541.767944
644.557983 215.66626
645.654419 2.485497
647.485901 39.772549
649.329834 5.687428
651.238403 5.057703
653.463501 33.597248
654.540771 37.573128
657.516235 100.518143
658.56012 37.36779
659.441956 34.982899
660.664795 21.460707
661.540771 78.936356
662.428955 9.758968
663.650085 20.136463
665.46637 8.151499
667.209412 5.37988
669.128967 20.104527
670.589111 58.907394
671.406738 199.563568
672.416382 126.042236
673.425903 5.826042
675.455505 92.564156
676.501709 22.273733
677.27832 21.722576
678.814941 24.115227
679.438232 187.183655
680.618774 43.428047
681.488403 7.561711
684.572632 20.453342
685.190674 6.943236
685.791138 24.008739
686.441833 40.825382
687.858337 46.083939
688.558228 364.906555
689.480591 522.682007
690.479919 115.112198
691.400757 26.230083
693.414124 3058.698486
694.492859 917.616333
695.645386 5.330061
696.373169 45.860222
697.533325 16.115089
698.440552 176.561859
699.507507 71.09816
700.509644 4.267262
701.291504 2.186065
702.505432 117.42981
703.539673 104.279572
704.482544 40.567104
705.391113 48.775085
707.438232 9505.958008
708.434448 2656.384766
709.111206 7.414945
710.509399 8.53061
712.559143 53.731655
714.447876 1742.466187
715.472046 741.461548
716.273315 12.67613
717.438232 3.709211
718.5578 3.363743
720.502869 22.786785
721.51001 34.9855
723.097412 10.559528
724.49231 15.538228
725.761108 2.978362
728.476807 341.900635
729.61322 185.404419
732.388062 2.442681
733.619995 2.076281
734.441467 1.876993
736.302734 2.752853
737.229614 4.782279
738.117798 9.82604
739.339722 2.535628
742.462524 120.886322
743.545288 73.650635
744.630249 2.590739
745.811523 5.623301
746.482056 10.884572
747.448608 5.213529
749.259888 14.004299
750.548828 6.903331
751.225098 3.104112
751.84729 1.322175
753.421936 2.536415
756.610962 40.59259
757.626221 15.778717
758.553955 15.564427
759.746643 24.466995
760.5 6.771142
761.599182 5.631756
762.429199 1.248377
763.313477 3.412269
765.363708 2.124311
768.457886 204.239365
769.435547 66.960121
770.880981 4.309885
772.639526 15.689728
773.531616 13.878572
774.180237 12.242927
775.707764 7.631176
776.757324 21.259014
777.53064 2.06123
778.266541 2.050727
780.2323 4.010905
781.775513 3.353976
782.524536 47.003906
783.516235 28.625454
784.513428 16.661266
786.425293 11086.379883
787.457031 3392.128418
788.497681 155.655609
789.509766 41.902294
790.44165 19.980774
791.559692 8.198037
792.506836 1.951182
793.469116 3.861429
794.459717 2.084352
795.618286 3.6963
797.123169 7.329331
798.700317 11.10878
800.423462 3070.202637
801.445679 981.48291
802.220093 16.575748
804.406006 506.19574
805.45874 224.225128
806.416992 6.313344
814.495605 46.262394
815.678467 45.170597
816.493042 45.566227
817.510498 45.69474
818.539673 204.493637
819.523071 117.464691
820.555664 21.219086
821.503174 18.746481
822.358765 2.561108
823.472412 12.034786
827.768555 2.452932
828.587646 8.51836
829.499756 4.137775
830.44043 1.500955
832.597168 8.01362
833.582397 31.764622
834.476807 21.141857
835.487671 4.708733
836.500122 23.098843
837.546509 14.742867
838.626343 4.586487
840.893433 3.568898
844.837769 4.814848
845.656616 16.426727
846.569214 3.394647
847.834106 11.088393
848.573853 30.349018
849.442017 12.066198
853.574951 3.061176
854.526001 2.730106
855.586426 20.953608
856.600708 13.910393
857.464722 10.911627
858.490479 14.034044
859.565186 50.936447
860.390869 24.657038
861.065552 2.587
862.42749 118.615295
863.663208 31.025568
867.451416 2.790262
869.541382 39.566326
870.392578 26.744053
871.581909 119.070419
872.689819 42.317192
873.545288 21.40238
874.637207 7.078093
875.643677 8.278318
879.455933 2.052291
881.478516 4.350924
883.023682 10.590689
883.662598 55.933498
884.588867 22.36842
885.761841 40.214188
886.551758 26.688433
887.601562 393.797699
888.627075 195.22023
889.413574 18.500345
890.43811 4.362849
897.718994 40.202385
898.87146 42.076492
899.57959 201.789719
900.609131 115.620567
901.562378 140.137817
902.522217 49.431606
903.522583 54.163658
904.598267 35.730949
907.221191 5.652606
907.946045 2.763235
909.504272 1.850401
911.454102 2.367128
913.500366 68.336273
914.754761 139.496628
915.657104 226.541046
917.512329 4340.783203
918.525513 1991.852539
919.787354 12.78293
920.721191 7.734554
924.101807 4.386689
924.704712 3.52702
925.837891 11.316772
929.310547 26.716536
931.520142 1489.04541
932.547974 1148.502808
933.670898 308.446381
934.612305 20.564339
937.616333 14.432259
938.695679 8.169416
940.715332 2.599524
942.609985 350.537262
943.684692 163.741455
944.421021 10.313526
945.463013 80.410027
946.61145 25.469463
951.446045 2.025971
953.565796 7.232326
958.601074 2565.88501
959.607544 1408.864746
960.566772 65.581085
963.429443 2.335373
966.95166 10.625813
967.841675 11.774649
968.818237 36.577343
969.703735 29.107178
970.564087 1.440749
971.710083 29.381096
972.716797 14.319419
973.558228 7.237725
974.295166 1.545575
975.240723 10.656827
976.330322 10.114953
980.519287 9.186167
981.31311 1.487311
984.490601 118.466217
985.46814 83.079483
986.605103 247.327316
987.609741 158.343231
988.706421 3.484763
990.530518 2.31577
991.99646 16.28685
992.710083 7.156359
993.947876 21.252808
994.927979 29.887024
995.655273 52.260551
997.430298 24.666878
998.230591 5.679886
999.518677 11.394833
1000.227783 2.608295
1002.599976 1654.575928
1003.564697 905.889526
1004.583862 1.982643
1008.207886 12.842301
1011.505249 155.516296
1012.599609 1722.333008
1013.603271 907.630554
1014.736694 68.896645
1015.639893 7.412882
1021.699951 6.59791
1029.991455 28.07793
1030.863281 8.24168
END IONS
