BEGIN IONS
PEPMASS=898.0
CHARGE=2
MSLEVEL=2
SOURCE_INSTRUMENT=DI-ESI-Ion Trap
FILENAME=Didemnin_Y_IT_898mz.mzXML
SEQ=*..*
IONMODE=Positive
ORGANISM=GNPS-LIBRARY
NAME=Didemnin Y M+H
PI=Dorrestein/Moore
DATACOLLECTOR=Roland Kersten
SMILES=O=C(N)CCC(NC(=O)C(CCC(N)=O)NC(=O)C(CCC(N)=O)NC(=O)C[C@@H](O)CCCCCCC)C(=O)NC(CCC(N)=O)C(=O)OC(C)C(=O)N1CCCC1C(=O)N(C)[C@H](CC(C)C)C(=O)N[C@@H]3C(=O)N[C@H]([C@@H](O)CC(=O)O[C@@H](C(C)C)C(=O)[C@H](C)C(=O)N[C@@H](CC(C)C)C(=O)N4CCC[C@H]4C(=O)N(C)[C@@H](Cc2ccc(OC)cc2)C(=O)O[C@@H]3C)[C@@H](C)CC
INCHI="InChI=1S/C87H139N15O25/c1-16-18-19-20-21-24-54(103)44-70(109)92-56(31-35-66(88)105)77(113)93-57(32-36-67(89)106)78(114)94-58(33-37-68(90)107)79(115)95-59(34-38-69(91)108)86(122)126-52(12)82(118)101-39-22-25-61(101)84(120)99(13)63(42-47(5)6)80(116)98-73-51(11)125-87(123)64(43-53-27-29-55(124-15)30-28-53)100(14)85(121)62-26-23-40-102(62)83(119)60(41-46(3)4)96-76(112)50(10)74(111)75(48(7)8)127-71(110)45-65(104)72(49(9)17-2)97-81(73)117/h27-30,46-52,54,56-65,72-73,75,103-104H,16-26,31-45H2,1-15H3,(H2,88,105)(H2,89,106)(H2,90,107)(H2,91,108)(H,92,109)(H,93,113)(H,94,114)(H,95,115)(H,96,112)(H,97,117)(H,98,116)/t49-,50-,51+,52?,54-,56?,57?,58?,59?,60-,61?,62-,63+,64-,65-,72-,73-,75-/m0/s1"
INCHIAUX=N/A
PUBMED=22458477
SUBMITUSER=mcruesemann
TAGS=
LIBRARYQUALITY=3
SPECTRUMID=CCMSLIB00000075336
SCANS=33
251.837357 10.596615
253.283112 6.495826
254.082977 82.513519
255.09613 8.177079
255.961319 3.243879
257.00589 3561.1875
258.112518 351.143524
258.963318 32.726864
259.62854 12.520861
261.150513 26.964041
263.017212 59.584385
264.098328 104.425392
265.13324 18.313288
266.261963 47.070461
266.821289 21.21088
267.34201 16.770119
268.090912 1.001661
269.041046 38.383636
270.033539 499.126038
271.000305 270.936066
272.181152 84.506027
273.227112 5.924937
274.212067 198.914841
275.104584 11.814087
276.157166 6.807172
276.977295 6.934634
278.04364 22.601089
279.192291 99.801788
280.102386 13.861828
281.065613 2295.205566
282.078705 246.7323
283.182983 51.676208
284.302826 47.146137
285.221893 10.420027
286.187164 5.581799
287.011932 47.62674
287.620483 14.757339
288.178833 22.868835
289.080505 177.788345
290.153625 24.943617
291.041687 5.018324
292.228485 2.565013
293.11969 41.893173
294.180298 3.711145
295.137787 23.544628
295.78476 10.033427
297.070465 737.857117
298.132996 115.390839
299.069702 12175.549805
300.069061 1005.367859
301.031769 22.47537
302.158142 10.22566
303.086792 9.701109
304.185944 6.969171
305.185547 19.54286
306.107666 26.191248
307.102661 9333.336914
308.110321 1035.065186
309.190491 33.887043
310.230103 3.458341
312.092987 233.133179
313.162811 33.026245
314.252502 29.554029
315.099121 59.793262
316.161041 227.900925
317.218567 48.258259
318.379395 44.671913
319.102509 5.082893
319.764526 2.677765
320.349731 12.567116
321.328217 205.61911
322.34613 24.76223
323.159607 69.977303
324.239075 14.334808
325.129486 96.50264
326.261047 20.183466
327.442688 15.594398
328.30777 23.622414
329.047577 44.022839
330.124207 11.809541
331.025818 36.362061
331.919281 49.288429
333.1492 79.571548
334.279144 21.426733
335.069977 90.554001
335.585754 20.117163
336.398956 44.630775
337.357452 18.433092
338.195343 18.754696
338.742798 20.053249
339.287933 29.728554
340.174988 40.472095
341.227386 4.473642
342.223633 33.753716
343.277283 33.96637
344.058929 32.531212
345.159119 11.246349
346.075867 28.81662
347.07843 6.662534
348.127228 19.531324
348.676514 15.814373
349.194092 629.478271
350.159821 548.981445
351.063812 709.375061
352.117767 152.371506
352.75351 5.798974
353.34491 74.22081
354.283752 32.327999
355.110138 35.71014
356.141602 3.802174
357.09259 26.878662
358.440094 28.142473
359.360168 25.804457
360.249451 17.153452
361.316833 11.255492
362.179443 24.734184
362.965973 24.33087
364.066406 170.563629
364.76239 32.798355
365.321106 43.49831
366.201019 29.739193
367.165161 1604.59668
368.102539 2349.330811
369.134949 351.177887
369.915955 32.90353
370.545471 1.186204
371.245483 27.426662
372.126678 32.761543
373.074646 9.941342
374.071472 43.832153
375.178497 261.276794
376.160675 193.375946
376.727264 4.92931
377.434052 21.074261
378.282898 31.199432
379.290558 124.493996
380.08429 118.936028
381.033234 753.818787
382.015472 117.899071
383.315033 39.328445
384.170715 31.971914
385.104858 2675.654297
386.118378 770.697632
386.884277 40.904091
387.45343 51.49617
389.161041 22.559
390.132812 27.527967
391.237 322.875061
392.154114 1477.000244
393.228973 270.84903
394.299774 64.489532
395.428375 16.030752
396.194397 122.865837
397.081329 191.283463
398.239136 98.643417
399.182495 202.933029
400.170471 142.377457
401.264069 19.759367
402.314301 69.337906
403.217346 196.953568
404.29248 32.517628
405.356812 103.100143
406.173065 35.261002
406.760376 21.104942
407.304871 309.993164
408.179779 1088.521729
409.186829 1841.470703
410.148071 1442.100708
411.150208 123.266937
412.259857 185.358856
413.194458 86.340103
413.823273 11.651431
414.347931 9.38252
414.984589 52.225807
415.490875 10.531771
416.288483 54.619816
417.216705 158.670685
418.072968 147.761383
419.006683 48.082699
419.53949 33.132389
420.3013 168.821411
421.368958 304.19281
422.280487 197.170609
423.200012 77.714394
424.221313 134.804626
425.180939 321.944763
426.147858 174.51265
427.16745 11790.310547
428.147278 1991.583862
429.203064 21.858984
429.992126 8.404143
430.7901 90.274284
432.023132 37.700565
432.554718 28.961493
433.277222 15.841718
434.345795 37.585777
435.376556 60.667343
436.337494 17.350126
437.222595 31.967287
438.384766 49.331852
439.135712 64.622711
440.108887 338.214844
441.288757 185.210098
442.267334 69.226501
443.201935 260.704376
444.228271 658.202271
445.243195 217.292648
446.380402 107.285049
447.216766 46.386723
448.583466 92.867546
449.420929 52.847443
450.117523 20.302267
451.084198 34.15313
451.941528 36.030323
452.650696 56.27243
453.331665 74.50959
454.377441 24.148809
455.403839 41.073582
456.370483 42.512909
457.170013 87.311493
458.231232 92.593414
459.267853 99.673355
460.256439 24.753281
460.918701 29.071398
461.419556 18.067699
462.073853 40.629711
462.577057 8.225852
463.140015 36.379009
464.234375 105.752365
465.25528 16.720053
466.195465 56.474499
467.130402 2.965959
468.12326 126.643875
469.231537 47.508232
470.264526 70.311272
471.082123 38.578941
471.853394 3.527359
472.39502 7.95509
473.432892 56.265945
474.224579 5.674731
475.119415 104.170601
476.276703 89.532867
477.341064 47.32925
478.108917 76.008911
479.12973 46.163414
479.629944 12.419291
480.185303 53.148449
481.141663 32.299046
482.128998 71.747009
483.311951 46.344158
484.078552 84.216454
485.135681 228.052643
486.299347 291.158905
487.030792 78.284592
487.545471 1.803836
488.385254 21.365763
489.302643 26.167442
490.19574 110.2547
491.141357 115.754791
492.219147 540.959229
493.255585 246.070267
494.453339 47.140484
495.323395 151.553146
496.160156 197.231949
497.304047 21.467615
498.456299 50.242702
499.141815 32.907192
499.675964 5.44006
500.29953 205.45697
501.277649 112.61496
502.250458 127.95977
503.192444 348.04953
504.220123 152.666885
505.196411 11.801843
506.384888 46.020042
507.317688 80.503944
508.15506 797.709045
509.124084 1717.502075
510.256073 2470.027588
511.283478 453.957275
512.32666 35.473976
513.236572 188.235611
514.280029 206.225372
515.484802 48.975433
516.172546 63.447479
516.991211 149.312927
518.350647 74.967918
519.296997 255.293365
520.194031 1238.752441
521.2005 795.829773
522.363464 773.482483
523.187073 82.99231
524.288025 215.960831
525.2323 118.277863
526.209595 348.47821
527.334351 212.585022
528.308838 13670.28418
529.286926 2671.156494
530.289978 261.491425
531.166199 121.335342
532.134583 47.969299
532.966003 11.008219
533.588562 39.335686
534.174866 58.005825
535.264893 499.593597
536.179382 3432.047607
537.25293 4079.368164
538.221313 3793.20459
539.160828 678.4729
540.330383 207.907944
541.286743 150.868362
542.28595 267.286804
543.25238 119.116249
544.432068 36.145061
545.303101 135.013504
546.299866 122.987755
547.353088 853.407959
548.369812 279.637146
549.147278 72.264137
550.298584 407.158051
551.254272 219.975372
552.188416 66.168335
553.257751 793.050476
554.278442 465.52652
555.226868 11380.795898
556.294495 2687.624268
557.114929 1019.858093
558.236328 428.319214
559.337219 126.318054
560.393799 42.02092
561.154846 25.511467
562.142456 56.626465
562.764709 2.495996
563.432373 68.21405
564.285522 63.614323
565.273804 529.852722
566.184326 160.969391
567.394592 82.845886
568.25293 330.905365
569.297668 115.443794
570.317322 117.603378
571.262817 342.739258
572.359497 623.725037
573.334045 105.548523
574.361816 82.403664
575.256104 40.016823
576.277405 135.870331
577.262817 36.86269
578.292969 68.474579
578.795654 64.188667
579.51123 35.727192
580.275879 143.293594
580.907837 56.018017
581.642029 56.159557
582.391724 97.096245
583.258057 28.204182
584.311218 49.114288
585.279419 105.588013
586.585754 347.160828
587.286804 1230.660767
588.325745 214.325607
589.192261 113.520905
590.382812 63.923561
591.275696 441.664398
592.272705 281.384949
593.413452 90.092178
594.329407 75.422386
595.287659 442.381104
596.158508 413.764801
597.204407 140.829758
598.259155 171.956863
598.846924 73.672562
599.453186 31.645077
600.377625 85.403458
601.319946 69.453972
601.890381 27.509863
602.411499 94.804634
603.348999 168.158249
604.007507 38.201553
604.782043 118.528725
605.672668 710.342834
606.673523 591.721008
607.464417 286.433075
608.338623 66.317909
609.338745 679.973633
610.332947 270.257904
611.337891 112.506287
611.960754 295.605286
612.479492 272.653015
613.393677 140.813232
614.398132 1128.512573
614.989685 177.561829
615.512024 87.206551
616.389465 115.599495
617.427734 80.315582
618.379883 212.584641
619.181824 278.916168
620.235107 596.631104
620.858643 7632.374512
621.407715 3494.347656
622.386353 330.758667
623.359741 758.773743
623.920471 206.278549
624.564392 196.636536
625.662964 433.470093
626.33075 236.248779
627.330688 308.087006
628.003723 137.104996
628.802979 95.191422
629.930176 719.339233
630.452637 239.795975
631.202759 219.635574
632.12738 122.733612
632.83606 69.73394
633.418518 129.183075
634.344971 4781.486328
634.991821 1343.088745
636.038513 1865.699951
637.196289 466.94751
638.350281 108.270935
638.929443 40.60997
639.538025 94.487732
640.350708 91.804649
641.386353 131.516541
642.446716 68.029518
643.337341 72.722061
644.375 869.050354
644.990601 391.662415
646.296997 366.543579
647.241211 2232.012939
648.338928 1029.749512
649.220032 423.259735
650.315491 366.524658
651.345154 181.858032
652.296082 132.837784
653.369934 697.243225
654.376343 204.380661
655.355835 429.965607
656.256836 109.848099
656.808655 56.909916
657.427246 67.733902
658.19458 44.026081
658.794495 109.798279
659.370789 63.814983
660.361633 96.315346
660.992554 27.719978
661.699158 239.07489
662.401306 211.908905
663.299255 2038.729736
664.22467 17037.447266
665.260742 4204.664551
666.269104 1949.851807
667.384705 757.065796
668.290405 479.178284
669.26825 223.954239
670.553589 557.450562
671.314026 716.26062
672.477905 142.053574
673.362488 98.087738
674.002502 26.004183
674.570923 70.524857
675.938843 8353.105469
676.609009 5206.825195
677.87323 193.712875
678.5224 339.76944
679.05658 95.593498
679.606995 96.07296
680.334167 100.166016
681.295471 5634.386719
682.354919 2566.94873
683.334351 6002.001953
684.878845 21630.503906
685.465698 5487.938477
686.123047 454.55838
686.684631 274.440857
687.656311 311.004639
688.54364 103.25238
689.251892 162.522842
690.33667 160.934982
691.220215 159.427765
691.919006 336.419495
692.458557 619.410828
693.075867 530.908936
693.837891 557.22168
694.592346 241.973358
695.331421 148.494675
696.25769 161.172043
697.274536 246.235428
698.405396 213.019791
699.290161 3830.102051
700.343079 1521.871094
701.244812 1682.524048
702.307556 386.7258
703.470276 347.539307
704.503479 86.892998
705.242798 115.555634
706.265991 416.583435
707.298645 254.781738
708.435852 107.46817
709.187561 79.365578
710.407837 54.372902
711.390625 65.927246
712.293701 257.594818
713.186584 147.014786
714.387878 190.393967
715.317993 1210.963745
716.418579 299.326599
717.650513 345.638214
718.3396 231.657318
718.876404 107.373154
719.452942 503.210297
720.439148 1093.822998
721.453247 373.742096
722.26886 172.587036
723.241333 842.613953
724.264709 326.366486
725.666138 710.661499
726.550354 3669.644287
727.54187 154.68779
728.126831 165.160248
729.396545 205.672928
730.327148 175.238449
731.418884 5636.383789
732.080566 5506.008301
733.359924 3052.220215
734.857422 9620.763672
735.513306 4985.340332
736.479187 929.302979
737.352295 298.302734
738.492554 770.336609
739.249756 427.554596
740.171082 129918.867188
740.850647 38242.855469
741.862976 2840.344971
742.8078 290.913879
743.340515 386.655518
743.997314 380.928925
744.84967 551.85437
745.488831 637.865967
746.188049 607.4198
747.448303 4690.25
748.082031 2027.25061
748.920959 276195.5
749.465149 84850.335938
750.243164 7049.589844
751.435669 1339.803223
752.376282 839.919434
753.346741 595.723328
754.214722 1130.073242
755.036499 1677.376953
756.459167 749.143616
757.410889 433.473053
757.956177 6092.758301
758.473083 2360.42749
759.188721 416.330261
760.30542 417.242218
761.289246 386.903778
762.094849 319.651764
763.002197 257.805389
763.650757 3471.166992
764.556213 533.897583
765.418884 460.709229
766.426392 142.013382
767.365784 211.089371
768.142029 244.288315
768.902588 51.556614
769.926025 1385.018311
770.654419 877.584839
771.362366 128.897141
771.884644 129.594574
772.588318 964.098389
773.430298 171.94194
774.219421 190.751678
775.308594 245.41861
776.046021 150.520569
776.768799 452.26474
777.8302 219.459106
778.552429 265.227753
779.408752 531.78833
780.335144 513.324524
781.437744 382.964355
782.405212 588.641602
783.351135 394.481537
784.43335 1501.253052
785.150879 807.38324
786.304077 203.055359
787.198303 161.696396
788.358521 1763.831055
789.380066 634.186951
790.332397 175.190903
791.424255 309.989502
792.323303 595.20752
793.38324 2722.412842
793.996887 1334.804077
794.583679 311.100464
795.475342 1258.952515
796.153687 580.231812
797.533997 714.719849
798.348328 15950.677734
799.339661 4972.008301
800.775757 2105.096924
801.645874 1182.00061
802.528687 1620.016113
803.830383 2029.384766
804.582214 2089.430176
806.254761 592.955261
806.792175 210.191544
807.482422 649.363892
808.370239 156.719131
808.941589 68.269325
809.473328 75.376648
810.401001 423.992859
811.305054 1238.473511
812.231018 1149.368652
813.251831 2039.853027
814.425476 665.846924
815.602234 1317.576416
816.373779 130633.0625
817.404114 34256.484375
818.418274 747.487
819.815918 736.635193
820.5578 486.865417
821.298645 261.683502
822.438293 611.691711
823.312012 524.153809
823.90094 318.552979
824.847168 3281.182861
825.587646 3509.321777
826.603271 490.159607
827.459595 242.67157
828.384766 2061.378174
829.433777 939.255371
830.427124 2138.285156
831.423401 1271.644165
832.398376 984.428467
833.235901 1232.088867
834.286194 4086.001709
835.394043 2020.075928
836.520447 565.630127
837.491272 115.171478
838.32843 196.914307
839.297119 318.825745
840.644531 1199.430298
841.438782 2627.273193
842.062195 787.355713
842.57135 961.910767
843.303284 1816.126709
844.489136 535.739929
845.503418 212.560226
846.356018 211.479721
847.359009 243.571533
848.415466 306.372528
849.500977 1152.402588
850.419006 417.627991
851.373901 795.39386
852.390564 3615.688965
853.447754 1470.715576
854.395569 339.715271
854.899658 345.423218
855.504517 200.189362
856.169739 122.08049
856.687378 227.951141
857.559937 120.312897
858.136047 150.077301
858.886108 87.244728
859.609497 220.634567
860.444092 774.032288
861.480774 700.48468
862.343201 783.489624
863.486511 307.424133
864.526306 557.998596
865.672241 666.21991
866.514648 1119.86731
867.386902 1150.386475
868.437378 841.265137
869.393433 968.742615
870.346191 1001.172791
871.138 739.819336
871.893738 2654.292236
872.578247 1529.736206
873.317993 571.620789
874.739502 2340.591553
875.427551 5255.051758
876.036682 1337.372925
876.962585 1139.884766
878.375244 2975.744873
879.582031 8027.080078
880.40802 24504.791016
881.139221 22988.015625
882.468018 1695.609497
883.867615 10902.140625
884.487976 3041.936279
885.074951 442.490021
885.751465 287.397156
886.638855 115.42395
887.486267 670.079468
888.044128 327.779236
888.979553 2828.631348
889.5625 820.249268
890.171326 70.873642
890.805786 4.993168
891.358459 5.063787
892.504395 35.032677
893.090942 1.948242
893.618958 12.122668
894.796631 7.632639
895.818054 60.51181
896.449707 5.955497
897.625183 52.925198
898.186951 5.473923
898.724487 4.634504
899.776855 7.011254
900.352722 12.617512
901.040833 3.784773
903.408447 26.099688
904.246399 140.351364
905.32373 91.627769
906.630981 81.71273
907.549744 64.070808
908.687683 4.03637
909.362793 77.182922
910.136841 137.988541
910.818787 20.250446
911.528259 26.841761
912.411194 8.448847
914.454346 22.813692
915.473938 194.863571
916.457214 358.462097
917.527832 593.908447
918.39325 170.574799
919.404053 8.335837
920.0 1.150254
920.51416 28.553623
921.623352 170.00058
922.430176 146.598297
923.243225 45.073254
924.218933 42.210327
925.385498 248.914413
926.429688 227.550369
927.378662 417.193146
928.296387 389.239105
929.3302 143.473175
930.418213 16.872456
931.273926 53.119415
931.783508 31.437571
932.440247 68.295189
933.407654 105.192398
934.478577 618.012146
935.361023 285.045654
936.484558 64.137741
937.291199 64.213974
937.815735 24.52286
938.652039 30.991409
939.457764 21.042459
940.545471 28.574732
941.368103 79.527718
941.909119 1.498183
942.569336 115.215034
943.477417 5220.324219
944.478271 4115.372559
945.408264 3305.526611
946.328125 1100.566162
947.40271 79.520775
948.356506 39.268974
949.338867 28.495716
949.883179 23.808886
950.748657 143.946167
951.327209 984.743835
952.388184 911.708252
953.470764 367.721405
954.53717 160.269363
955.330811 57.331161
956.038452 49.533916
956.837646 13.824156
957.412415 80.480614
958.214417 172.466446
959.039795 97.947113
959.667603 45.545437
960.256653 138.952515
961.441711 4813.838379
962.38092 23079.974609
963.386719 7242.605957
964.374084 338.722168
965.432922 95.797279
966.489014 63.587078
967.552185 34.470238
968.145142 2.638149
969.317139 563.390991
970.473877 223.13504
971.463684 909.971741
972.452637 519.710449
973.439819 84.879753
974.343628 12.714494
975.325806 87.738159
976.310059 194.774597
977.261841 829.715881
978.433167 487.395905
979.379883 76532.59375
980.372742 29694.511719
981.337952 283.640259
982.387512 53.851746
983.35437 42.179565
984.286316 44.060493
985.343262 40.592285
986.54895 130.693161
987.33197 144.901474
988.540222 122.661789
989.474182 1000.991577
990.454529 501.777985
991.526306 59.895691
992.258179 28.958179
993.39917 218.618347
994.429626 202.398743
995.454163 7.001542
996.591492 29.836033
997.727783 4.898173
998.360535 25.358284
999.416992 92.05159
1000.41449 61.913246
1001.401306 36.77383
1002.241882 41.814865
1003.38678 146.706818
1004.40979 52.960632
1005.03894 63.917442
1005.626465 42.048584
1006.779602 50.234482
1007.505676 2.623664
1008.524963 28.367319
1009.827271 8.832509
1010.706665 44.000275
1011.8255 76.533089
1012.456726 9.295126
1013.346802 121.61644
1014.421875 96.984734
1015.581543 150.786041
1016.525574 214.853622
1017.408569 53.460709
1018.362061 14.512034
1018.866028 2.839521
1019.577087 42.840443
1020.336243 16.109816
1021.528992 68.961395
1022.684082 17.0387
1023.459473 8.869589
1024.125488 20.153902
1025.325806 24.196184
1026.39917 114.98571
1027.382202 116.829048
1028.450439 50.712654
1029.437622 31.660604
1030.085938 53.651474
1030.755005 121.685715
1031.47168 132.359619
1032.538086 76.527824
1033.55542 35.445946
1034.356445 47.051895
1035.776245 21.420736
1036.426025 133.623825
1037.313599 42.064392
1037.842651 63.345028
1038.587036 15.092403
1039.328125 36.700474
1040.553467 509.605408
1041.522827 280.288971
1042.277588 5.971727
1043.408569 181.945374
1044.545898 402.912292
1045.458862 600.009583
1046.511597 249.981918
1047.463623 531.252075
1048.493652 210.079727
1049.398438 46.085632
1050.479004 86.887436
1052.047485 39.324524
1052.845337 55.921848
1053.423706 675.358093
1054.342651 354.226685
1055.488403 185.215546
1056.433105 45.74918
1056.972656 11.837159
1057.543335 24.472122
1058.573608 69.23587
1059.3302 319.316406
1060.492676 125.077118
1061.359497 22.375051
1062.300049 2148.901855
1063.312988 989.58551
1064.199951 71.486
1064.76001 87.424675
1065.600952 48.756226
1066.569946 25.265516
1067.212036 6.407809
1067.883789 22.147022
1068.509399 11.738639
1069.129395 29.739119
1070.333252 371.474304
1071.335327 159.535141
1072.386597 133.721268
1072.909058 4.74069
1073.422119 44.743828
1074.111084 20.705564
1074.614258 13.270134
1075.330688 50.215981
1076.421265 393.930267
1077.413818 196.499573
1078.431519 53.875481
1079.414062 100.429726
1080.476196 672.419983
1081.447021 269.845398
1082.35791 299.123383
1083.530396 145.790817
1084.450195 290.585388
1085.424683 125.783478
1085.9646 38.261501
1086.675049 50.416382
1087.506348 53.909451
1088.282715 21.517363
1088.833252 16.732635
1089.518677 76.287315
1090.404053 30.345802
1091.260864 55.514565
1092.623535 59.366596
1093.581909 16.679062
1094.446533 413.440918
1095.614624 292.46109
1096.491089 474.651489
1097.462891 538.741272
1098.609985 261.2117
1099.52417 274.498383
1100.500854 519.261841
1101.413696 123.616562
1101.960327 33.116192
1102.606445 58.460789
1103.545898 62.737663
1104.469482 56.073902
1105.445312 13.865923
1106.105225 10.322572
1107.371826 15.503099
1108.707764 23.320925
1109.490967 84.805969
1110.391479 195.572891
1111.217651 61.232025
1112.518555 17660.404297
1113.560913 6291.475586
1114.577148 2855.219971
1115.623901 1615.745117
1116.580688 272.447205
1117.549072 162.420532
1118.449097 165.4198
1119.244263 31.573418
1120.007324 4.07616
1120.588501 71.371002
1121.287964 23.153339
1122.561401 27.995251
1123.271606 82.22982
1124.377319 41.770164
1125.339478 38.809822
1126.55835 270.538177
1127.490479 525.624939
1128.491821 306.51712
1129.383545 158.331375
1130.473877 704.801331
1131.491821 348.007721
1132.509766 99.741371
1133.18811 8.344177
1133.694092 16.779226
1134.447021 34.946728
1135.502441 46.308121
1136.316162 54.375309
1137.232056 61.712433
1137.818237 2.426171
1138.631104 65.12146
1139.552856 30.024038
1140.747314 101.601738
1141.606201 108.950981
1142.292603 81.803406
1142.795288 57.269306
1143.465698 144.50824
1144.540649 386.662903
1145.555176 97.789406
1146.408203 77.951241
1147.610107 12.87464
1148.591309 65.652306
1149.457886 12.786119
1150.065308 31.271452
1150.717407 36.980804
1151.525269 13.317814
1152.428589 35.444832
1153.437378 35.382069
1154.533325 33.56081
1155.558594 178.394348
1156.506836 203.290131
1157.75769 116.275475
1158.605347 55.104328
1159.293823 85.484833
1159.915527 99.763481
1160.699097 32.927486
1161.470337 70.748077
1162.213135 85.855606
1162.818237 1.846887
1163.452393 43.408791
1164.718628 16.504957
1165.438232 16.032352
1166.117676 8.365416
1166.686279 29.404518
1167.582031 43.43866
1168.432617 40.449047
1169.408447 42.890179
1170.500854 119.026108
1171.586426 49.71191
1172.511719 696.581482
1173.523193 1483.194824
1174.465332 583.853333
1175.642822 180.347992
1176.57373 110.931442
1177.319824 59.31562
1178.606201 21.194986
1179.412842 10.505276
1180.367432 25.747959
1181.041992 22.585581
1181.606445 84.679123
1182.625732 72.174576
1183.564331 67.504707
1184.581665 41.554531
1185.204834 35.478447
1185.904053 8.598463
1186.548096 15.764531
1187.393066 91.064537
1188.394409 19.831999
1188.908203 70.146759
1189.715454 42.073792
1190.529175 1522.379639
1191.511353 1047.854248
1192.402466 287.009918
1193.478516 94.876488
1194.364502 96.359962
1194.977539 54.309021
1195.601685 175.531799
1196.603516 69.853493
1197.477783 110.666756
1198.360962 90.568474
1199.528442 42.747459
1200.604614 169.621368
1201.514038 179.164993
1202.533325 201.208511
1203.446045 81.491394
1204.436035 157.611786
1205.435425 219.723953
1206.570557 84.350922
1207.457031 87.766975
1208.546021 1068.196167
1209.620728 547.702576
1210.64624 210.351852
1211.466309 416.598297
1212.544189 1369.215698
1213.608276 680.089661
1214.676025 172.138062
1215.509155 98.394478
1216.54187 46.422821
1217.51416 52.519333
1218.049194 20.752275
1218.711304 42.156273
1219.52771 1218.989868
1220.515869 458.604645
1221.532471 119.969208
1222.574097 4103.746094
1223.581055 7218.544922
1224.561646 2784.987549
1225.584839 481.821289
1226.60791 508.713715
1227.694824 627.2771
1228.576172 800.472778
1229.508545 415.21994
1230.447144 306.884583
1231.44043 218.347458
1232.603394 140.795044
1233.556396 128.512894
1234.559814 43.621655
1235.631714 25.078247
1236.562378 36.420399
1237.492432 235.975189
1238.560791 402.846558
1239.644653 554.398682
1240.53894 66482.46875
1241.543945 35366.121094
1242.615112 1498.584839
1243.646118 485.677795
1244.506958 43.096603
1245.505737 279.494598
1246.593872 239.44574
1247.655273 21.841175
1248.610352 60.553696
1249.593506 166.964966
1250.475342 916.363464
1251.618896 529.129639
1252.777466 68.581528
1253.566406 68.6437
1254.623169 585.433899
1255.578613 728.129089
1256.555664 205.684357
1257.42627 118.494583
1258.598389 686.029175
1259.651123 236.606247
1260.783325 31.565807
1261.726807 11.573915
1263.014526 15.65597
1263.90918 1.049897
1264.579956 11.358552
1265.491699 48.732292
1266.554688 23.502682
1267.450439 4944.889648
1268.503784 3609.809326
1269.651978 85.158554
1270.628784 112.044914
1271.613647 151.605438
1272.523193 246.654556
1273.57666 28.856228
1274.592773 9.302822
1275.421753 35.22517
1276.729126 10.430737
1277.945435 17.865938
1278.838135 7.808401
1279.410156 17.113132
1280.647827 27.017691
1281.530396 17.403915
1282.041504 10.406339
1282.626221 8.510908
1283.556885 62.563412
1284.482422 46.190395
1285.650024 42.910816
1286.48877 50.445953
1287.497437 252.715317
1288.583252 115.070854
1289.712891 76.658745
1290.449951 18.042051
1291.689941 3.090839
1293.90918 1.47316
1294.619629 31.99139
1295.405762 6.658138
1296.521851 56.015785
1297.490356 33.046871
1298.311401 41.092438
1299.588867 26.741121
1300.692993 72.203362
1301.656372 37.093349
1302.213013 19.758202
1303.603027 34.99242
1304.592041 16.874672
1305.55127 93.78656
1306.603271 23.263716
1308.790405 16.466022
1310.509766 19.842167
1311.592285 11.155252
1313.054199 56.050629
1313.766602 66.197571
1314.590088 42.368195
1315.355713 38.728745
1315.945435 24.792395
1316.581055 24.087221
1317.249878 45.820957
1317.894409 10.60343
1318.506104 31.67522
1319.656128 27.957293
1320.370605 4.157657
1321.055908 11.463698
1321.730469 10.337514
1322.405151 32.478821
1323.53772 108.727005
1324.722656 118.781242
1325.57605 59.108864
1326.629517 57.613503
1327.246582 84.650505
1327.868774 3.361932
1328.557373 11.185497
1329.717407 22.174976
1330.756958 40.381256
1331.631592 9.867814
1332.509399 121.637642
1333.553589 234.85675
1334.542236 195.826294
1335.597168 211.050751
1336.496948 103.643822
1337.078491 20.824686
1337.614136 59.884331
1338.800171 33.471592
1339.512085 23.256226
1340.563599 728.088989
1341.582397 421.191925
1342.692139 52.688507
1343.674316 57.96265
1344.407715 59.853439
1345.0 1.434691
1345.779053 95.921852
1346.709229 40.836914
1348.373291 32.415131
1349.016602 60.994522
1349.613525 39.374496
1350.577881 1024.319824
1351.589355 4481.125
1352.610596 2365.929688
1353.608154 399.302948
1354.530151 346.548401
1355.549316 119.015137
1356.580444 103.067825
1357.552734 114.58876
1358.62146 82.876854
1359.590942 21.130348
1360.311646 45.912663
1360.893799 40.527283
1361.523926 129.249619
1362.656372 31.328363
1363.706909 14.135663
1364.608521 50.126499
1365.714233 225.868484
1366.577881 320.500641
1367.656494 300.769409
1368.562134 33449.835938
1369.574219 22596.75
1370.672852 777.071716
1371.63855 250.033432
1372.47229 121.985626
1373.031372 12.974442
1373.972656 13.324282
1374.611938 108.528328
1375.444702 43.200451
1375.979614 36.697678
1376.736206 48.896992
1377.842163 38.160149
1378.601807 74.483124
1379.667847 61.559841
1380.652954 58.767662
1381.624023 31.872433
1382.466431 232.728546
1383.552734 329.821411
1384.683838 133.684952
1385.575439 49.745731
1386.559204 393.480865
1387.589478 239.159866
1388.490234 54.815712
1389.379028 7.397354
1389.939819 10.74217
1390.77478 3.688019
1391.49292 2.168406
1392.739624 12.594655
1393.599854 33.815098
1394.583252 41.609783
1395.729004 18.618483
1396.665405 29.010218
1397.637329 38.112019
1398.542725 19.858944
1399.510376 88.284409
1400.612549 330.801727
1401.60083 161.789032
1402.805908 20.295599
1404.189087 7.655096
1406.127686 3.315382
1406.855591 26.860521
1407.45459 1.037971
1408.611694 16.005623
1409.461914 7.928778
1410.521606 590.825562
1411.046875 136.89711
1411.69104 618.738464
1412.828857 76.451393
1414.025024 18.552921
1414.808472 84.655426
1415.633057 128.46524
1416.685669 371.390961
1417.74939 246.605789
1418.858643 78.674751
1419.542969 6.387138
1420.567261 10.381178
1421.134766 4.182542
1422.913574 11.487837
1425.776733 51.789043
1426.851562 31.882582
1427.670654 24.002594
1428.690063 49.330975
1429.578125 90.350426
1430.569458 20.851315
1431.255005 30.426178
1431.946655 22.368216
1432.694946 22.292953
1433.84082 23.781086
1434.827393 32.257397
1435.678833 20.813269
1436.611938 237.55632
1437.709351 86.121437
1438.38147 23.960403
1439.80957 10.569427
1440.448242 28.598558
1441.588501 8.849476
1442.526001 148.868805
1443.157227 127.857422
1443.865234 103.303253
1444.780762 36.914837
1445.650269 7.623261
1446.584717 1446.602295
1447.570557 728.544617
1448.797241 10.983651
1449.319702 2.071374
1450.616577 49.950935
1451.570679 136.729385
1452.573853 270.008911
1453.609497 609.762329
1454.654419 488.040283
1455.616821 90.027969
1456.589966 6.017004
1457.854614 9.463807
1458.811157 22.62178
1459.3396 26.450142
1460.575195 123.584122
1461.523926 423.493958
1462.545044 364.864746
1463.474976 190.924789
1464.541748 38.428829
1465.629883 36.468048
1466.657715 57.182735
1467.592163 122.933907
1468.653687 582.421997
1469.655518 302.706696
1470.648315 6326.70459
1471.649414 6227.400391
1472.697632 1095.509277
1473.684082 85.044312
1474.514282 49.519611
1475.660889 13.302834
1476.613525 92.811783
1477.487671 40.255642
1478.577759 534.875183
1479.62854 6755.690918
1480.623291 4440.908203
1481.54834 99.831421
1482.081665 122.567299
1482.814087 89.419899
1483.670532 70.549942
1484.775269 221.661285
1485.683105 403.599731
1486.616821 298.571472
1487.795044 192.153168
1488.671631 7462.526855
1489.686768 4631.964355
1490.707642 581.900146
1491.643188 31.855797
1492.217285 22.601208
1492.815796 60.077354
1493.746338 597.016479
1494.687744 651.437805
1496.620117 25173.787109
1497.674561 13234.839844
1498.661011 581.216614
1499.551147 136.724686
1500.435303 83.436165
1501.113281 6.829101
1501.818237 1.007581
1502.467529 40.636391
1502.97522 30.199535
1503.550781 60.524178
1504.495483 90.515709
1505.497192 50.170929
1506.530273 684.241394
1507.623657 815.084412
1508.663818 182.418625
1509.699341 91.366325
1510.466187 19.378145
1511.2677 40.701038
1511.880859 12.996226
1512.603516 81.949677
1514.61145 359.140656
1515.591431 387.404877
1516.700928 173.397827
1517.607544 34.559174
1520.265381 11.667883
1521.51355 594.340942
1522.696777 220.6091
1523.845703 97.202499
1524.45459 2.515661
1525.620117 431.281006
1526.659668 498.436218
1527.582764 156.870819
1528.587646 8.974627
1529.641357 45.011364
1530.460449 20.486538
1531.073975 6.59423
1531.842773 54.744343
1533.597412 9.896477
1536.502075 6.840097
1537.820557 10.752447
1538.718018 318.430206
1539.787476 343.560577
1540.782715 106.47438
1541.721558 13.750807
1542.437256 6.621762
1543.675415 563.720215
1544.622803 377.010803
1545.52771 35.23632
1546.442017 4.788646
1547.0 1.54096
1547.693115 9.229616
1548.322876 43.216213
1548.958374 18.861681
1549.737671 21.345695
1550.259644 11.136324
1550.802002 4.787745
1551.508789 5.630911
1552.07959 16.407099
1552.868042 2.271945
1553.955811 3.73489
1554.505615 11.948715
1558.130493 2.36673
1558.673584 3.511546
1559.911377 22.505058
1560.764038 3.00425
1561.75354 19.943357
1562.705811 9.143743
1563.599365 6.711818
1564.566772 56.901867
1565.641724 5.575874
1566.443481 19.802551
1566.981323 7.812768
1567.869263 15.743839
1568.913818 138.027878
1569.832275 20.644491
1571.129028 12.742381
1573.786865 19.180435
1575.709595 11.222144
1577.619141 18.335045
1583.100098 16.959164
1583.939453 21.386349
1584.796021 23.207548
1585.754761 201.084381
1586.72937 168.788406
1587.983643 30.201643
1589.012207 5.606838
1590.942871 3.025792
1591.705688 8.778477
1592.531982 10.007105
1593.731201 5.654172
1597.26062 5.574599
1598.389771 14.915922
1600.556519 20.339745
1601.06665 11.365568
1601.744019 25.165821
1603.020508 33.988499
1603.70105 35.566792
1604.45459 1.322831
1605.001953 25.065775
1605.709473 6.968643
1607.813599 11.917698
1608.808472 19.625498
1609.335815 13.610624
1609.856079 12.800632
1610.821899 5.174169
1611.955811 2.659853
1613.176758 5.293571
1613.902832 16.336727
1614.703369 7.824125
1615.363647 1.11498
1619.809326 12.584282
1621.594238 14.441098
1622.601196 15.884547
1623.90918 1.565698
1624.995728 21.148922
1625.938599 7.589071
1626.600708 89.259705
1627.119507 12.507666
1627.864014 70.065697
1628.956543 16.179661
1633.555298 4.901334
1635.678223 2.794909
1636.597046 16.700462
1639.815796 3.953953
1641.416382 5.313708
1642.549438 8.172054
1643.725952 161.245224
1644.901978 75.464653
1645.841064 30.55732
1646.679199 6.220726
1647.807495 11.680529
1648.713013 45.049343
1649.919922 121.627129
1650.620728 71.66819
1651.745972 6.388827
1652.923218 17.361364
1655.555054 17.202023
1658.680176 3.357748
1661.364502 10.246052
1663.287354 10.554236
1664.078979 4.311571
1664.64209 11.091536
1666.927612 14.536707
1667.75354 52.206318
1668.699585 3.477251
1670.34668 4.210683
1674.692871 3.30443
1677.0 1.079048
1677.818237 1.291986
1679.464966 18.065189
1680.419678 25.010782
1681.041992 32.81707
1681.754639 15.057845
1682.716675 8.591954
1696.133789 2.9507
1697.656738 157.803665
1698.457764 47.249962
1699.084961 18.256969
1707.852661 3.083478
1712.545532 1.30203
1737.181885 1.008246
1745.930298 19.688786
1750.720459 18.146103
1758.773804 2.270589
1770.579468 15.01754
1788.954956 4.468412
1793.952515 14.661232
1795.0 1.578306
1843.545532 1.048281
1853.0 1.144171
END IONS
