BEGIN IONS
PEPMASS=521.11
CHARGE=1
MSLEVEL=2
SOURCE_INSTRUMENT=LC-ESI-qTof
FILENAME=f.philipwi/0_WilliamsFreshwaterCyanosStandardsConvertedTo_mzXML_v2/PW-36_P1-D-9_Dendroamide_B_520amu_01_15551_Scan776-819.mzXML;
SEQ=*..*
IONMODE=Positive
ORGANISM=GNPS-LIBRARY
NAME=Dendroamide B M+H
PI=Philip Williams
DATACOLLECTOR=Williams
SMILES=CC1C2=NC(=C(O2)C)C(=O)NC(C3=NC(=CS3)C(=O)NC(C4=NC(=CS4)C(=O)N1)CCSC)C
INCHI=
INCHIAUX=
PUBMED=
SUBMITUSER=philipwi
TAGS=
LIBRARYQUALITY=3
SPECTRUMID=CCMSLIB00000424850
SCANS=779
75.40078 92.0
79.699799 64.0
115.87973 32.0
135.390945 44.0
135.472534 32.0
135.531906 44.0
135.858612 40.0
136.044403 104.0
136.230331 32.0
136.364288 36.0
136.900742 32.0
137.020096 108.0
137.333649 48.0
137.438232 36.0
137.692429 40.0
137.902679 40.0
138.006058 760.0
138.240845 48.0
138.446396 60.0
138.523911 60.0
138.756577 44.0
138.989426 40.0
139.312744 40.0
140.003677 136.0
141.025803 112.0
141.518265 96.0
150.006393 152.0
151.022263 28.0
151.092773 120.0
151.633881 40.0
152.026596 100.0
152.128784 48.0
152.881088 48.0
152.991455 112.0
153.070404 1680.0
153.705231 40.0
154.056824 292.0
154.290573 44.0
154.544052 40.0
155.029434 744.0
155.242157 32.0
155.591797 24.0
155.941833 44.0
156.018677 1020.0
156.142227 48.0
156.245255 40.0
156.348053 32.0
156.531418 52.0
156.59523 24.0
157.027176 140.0
158.010254 100.0
158.090393 44.0
158.965195 44.0
161.782364 44.0
162.033798 144.0
162.968231 88.0
163.041489 220.0
165.057404 128.0
166.353561 36.0
166.625885 40.0
166.864594 32.0
167.032761 1268.0
167.161148 32.0
167.359512 64.0
167.474457 28.0
167.771561 32.0
168.033356 332.0
169.02626 280.0
170.03241 96.0
171.691177 52.0
172.150848 36.0
172.443695 36.0
176.434143 36.0
178.225174 52.0
178.523132 48.0
179.085022 924.0
179.948273 72.0
180.085114 64.0
180.812927 60.0
180.923584 44.0
181.047623 540.0
181.405792 36.0
181.576584 32.0
181.782776 132.0
181.978943 44.0
182.044693 428.0
182.918991 44.0
183.048645 116.0
183.255356 36.0
184.039902 112.0
184.863861 48.0
185.028564 80.0
185.679428 32.0
186.00975 504.0
187.403214 40.0
187.700027 44.0
188.889587 36.0
189.134964 36.0
191.033234 176.0
192.074249 56.0
192.657745 56.0
193.048431 1504.0
194.050049 248.0
195.035706 148.0
195.303345 48.0
198.007767 752.0
198.200241 24.0
198.316925 120.0
199.014954 208.0
199.521606 32.0
199.9991 108.0
200.838333 28.0
201.462128 40.0
202.068771 120.0
202.141266 56.0
203.166656 136.0
204.021606 104.0
205.042618 76.0
208.111755 64.0
208.884903 100.0
208.967834 36.0
210.044006 212.0
210.944397 48.0
211.046646 92.0
211.277817 88.0
212.028976 64.0
212.093948 120.0
213.885956 48.0
214.029251 48.0
214.215805 72.0
215.035339 1812.0
215.187164 28.0
215.842209 28.0
216.020111 248.0
216.291962 40.0
216.479492 28.0
217.033798 136.0
218.022949 72.0
219.025375 124.0
220.076981 64.0
221.002365 188.0
222.007965 160.0
223.003326 144.0
225.921463 52.0
228.111221 60.0
230.040771 96.0
231.066727 136.0
231.871658 32.0
232.036087 128.0
233.008698 80.0
233.125473 124.0
234.06723 484.0
234.187546 32.0
235.069672 116.0
236.039902 348.0
237.037094 856.0
237.653473 36.0
238.034622 76.0
238.062683 96.0
238.223755 112.0
239.029739 108.0
239.277649 84.0
240.052399 96.0
240.966721 52.0
241.050293 468.0
241.95723 28.0
242.04454 144.0
243.033386 280.0
243.944351 120.0
244.053879 176.0
244.223206 32.0
245.030762 92.0
246.070328 108.0
247.008057 200.0
247.932953 32.0
248.047211 284.0
248.97789 84.0
250.236755 40.0
252.057709 108.0
252.206909 40.0
253.027542 84.0
256.05307 80.0
257.058777 76.0
257.426819 140.0
259.028564 164.0
260.053986 212.0
261.967163 36.0
262.065704 484.0
262.979248 144.0
263.068207 236.0
263.330811 32.0
264.055176 124.0
265.019592 128.0
265.1026 124.0
267.000244 76.0
268.047943 40.0
271.041016 72.0
271.565979 56.0
272.056152 180.0
273.028076 92.0
273.565521 116.0
274.032562 156.0
274.715912 48.0
274.990692 96.0
276.039062 232.0
276.334778 36.0
276.801239 40.0
277.031677 136.0
277.841522 44.0
278.000031 52.0
278.036682 44.0
278.081787 112.0
278.192261 96.0
278.6922 36.0
280.023956 84.0
280.450806 88.0
280.995483 76.0
281.080963 92.0
282.060425 176.0
284.049072 68.0
285.039825 84.0
285.878357 28.0
286.020813 188.0
286.998566 220.0
288.004547 176.0
288.535858 28.0
288.848572 64.0
289.0755 1200.0
290.062469 4500.0
290.379517 44.0
291.067841 848.0
291.3797 96.0
291.521179 52.0
291.684448 40.0
292.054718 476.0
292.588745 44.0
292.730499 32.0
292.905029 52.0
293.02536 460.0
293.210571 68.0
293.516296 44.0
294.051636 108.0
295.029572 100.0
295.156708 36.0
295.40863 32.0
295.485321 28.0
295.693542 36.0
295.923798 28.0
297.021362 140.0
297.230133 36.0
298.021912 100.0
300.447784 40.0
301.078949 344.0
302.066284 796.0
302.495331 32.0
302.643158 36.0
302.872406 44.0
303.046143 764.0
303.207855 52.0
303.916077 44.0
304.021973 736.0
304.34964 36.0
304.605469 36.0
305.034882 180.0
305.295624 40.0
306.041351 404.0
306.153839 32.0
306.544342 44.0
306.711761 40.0
306.812256 96.0
306.89679 84.0
307.090179 1916.0
307.560791 28.0
307.795593 52.0
308.073151 7904.0
308.465332 28.0
308.578918 44.0
309.077209 1352.0
309.26236 56.0
309.419312 48.0
309.654816 36.0
309.845551 36.0
310.076019 372.0
310.260864 72.0
311.073883 88.0
311.733459 32.0
312.08786 108.0
312.172546 52.0
312.772827 44.0
313.88681 80.0
315.175598 72.0
315.843628 84.0
316.172241 36.0
316.795959 32.0
317.070374 148.0
317.295349 24.0
317.442993 24.0
318.091888 88.0
318.659363 32.0
319.087708 4164.0
319.274139 32.0
319.376648 48.0
319.449829 44.0
319.672913 32.0
320.089081 624.0
320.40274 44.0
320.588196 32.0
320.8479 52.0
321.048767 6868.0
321.281921 32.0
321.366608 52.0
321.453339 24.0
321.796295 36.0
321.910645 32.0
322.048523 1936.0
322.270264 92.0
322.484192 32.0
322.597229 36.0
322.734619 48.0
323.045654 976.0
323.330383 40.0
324.037537 548.0
325.049286 172.0
325.972046 76.0
326.444092 32.0
327.089355 88.0
328.081573 100.0
328.289429 56.0
330.058899 104.0
330.290558 28.0
331.078796 36.0
331.693817 68.0
333.099274 488.0
333.414246 44.0
334.00412 268.0
334.101318 92.0
334.381012 36.0
334.474274 64.0
335.010925 232.0
336.057404 356.0
337.055664 168.0
337.289734 32.0
338.070496 140.0
339.064453 92.0
339.494232 32.0
340.070007 108.0
340.575653 24.0
341.29364 36.0
343.085968 32.0
344.019348 56.0
345.103149 924.0
345.404053 28.0
346.10611 84.0
346.807068 52.0
347.068024 2024.0
347.278412 32.0
347.537445 160.0
347.76239 44.0
348.07074 496.0
348.384033 56.0
348.645844 36.0
349.072693 780.0
349.884796 32.0
350.068085 816.0
350.206818 36.0
351.049255 576.0
351.651703 44.0
352.02887 860.0
352.135986 64.0
352.229126 56.0
352.465027 56.0
352.800201 40.0
353.032623 364.0
353.435059 40.0
353.854614 52.0
354.028046 184.0
354.250427 52.0
354.610443 44.0
355.186859 36.0
356.738312 36.0
357.244141 124.0
357.979462 36.0
361.110016 32.0
362.05545 116.0
362.917145 104.0
363.45166 108.0
363.646118 32.0
364.083099 248.0
364.643585 44.0
365.065277 76.0
365.459595 28.0
365.569275 56.0
366.093536 88.0
366.752441 48.0
366.911163 48.0
367.092255 2032.0
367.363892 56.0
367.615631 40.0
367.876404 36.0
368.085846 856.0
368.316681 40.0
368.426788 68.0
368.584106 48.0
368.857208 24.0
368.882904 60.0
369.052307 9668.0
369.276031 40.0
369.376221 48.0
369.787506 36.0
369.829071 48.0
370.050201 2000.0
370.37326 32.0
370.571106 44.0
370.712616 36.0
370.902496 28.0
371.047089 936.0
371.216034 32.0
371.713196 48.0
371.811523 128.0
372.037415 392.0
372.241821 44.0
372.783173 32.0
372.918579 28.0
373.201752 48.0
373.439545 104.0
374.088898 84.0
375.495758 24.0
376.249603 60.0
376.546417 28.0
378.639771 36.0
379.421631 44.0
380.216705 104.0
381.124603 32.0
382.306488 40.0
382.444855 36.0
382.831421 44.0
383.018524 72.0
385.367462 52.0
385.880707 112.0
387.021027 84.0
388.150482 40.0
390.704102 52.0
391.838898 124.0
393.09024 44.0
394.088165 96.0
395.074799 312.0
396.08374 124.0
396.927856 28.0
397.059967 124.0
398.160675 44.0
399.168854 76.0
399.586548 36.0
402.25415 112.0
413.065063 32.0
413.168732 36.0
417.104065 36.0
417.937653 36.0
418.052155 80.0
421.031891 56.0
428.068146 468.0
428.757935 44.0
429.05307 124.0
430.105316 112.0
431.110626 52.0
431.216522 92.0
437.313751 120.0
438.100586 108.0
442.957245 40.0
443.08905 68.0
443.96402 36.0
444.094818 148.0
444.461121 40.0
444.623779 40.0
444.79715 36.0
445.075745 2204.0
445.308167 40.0
445.913696 32.0
446.067719 232.0
446.2099 64.0
446.384949 44.0
447.064087 196.0
448.312927 36.0
449.028564 36.0
451.34137 32.0
451.693542 28.0
452.995056 32.0
454.869263 44.0
454.964447 48.0
455.095886 672.0
455.95755 40.0
456.087006 468.0
457.083679 176.0
458.078339 108.0
459.476074 88.0
460.255249 40.0
460.771759 132.0
461.089844 64.0
467.573181 148.0
470.329437 48.0
470.465881 52.0
470.67807 36.0
470.956329 40.0
471.080841 96.0
471.246857 44.0
471.464417 64.0
471.620575 28.0
471.897461 52.0
471.994415 20.0
472.505219 32.0
472.617828 40.0
472.769623 84.0
472.789642 80.0
472.928925 36.0
473.106934 21212.0
473.303772 116.0
473.512085 104.0
473.534668 84.0
473.630005 108.0
473.683044 68.0
473.721313 56.0
473.78656 84.0
473.928314 48.0
474.1091 5952.0
474.337769 72.0
474.601593 36.0
474.712677 40.0
474.921051 40.0
475.104523 2804.0
475.267151 44.0
475.28598 60.0
475.50061 96.0
475.589813 32.0
475.624359 72.0
475.893951 56.0
476.100281 320.0
476.380798 32.0
476.482819 36.0
476.742615 28.0
476.971893 76.0
477.074677 112.0
477.355194 52.0
478.067352 184.0
478.511871 36.0
478.651337 88.0
479.101959 104.0
480.055359 72.0
480.675659 24.0
480.843384 32.0
481.34671 32.0
482.7435 40.0
482.914368 52.0
483.096497 48.0
483.572968 28.0
485.916748 24.0
486.077209 96.0
486.254059 100.0
486.691071 48.0
487.08374 96.0
487.590332 148.0
489.18219 32.0
489.562927 36.0
490.141388 40.0
490.677826 48.0
492.105011 52.0
494.710358 40.0
495.987213 32.0
500.355103 60.0
500.569 36.0
500.925629 52.0
501.368011 36.0
501.967651 32.0
503.103027 684.0
503.315613 68.0
503.425476 60.0
503.737762 48.0
503.911865 36.0
504.086609 1748.0
504.441467 32.0
504.563782 52.0
504.6875 44.0
504.869598 44.0
505.086273 748.0
505.485565 36.0
506.082642 436.0
506.304382 44.0
506.505219 56.0
506.849579 32.0
507.079224 60.0
508.351318 52.0
509.795807 36.0
511.394684 44.0
514.209534 108.0
516.452454 52.0
517.670044 148.0
517.954224 68.0
518.304932 92.0
518.422058 56.0
518.555115 96.0
518.696838 168.0
518.860046 48.0
519.111328 92.0
519.197693 64.0
519.644409 32.0
520.229248 88.0
520.51355 44.0
520.614441 44.0
520.915039 44.0
521.109009 16340.0
521.37262 48.0
521.600708 44.0
521.75238 76.0
521.812988 48.0
521.954163 36.0
522.110718 4868.0
522.401672 40.0
522.444641 36.0
522.490967 32.0
522.786072 156.0
523.105408 2492.0
523.547363 44.0
523.83606 36.0
524.108765 488.0
524.655151 32.0
525.195496 64.0
525.658508 64.0
525.82019 32.0
526.160095 44.0
526.2771 68.0
526.876831 32.0
527.359802 44.0
530.893616 44.0
531.407776 56.0
532.642883 36.0
534.218201 28.0
534.896118 28.0
536.858704 44.0
537.080322 32.0
538.499451 128.0
540.009338 44.0
543.10968 84.0
554.443604 44.0
559.076294 56.0
560.146912 112.0
562.33667 40.0
565.318481 84.0
566.061401 144.0
574.128052 136.0
575.916504 116.0
576.968933 136.0
585.717773 52.0
589.039368 92.0
592.370361 92.0
598.218201 108.0
611.29187 72.0
636.768799 108.0
639.538513 112.0
643.122314 120.0
644.286743 100.0
647.445801 128.0
657.688293 160.0
662.011169 40.0
663.061279 92.0
692.231689 108.0
700.980408 120.0
706.611755 32.0
710.820312 100.0
712.2146 72.0
744.486511 76.0
744.973572 24.0
758.465942 124.0
761.893127 108.0
771.211731 52.0
783.760315 76.0
786.511047 84.0
794.756042 84.0
812.773804 84.0
819.949829 80.0
858.524292 72.0
862.67572 40.0
871.59198 112.0
953.920898 84.0
1009.054199 76.0
1025.481812 144.0
1060.477783 32.0
1130.194702 136.0
1153.306152 116.0
END IONS
