BEGIN IONS
PEPMASS=1202.85
CHARGE=1
MSLEVEL=2
SOURCE_INSTRUMENT=LC-ESI-Hybrid FT
FILENAME=f.novakj/Cyclosporin_A.mzXML;
SEQ=*..*
IONMODE=Positive
ORGANISM=GNPS-LIBRARY
NAME=Cyclosporin A M+H
PI=Havlicek
DATACOLLECTOR=
SMILES=CCC1NC(=O)C(C(O)C(C)C\C=C\C)N(C)C(=O)C(C(C)C)N(C)C(=O)C(CC(C)C)N(C)C(=O)C(CC(C)C)N(C)C(=O)C(C)NC(=O)C(C)NC(=O)C(CC(C)C)N(C)C(=O)C(NC(=O)C(CC(C)C)N(C)C(=O)CN(C)C1=O)C(C)C
INCHI=
INCHIAUX=
PUBMED=26195308
SUBMITUSER=novakj
TAGS=
LIBRARYQUALITY=3
SPECTRUMID=CCMSLIB00000531481
SCANS=1
194.117661 6375395.0
199.144196 12050433.0
210.148941 5563542.0
212.12822 5687114.0
224.164566 9460432.0
241.191147 14157669.0
251.175476 7344716.0
255.206802 30112718.0
256.210175 3880830.0
261.159912 3176031.0
269.186096 36323408.0
270.181335 19205794.0
270.189392 4622591.0
279.170563 4401970.0
279.206848 2627197.0
284.19696 3576540.0
291.17038 3643107.0
293.222351 6003127.0
298.212616 83119368.0
299.215912 10033604.0
301.223602 3544962.0
307.201843 2729334.0
312.22818 13850694.0
322.212555 31458072.0
323.216125 4684452.0
323.233063 58001388.0
324.236359 8139544.0
326.243774 30521312.0
327.247101 4408710.0
329.254913 2989467.0
340.223145 3043523.0
341.218445 4328737.0
350.207458 8400659.0
353.254822 6027280.0
354.275238 20517760.0
355.233978 3282547.0
355.278412 3550554.0
364.259369 5148379.0
366.238464 3506970.0
368.290833 137521344.0
369.249786 5652483.0
369.294281 22714442.0
378.275208 23465958.0
379.278381 3902295.0
382.306335 6133525.0
383.265198 16343833.0
396.321991 4458098.0
397.280975 309664704.0
397.3172 4158075.0
398.284241 53225608.0
399.287659 2923124.0
406.306366 4748619.0
411.296417 5721800.0
414.307281 4488627.0
420.322113 2958770.0
425.306763 8129628.0
425.312317 313094816.0
425.317963 7737366.0
426.309937 4773341.0
426.315338 61230740.0
427.319031 3823607.0
435.296387 5405829.0
436.280457 2984760.0
439.327728 42942800.0
440.331268 8985008.0
443.322571 5390367.0
449.312195 91760248.0
450.315552 18179684.0
456.354065 6794050.0
467.322998 3825261.0
468.318024 10954928.0
477.306885 14336675.0
481.374939 3013756.0
482.33374 4602481.0
491.35907 6547192.0
495.39035 10483337.0
496.349335 35444308.0
497.352264 7535151.0
505.375031 4236043.0
510.365082 48531632.0
511.367767 11196148.0
520.349121 6442516.0
523.421509 6494783.0
524.380737 159127888.0
525.383972 38264756.0
527.391235 3437348.0
533.405823 13370322.0
538.39624 16729538.0
539.39917 4515517.0
548.380432 72550096.0
549.383789 18786778.0
549.400818 11837507.0
550.404114 3650001.0
552.411987 20314088.0
553.415161 6279353.0
562.395752 12898583.0
563.399536 3956977.0
566.390869 6211639.0
567.385986 82412952.0
568.389709 21090996.0
576.375305 27121418.0
576.411865 6795770.0
577.378479 6651990.0
579.38678 6658885.0
579.422546 3843013.0
581.402222 8173339.0
598.428223 22587942.0
599.431702 5527385.0
605.426575 3424033.0
609.432983 5497741.0
618.458923 10616032.0
619.462036 3944472.0
623.448608 22073644.0
624.452698 6639729.0
636.469055 6786090.0
637.464844 170780800.0
638.468201 50241468.0
639.471741 6347306.0
644.4375 4333310.0
647.448975 7435395.0
647.485291 7452853.0
652.439148 3457165.0
661.464539 7704137.0
666.491394 5518107.0
675.466553 8613320.0
675.480469 338765056.0
675.494751 7825918.0
676.470825 5540425.0
676.483337 105818256.0
677.487183 13714471.0
679.475586 3639720.0
689.495483 9304521.0
693.49115 21071214.0
694.486267 101556688.0
695.489441 28846814.0
703.474548 35091916.0
704.479065 11293194.0
708.501099 6985691.0
736.533691 5204244.0
746.517761 9165356.0
750.548767 8795996.0
779.538513 6070920.0
788.564514 17640818.0
789.567871 6796616.0
802.580505 13195144.0
803.583435 5003415.0
806.574158 15454791.0
807.581726 5154122.0
817.554565 17038582.0
818.558167 5393483.0
821.585388 38679504.0
822.589233 14053415.0
848.59668 5428664.0
863.632019 4269263.0
906.638 5967542.0
934.669556 18529168.0
935.672424 8665465.0
944.654663 47234192.0
945.657776 22223190.0
946.660706 4914755.0
972.649353 5670961.0
1057.73877 5197728.0
1058.760986 4233599.0
1071.75415 42756728.0
1072.757568 22852206.0
1073.759033 6591030.0
1090.760498 4198265.0
1099.748901 20573850.0
1100.752197 12025217.0
1184.835938 62825660.0
1185.841187 40658176.0
1186.843994 10486521.0
1202.848633 24491862.0
1203.852539 15247659.0
END IONS
