BEGIN IONS
PEPMASS=382.18
CHARGE=1
MSLEVEL=2
SOURCE_INSTRUMENT=LC-ESI-qTof
FILENAME=f.thho/ReferenceSpectra/LipothiazoleB_maxis4G.mgf;
SEQ=*..*
IONMODE=Positive
ORGANISM=GNPS-LIBRARY
NAME=Lipothiazole B M+H
PI=Rolf Mueller
DATACOLLECTOR=Thomas Hoffmann
SMILES=O=C(NCC(NC(C(O)=O)C)=O)/C=C/C1=CSC(CCCCCCC)=N1
INCHI=InChI=1S/C18H27N3O4S/c1-3-4-5-6-7-8-17-21-14(12-26-17)9-10-15(22)19-11-16(23)20-13(2)18(24)25/h9-10,12-13H,3-8,11H2,1-2H3,(H,19,22)(H,20,23)(H,24,25)/b10-9+
INCHIAUX=
PUBMED=25280058
SUBMITUSER=thho
TAGS=
LIBRARYQUALITY=3
SPECTRUMID=CCMSLIB00000425014
SCANS=1
152.017059 1132.0
153.020111 191.0
154.032913 180.0
166.031601 276.0
201.302826 200.0
208.115112 493.0
210.131882 146.0
218.097443 382.0
230.280029 149.0
235.9478 208.0
235.987701 101.0
236.032227 349.0
236.047287 239.0
236.111115 205692.0
236.199051 225.0
236.2789 163.0
236.29866 298.0
237.11351 28602.0
238.107346 8258.0
239.110718 615.0
254.120697 1738.0
255.124985 228.0
265.136719 4955.0
266.138763 1146.0
267.135254 188.0
288.288116 172.0
293.131409 3910.0
294.134613 803.0
295.131042 183.0
364.171295 319.0
382.177704 694.0
383.177765 261.0
384.171265 197.0
763.351501 163.0
764.353088 146.0
1221.992432 340.0
END IONS
