BEGIN IONS
PEPMASS=736.3
CHARGE=0
MSLEVEL=2
SOURCE_INSTRUMENT=LC-ESI-Ion Trap
FILENAME=f.jkharbush/GNPS_JenanKharbush/16.0_Phosphoserine_pos.mzXML;
SEQ=*..*
IONMODE=Positive
ORGANISM=GNPS-LIBRARY
NAME=16:0 PS (1,2-dihexadecanoyl-sn-glycero-3-phospho-L-serine (sodium salt)) M+H
PI=Lihini Aluwihare
DATACOLLECTOR=Jenan Kharbush
SMILES=[H][C@@](COP([O-])(OC[C@](C([O-])=O)([H])[NH3+])=O)(OC(CCCCCCCCCCCCCCC)=O)COC(CCCCCCCCCCCCCCC)=O.[Na+]
INCHI=
INCHIAUX=
PUBMED=
SUBMITUSER=jkharbush
TAGS=
LIBRARYQUALITY=3
SPECTRUMID=CCMSLIB00000078670
SCANS=1
191.166672 1.313069
213.166321 4.609185
223.083328 1.262244
227.292435 6.958355
228.083328 1.216088
235.056763 19.282248
239.030991 16.33075
241.25 1.302097
245.0 1.034904
249.0 1.650708
250.124207 3.782469
251.009552 6.400271
252.25 1.021021
253.167984 5.716434
255.265411 6.730739
261.416656 1.085394
267.288635 3.029309
269.124207 5.846901
277.240417 4.085685
280.301117 26.170732
283.373108 31.841255
284.119568 2.583809
285.166656 1.050343
294.333344 1.518258
295.131042 7.925653
297.185242 7.546242
300.166656 1.063003
301.084747 4.395238
303.166656 1.214437
305.090698 4.471737
308.133087 4.927593
309.371246 2.41357
311.37207 4.569037
313.208405 134.353806
314.25 1.197143
318.166656 1.555828
323.33432 4.265954
325.118561 3.190974
326.215942 237.393127
327.048035 2.845427
327.916656 1.271061
328.954193 2.548516
331.25 1.24888
333.129639 2.495371
337.166656 1.019503
338.416656 1.055702
343.333344 1.099172
345.326141 14.146938
347.5 1.057493
348.840088 4.738238
355.367798 3.109068
366.375549 2.181934
367.416687 1.090698
368.369202 6.166842
374.369568 2.491863
379.212158 3.071512
381.5 1.469552
382.253906 5.185721
383.279694 10.523661
383.833344 1.03857
385.207458 3.496182
388.166687 1.122377
389.416687 1.011894
390.25 1.05002
391.619629 2.938919
393.152222 80.002594
394.380432 2.952301
397.237488 3.699334
398.464752 3.033247
399.257446 4.201929
405.333344 1.339957
407.284637 2.192497
409.234222 17.155323
411.231476 8.76985
412.291626 7.154727
413.424255 8.558455
414.442413 3.44399
415.327454 47.640213
416.227448 14.660664
417.166687 1.11216
418.539001 3.150837
421.30249 14.575268
422.29834 2.437252
423.455475 4.83389
424.365326 5.237238
425.25 1.199208
432.333344 1.427655
433.296143 2.830936
434.206207 3.268172
435.348206 15.296455
436.39505 8.166618
437.391968 71.405571
438.361847 6.043904
439.456909 33.965961
441.25 1.303811
442.16153 3.740661
447.201324 2.842605
449.275391 6.65871
450.235474 8.449427
451.4086 15.965241
452.318726 10.255996
453.379608 3.03129
456.254425 4.956923
457.964844 3.30305
461.166687 1.47292
462.252075 181.655685
463.372864 22.076094
464.634216 7.533304
465.409515 30.3195
466.240387 7.260867
467.193909 7.012801
469.206421 2.511954
470.409119 4.949608
471.416687 1.274869
473.416687 1.157431
474.25 1.019724
475.383667 2.538867
477.336853 6.677095
478.328674 112.37326
479.332825 62.419804
480.215027 358.886353
481.274689 40.02985
482.5 1.430313
483.124176 3.121914
484.624084 2.600366
485.25 1.017409
487.224304 3.439922
488.0 1.357962
489.377014 3.83856
490.539734 2.967815
491.479187 19.820337
492.42395 7.704238
493.387909 12.672606
495.583344 1.05129
496.422913 59.91077
497.330261 16.848576
498.230164 130.007843
502.112732 3.025394
503.093292 5.151272
504.622406 13.656551
505.351379 23.044319
506.4534 10.723284
507.242554 17.426382
508.66687 4.730544
509.471405 3.910289
510.334442 5.100142
511.293549 3.692544
518.666687 1.030614
519.407043 15.016491
520.548279 7.520066
521.329529 21.630276
522.114441 23.430561
522.970154 103.87928
524.045593 32.918594
524.610291 3.979793
525.117493 3.141092
527.405029 11.796727
533.516479 5.935147
534.543091 3.749753
536.124573 2.815902
539.289368 2.168398
542.333374 1.509062
542.99054 28.9897
544.075012 5.088194
545.076172 17.571892
545.771667 5.390435
546.371155 7.922644
547.519226 24.184156
548.377136 14.406771
549.580627 28.400255
550.210693 9.935646
550.789856 301.84906
551.468628 113518.515625
552.206787 40.406414
561.0802 41.449837
561.791443 3.9644
562.420837 4.443778
563.110657 22.982824
563.833374 1.46097
564.666687 1.453503
567.301575 17.516314
567.922119 4.414283
569.454834 2.819151
571.434509 10.300616
574.200745 2.497514
575.423523 23.084524
577.345215 10.278429
578.546509 2.512586
579.277039 4.624415
581.336182 4.927987
582.582947 4.332384
583.352844 5.328979
584.575623 3.574574
585.139221 5.517558
587.330261 13.463151
588.411804 15.355186
589.529602 15.999793
590.604553 5.413023
591.510498 5.866168
593.456787 3.131144
595.438904 7.387877
597.705872 2.55713
599.291199 2.878622
600.190002 8.809917
601.26593 10.53852
601.874146 13.520474
602.950867 92.697891
603.710815 20.244787
604.329834 13.474468
605.283936 23.475908
607.33606 10.371997
608.616089 3.347357
609.540161 3.091943
610.583374 1.052602
611.632568 2.990372
614.075989 12.443457
615.448975 10.336761
616.252869 5.784258
617.243774 4.344168
618.833374 1.237873
619.809021 17.473566
620.845825 230.937759
621.374878 28.71501
621.948486 81.673378
622.903442 18.140589
623.504456 4.409969
625.455383 3.949682
627.833374 1.511283
629.468445 5.855008
630.614258 7.091107
631.564941 4.070497
632.59198 6.628224
633.283569 3.644422
634.381287 16.585007
635.307617 8.345744
636.207581 2.046104
637.166687 1.270955
637.854553 5.770929
638.415222 21.577816
639.275818 3.630342
640.00177 9.935695
640.75 1.104183
642.858826 8.49339
644.416687 1.185814
645.25 1.087892
646.16272 5.270645
646.666687 1.448087
647.530762 13.540021
648.59668 13.001858
649.164062 10.635454
649.675354 5.524705
650.583374 1.416445
652.423462 2.117876
653.421997 7.784314
654.649963 7.072561
657.287659 15.020646
658.606201 4.096788
659.306702 13.586666
660.660339 7.05773
661.651062 2.416444
663.308716 100.651741
664.333374 1.033811
665.309998 6.006357
667.378723 3.381852
668.583374 1.35306
669.416687 1.512652
670.75 1.033019
672.796692 8.155753
673.316284 9.699223
674.210205 8.759624
674.725098 10.263446
675.426514 75.304764
676.435547 33.239765
677.398071 17.438055
678.574219 8.09913
679.573853 8.005151
680.23645 4.374784
680.968933 20.726095
681.935852 10.032889
682.693359 6.84435
684.561035 5.168685
685.291321 2.399741
686.568726 4.246328
688.866516 25.270716
689.822083 32.928112
690.68634 8.826492
691.416687 1.373528
692.04126 8.586747
692.878845 43.89143
693.502563 30.593763
694.490479 19.072754
695.701538 3.317627
696.287781 2.58678
696.942444 13.145966
698.008728 10.860834
698.873413 79.999428
699.553589 35.328129
700.161804 60.446152
700.76239 31.057917
701.386047 23.435966
702.471802 13.660196
703.431763 34.736664
704.535339 4.935699
705.368408 4.754167
706.602783 9.394835
708.716614 3.062219
709.263672 7.281966
709.880615 4.1421
711.741089 5.085337
713.583374 1.327797
714.341675 3.883437
715.157471 4.513924
716.01178 3.831975
716.858521 217.977615
717.75415 468.88858
718.726929 308.208923
719.409424 119.049194
720.023743 11.318463
720.540405 2.376762
722.804443 3.480007
724.332764 4.852542
724.916687 1.163416
725.452026 5.349725
726.921387 7.518462
727.87738 3.146042
734.756165 58.766193
735.333374 1.484285
735.920898 39.596741
736.841003 19.979849
737.972473 16.568386
763.0 1.017679
773.425415 5.8019
782.416687 1.138472
794.546448 2.980377
END IONS
