BEGIN IONS
PEPMASS=1543.81
CHARGE=1
MSLEVEL=2
SOURCE_INSTRUMENT=DI-ESI-qTof
FILENAME=Plipastatin_1K_LTQ_1543_8125.mzXML
SEQ=*..*
IONMODE=Positive
ORGANISM=GNPS-LIBRARY
NAME=Plipastatin-C17-Val M+K
PI=Dorrestein
DATACOLLECTOR=J Watrous
SMILES=CCC(C)[C@H]1CC(=O)[C@@H](NC(=O)[C@H](NC(=O)[C@H]2CCCN2C(=O)[C@@H](NC(=O)[C@H](NC(=O)[C@H](NC(=O)[C@@H](CC3=CC=C(C=C3)OC1=O)NC(=O)[C@H](CCCN)NC(=O)[C@@H](CCC(=O)O)NC(=O)CC(CCCCCCCCCCCC(C)C)O)C(C)O)CCC(=O)O)C(C)C)CCC(=O)N)CC4=CC=C(C=C4)O
INCHI=N/A
INCHIAUX=N/A
PUBMED=N/A
SUBMITUSER=jdwatrou
TAGS=
LIBRARYQUALITY=3
SPECTRUMID=CCMSLIB00000072184
SCANS=1
611.416687 2.877739
647.25 0.976149
684.416687 1.15405
694.333313 0.878153
695.5 0.834137
750.166687 1.216609
755.166687 1.170113
760.416687 0.928516
778.166687 0.977285
780.166687 0.921772
784.25 0.872116
793.666687 0.8824
797.25 1.022564
814.166687 0.947272
825.666687 2.041154
835.083374 0.920196
838.75 0.869447
841.333374 0.758723
841.583374 0.750478
869.416687 0.771647
879.916687 1.251013
881.333374 1.036778
891.5 0.794013
895.0 0.783868
895.25 0.823748
898.416687 1.03175
903.166687 0.801426
913.416687 1.088111
915.416687 0.937706
917.666687 0.755004
919.666687 1.184587
920.5 1.428058
929.916687 0.750165
931.333374 2.429656
933.166687 1.220838
933.416687 1.52681
936.166687 0.794281
936.916687 1.166508
937.416687 0.896661
943.25 2.124093
943.583374 2.035544
953.416687 1.047017
955.333374 1.356698
960.416687 0.793833
960.666687 1.417127
965.333374 0.838349
967.333374 0.908853
970.416687 1.266662
971.0 0.796624
971.666687 2.449173
982.333374 0.809308
983.75 0.786335
987.25 1.577522
988.25 8.792157
988.5 6.287605
988.666687 4.002782
989.166687 1.030019
989.583374 2.211454
996.916687 1.03612
997.25 0.780361
998.166687 1.411832
998.333374 1.270649
998.583374 1.558319
999.416687 2.030174
1003.333374 0.849658
1004.416687 11.994488
1005.0 0.79204
1005.5 0.880543
1008.666687 1.084756
1014.25 3.855989
1014.416687 3.908444
1014.833374 1.695998
1015.333374 7.158022
1017.583374 1.551795
1026.083374 1.10335
1026.916626 0.753085
1028.0 0.90976
1032.416626 105.499077
1033.75 1.516212
1035.666626 1.03799
1038.333374 1.680988
1039.416626 1.015922
1041.416626 0.76228
1042.5 2.43816
1042.75 1.453886
1044.25 1.014753
1047.083374 1.178333
1047.333374 1.522966
1047.583374 1.47753
1048.166626 0.998404
1049.333374 0.940469
1049.583374 0.950662
1050.25 0.832411
1050.583374 0.827256
1056.0 1.025126
1056.416626 2.986249
1058.5 1.148554
1058.833374 1.050845
1060.25 0.802548
1066.5 1.972766
1067.083374 1.269962
1067.416626 2.92068
1069.333374 0.939627
1069.833374 1.140342
1070.833374 1.035979
1071.0 0.780177
1073.333374 0.934571
1074.333374 1.360559
1074.666626 1.06456
1080.166626 1.145447
1082.583374 1.393087
1082.833374 1.032479
1083.75 1.312414
1084.416626 10.533296
1085.583374 2.048507
1092.5 1.18884
1093.333374 2.386258
1093.5 1.144398
1094.583374 0.859216
1099.0 0.778011
1099.333374 0.848213
1099.583374 0.778341
1100.333374 3.73051
1100.583374 1.669182
1101.333374 1.199125
1101.5 1.062456
1102.583374 10.304041
1104.5 1.88819
1105.583374 0.935345
1110.333374 2.28946
1110.583374 2.20693
1111.0 2.182712
1111.166748 2.719284
1111.416748 3.516009
1111.583374 4.531393
1112.083374 0.889693
1113.333374 1.020117
1113.75 1.166629
1114.416748 1.907069
1115.333374 0.847303
1117.75 0.856089
1118.416748 11.598413
1120.416748 0.880216
1128.583374 57.790848
1129.333374 5.721533
1130.333374 0.836667
1131.75 0.893558
1132.333374 1.455024
1132.666748 0.965138
1132.833374 1.609568
1133.916748 1.187895
1134.666748 0.845819
1135.416748 2.114764
1136.416748 0.766133
1136.916748 0.775068
1141.333374 0.874473
1143.25 1.168233
1144.833374 2.429883
1145.583374 2.657833
1146.5 131.194214
1147.75 1.693484
1150.25 0.869571
1151.25 0.884236
1151.416748 0.81108
1152.5 1.193586
1153.5 0.753814
1156.25 1.683229
1158.75 1.477587
1159.5 1.698107
1161.666748 1.577134
1162.833374 1.088058
1167.083374 0.855979
1168.666748 0.947843
1170.416748 1.164016
1170.75 1.390682
1172.25 0.802186
1173.5 0.764054
1178.25 0.927937
1178.833374 0.925051
1183.166748 0.786554
1183.833374 1.482734
1185.083374 1.022629
1185.5 0.991149
1191.416748 0.81471
1192.916748 0.795158
1201.0 1.225202
1201.25 2.300752
1204.333374 0.915215
1205.333374 0.942649
1208.583374 1.821996
1211.333374 0.919432
1212.333374 0.796662
1213.416748 1.653507
1213.916748 0.884776
1214.25 0.824471
1214.583374 1.129299
1216.166748 1.014526
1217.416748 0.881184
1217.75 1.153111
1218.5 0.811582
1218.666748 0.87975
1219.0 1.567371
1219.416748 2.019778
1219.583374 3.63076
1220.0 0.91539
1231.25 0.954761
1237.333374 1.679407
1239.666748 2.79484
1240.25 0.797684
1243.083374 0.968161
1243.5 1.230382
1246.333374 1.706361
1249.416748 1.805833
1251.083374 0.848563
1252.166748 0.968106
1254.75 0.900785
1255.166748 5.487076
1255.5 7.151292
1257.416748 1.677829
1257.666748 1.468688
1258.666748 0.79346
1259.166748 0.766309
1260.416748 1.683529
1261.666748 1.71564
1263.25 0.781279
1264.916748 1.311499
1267.416748 2.267187
1267.666748 2.895742
1267.833374 2.49234
1268.833374 0.967159
1269.333374 0.841997
1270.666748 1.017859
1271.416748 2.60104
1271.666748 2.285914
1272.416748 1.034351
1272.916748 1.734633
1273.25 5.546258
1273.5 4.279873
1273.75 3.815714
1274.5 0.885828
1275.083374 1.251231
1275.416748 1.858846
1276.0 0.755436
1276.5 0.982224
1279.333374 2.812092
1280.916748 0.849327
1281.333374 1.087641
1281.5 0.799922
1282.5 0.81387
1284.416748 3.733599
1286.583374 1.641984
1287.583374 1.024506
1289.166748 1.520222
1289.5 2.680473
1289.75 1.938885
1290.0 1.108091
1291.5 0.862218
1295.25 1.44925
1295.583374 1.89885
1295.916748 2.245354
1297.583374 1.181545
1297.916748 0.932249
1298.833374 0.872951
1299.583374 14.792871
1299.916748 2.955774
1300.166748 1.057815
1300.666748 1.624721
1302.416748 1.409952
1302.75 0.828126
1303.166748 1.595219
1310.5 0.888053
1314.25 1.375493
1315.666748 0.898365
1316.75 1.737647
1317.5 33.05867
1319.416748 0.882164
1320.833374 1.075098
1322.75 1.438447
1327.083374 1.766795
1329.416748 0.91166
1329.666748 0.873958
1330.5 2.896773
1330.75 2.216951
1331.25 1.166005
1331.5 1.657418
1333.666748 1.012665
1336.0 1.124566
1339.0 0.96158
1339.75 0.842817
1339.916748 0.817457
1341.416748 1.632165
1342.666748 1.221593
1342.833374 1.95067
1344.833374 0.744557
1345.25 1.524967
1346.166748 0.752603
1346.583374 1.19333
1347.583374 1.632457
1350.083374 1.112882
1352.0 0.745811
1352.583374 1.046028
1353.666748 1.048311
1354.25 1.137551
1354.583374 1.038649
1357.166748 0.844489
1360.916748 0.95027
1362.916748 1.342821
1363.416748 1.124113
1368.416748 0.772929
1369.583374 0.949485
1370.0 0.876557
1370.583374 2.191421
1370.833374 3.491578
1372.416748 1.455083
1373.083374 1.264766
1378.083374 1.395049
1378.25 1.048289
1378.5 1.612123
1379.583374 1.674201
1380.0 1.032228
1380.5 0.776976
1381.166748 2.439435
1381.666748 1.224908
1382.333374 0.771039
1383.416748 1.400491
1384.75 1.13089
1385.666748 0.909253
1386.083374 0.973932
1386.5 2.930707
1386.75 6.109431
1387.0 4.60844
1387.333374 1.804925
1387.75 1.003617
1389.083374 0.924011
1394.333374 0.779093
1394.5 0.98192
1395.833374 2.142193
1396.25 3.79332
1396.583374 6.981296
1396.833374 7.940221
1397.583374 2.045776
1398.666748 1.074422
1399.416748 1.21621
1399.666748 1.207731
1400.583374 2.093657
1401.083374 0.811943
1401.75 1.005288
1402.25 2.351397
1402.5 6.490453
1402.916748 4.831005
1406.0 1.622598
1407.083374 1.547175
1407.333374 1.004016
1408.583374 0.898031
1408.833374 0.774263
1409.916748 1.891701
1410.166748 1.504654
1410.333374 1.441124
1411.666748 0.840591
1412.0 1.551082
1412.333374 1.546905
1412.666748 1.055584
1413.25 2.043831
1414.25 0.80119
1414.5 4.290596
1415.416748 0.906158
1416.666748 1.677604
1418.666748 0.918555
1421.75 1.133531
1422.75 1.447848
1423.0 1.616375
1424.916748 0.863574
1426.083374 0.902502
1426.583374 1.072785
1427.0 1.60352
1427.5 1.134892
1428.833374 1.088658
1429.25 0.889372
1429.5 1.831579
1429.75 1.225917
1430.25 1.415425
1430.75 4.288726
1431.333374 0.975304
1432.916748 0.755088
1436.5 1.75273
1437.75 2.932253
1440.333374 0.860144
1441.416748 1.074464
1443.75 1.02448
1444.666748 9.567142
1445.333374 1.642442
1445.75 0.800756
1451.166748 0.846655
1452.166748 1.241267
1452.833374 1.2261
1453.666748 0.845297
1453.916748 1.792628
1454.25 0.821005
1454.416748 1.535337
1454.666748 1.121122
1455.25 1.998953
1455.583374 5.392737
1455.833374 3.786914
1459.25 1.482727
1459.75 0.909087
1460.5 1.790399
1461.083374 1.108946
1461.416748 1.134671
1462.666748 1.503198
1463.166748 0.761186
1463.583374 5.050926
1464.25 1.402235
1467.083374 2.598702
1469.75 0.799011
1470.083374 0.969492
1470.583374 1.386864
1471.75 7.002348
1472.083374 3.557228
1472.833374 1.635225
1473.833374 1.735133
1474.666748 1.215205
1476.666748 1.814329
1477.0 1.633449
1477.166748 2.263958
1477.333374 1.793326
1477.75 1.823099
1478.75 0.811127
1479.833374 1.94753
1480.75 3.420797
1481.75 28.757721
1482.416748 2.801003
1482.75 3.323939
1483.083374 1.272003
1483.333374 2.561955
1483.666748 0.972908
1484.0 0.822795
1484.5 0.973863
1485.666748 5.238811
1486.25 2.406214
1487.0 1.047789
1489.166748 0.949452
1489.666748 2.08601
1489.916748 0.899545
1490.75 0.873724
1491.666748 0.869525
1493.0 0.75859
1494.416748 2.267949
1496.75 1.748668
1497.083374 2.044007
1497.666748 11.364824
1497.916748 9.708174
1498.833374 12.04076
1499.666748 109.347588
1500.75 0.874983
1503.5 0.99309
1503.833374 1.218997
1506.5 1.24507
1507.0 3.323985
1507.75 23.665661
1508.416748 3.035268
1508.75 5.60133
1509.0 3.692094
1509.416748 0.976707
1511.0 1.073713
1511.583374 0.844333
1512.416748 1.878362
1512.833374 1.636741
1513.25 0.823574
1513.666748 1.792858
1514.0 0.779295
1514.5 1.992609
1514.916748 1.330001
1515.833374 66.079094
1517.416748 1.233452
1517.75 1.25585
1518.75 0.905141
1519.0 0.765722
1521.0 3.114143
1521.333374 2.436726
1521.75 1.731568
1522.166748 0.876867
1522.5 1.168697
1524.416748 6.05476
1525.666748 343.357483
1526.666748 18.232281
1526.916748 11.818398
1527.583374 1.023956
1529.333374 0.821097
1531.0 1.03319
1534.416748 1.55613
1534.75 0.952673
1535.166748 2.194802
1541.416748 0.782106
1677.25 0.775291
1757.833374 2.312227
1917.333374 0.798315
1951.25 0.810351
1970.666748 0.894662
1987.833374 0.823376
1994.5 1.196596
END IONS
