BEGIN IONS
PEPMASS=721.284
CHARGE=1
MSLEVEL=2
SOURCE_INSTRUMENT=LC-ESI-qTof
FILENAME=3b_5a_7b_10_15b-O-pentacetoxy-14b-O-benzoyloxy-10_18-dehydromyrsinol.mgf
SEQ=*..*
IONMODE=Positive
ORGANISM=GNPS-LIBRARY
NAME="3,5,7,10,15-O-pentacetyl-14-O-benzoyl-10,18-dihydromyrsinol " M+Na
PI=LITAUDON/TOUBOUL
DATACOLLECTOR=Esposito
SMILES=C[C@H]1C[C@@]2(OC(C)=O)[C@]([C@@H](OC(C)=O)[C@@]([C@H](OC(C)=O)C=C[C@@H]3C(C)(OC(C)=O)C)(CO4)[C@]3([H])[C@]4(C)[C@H]2OC(C5=CC=CC=C5)=O)([H])[C@H]1OC(C)=O
INCHI=
INCHIAUX=
PUBMED=N/A
SUBMITUSER=lfnothias
TAGS=
LIBRARYQUALITY=1
SPECTRUMID=CCMSLIB00000840363
SCANS=1
50.014191 198.557907
57.031952 103.5
59.050449 170.456894
69.03392 113.315201
69.067543 101.692299
71.050911 123.838402
77.038391 849.312927
83.009514 258.61731
85.028305 154.691696
91.055687 421.347412
95.048859 207.778793
95.08474 128.6875
97.067062 110.0
101.056931 151.468201
105.033791 11123.259766
105.069969 569.432373
105.176872 61.195122
105.210518 42.360291
105.247055 45.021221
105.29744 67.051231
105.418945 62.798908
106.353218 62.26741
107.084488 192.976196
108.051331 164.864899
109.064499 407.711212
111.07769 69.08889
113.13105 89.004807
115.053978 84.490387
117.069054 92.728447
119.084984 116.111397
119.625504 60.920921
121.101517 100.166
123.079254 319.914307
127.073784 125.469704
129.823257 52.510422
131.084839 563.906372
131.451508 71.0625
133.064682 535.752319
135.080414 456.365997
141.068619 81.637192
142.077881 336.888885
142.907761 54.551472
143.08551 699.60968
145.026474 60.703949
145.065338 369.052612
145.099274 365.283813
146.072845 158.4133
147.078171 99.681
151.075546 70.173912
151.414932 40.94231
153.088333 51.164471
155.083862 96.321808
157.101852 560.5
159.061935 77.006248
159.080933 585.034607
159.116516 312.283203
161.054047 52.165821
161.095383 476.261292
163.07579 420.601715
163.110748 93.14959
167.084671 94.893517
168.622467 152.943802
169.098694 271.123291
171.07962 72.396133
171.115814 140.020996
172.087357 128.030304
173.055054 44.529411
173.096756 350.775604
175.112686 829.880005
176.571457 52.792912
179.084183 504.995789
179.103149 264.356415
180.094604 209.0336
181.101349 615.578918
182.075409 67.0
183.081604 55.058819
184.087601 119.782898
185.094574 200.410095
185.794861 79.372551
187.111862 384.112488
189.08783 50.223209
191.085968 532.789612
192.091949 265.083313
193.102097 2195.360107
193.776459 48.09
194.107269 127.320099
195.117691 1057.379028
197.099976 199.295197
197.131363 135.777893
198.10759 48.01786
198.139175 59.91848
199.110214 275.444489
201.091782 39.0
201.126328 51.365261
202.075943 140.186996
203.081589 143.853195
203.105301 246.6875
203.617966 47.355389
204.093765 54.798908
204.115265 163.689606
205.101288 379.883392
207.116913 3955.302002
207.198822 77.938766
207.348022 58.03846
208.085724 63.189388
208.120346 48.025002
209.13298 776.634094
210.318649 59.777981
211.111496 430.506897
211.148407 241.275894
212.121353 93.003197
213.127594 261.333801
214.117798 41.013889
215.1035 72.917168
217.100021 251.877106
217.631302 153.055206
218.109772 252.119095
219.065933 59.375
219.116318 1106.560059
220.123596 132.254501
221.132904 1085.829956
222.945694 47.094231
223.112228 230.349106
223.148148 344.290192
223.819748 54.132252
224.15451 105.672203
225.127151 618.400879
225.162033 322.778595
226.173904 42.102268
229.099411 75.236763
229.124466 67.235474
231.116241 81.599998
232.124832 877.984619
233.132507 2403.436035
234.140686 711.670715
235.110672 354.804413
235.148575 5869.53418
235.213455 199.3853
235.343109 66.408897
235.876007 64.164467
236.118423 151.290298
236.148407 311.085602
236.587036 39.125
237.127823 1656.827026
237.163513 1263.391968
237.540009 48.132252
238.157578 66.878052
239.106674 289.306793
239.144348 229.917801
239.174881 250.820404
239.337158 38.555561
241.156723 173.571304
243.114105 86.964508
244.124802 464.122986
244.73317 67.0
245.11618 497.62619
245.131592 367.247498
245.916061 47.198528
246.135025 60.064289
247.11203 197.925705
247.148727 8598.547852
247.232849 67.171608
247.309097 43.0947
247.326736 69.715912
247.462769 57.026161
247.659836 39.034088
248.11705 306.537598
248.151932 562.937805
249.126404 270.100098
249.164185 2075.0
249.268906 87.493851
249.647629 85.76786
249.884613 50.456821
250.168671 130.166306
250.689041 56.560341
251.142578 430.134491
252.121521 68.022057
252.14447 50.43214
253.121338 395.779602
253.159195 939.684387
253.837875 60.407612
254.125916 41.014709
254.161407 196.445602
255.137833 475.212311
255.17244 92.125
257.193939 90.805
259.149261 1381.553955
259.576019 73.201218
260.121002 144.654495
262.135956 113.009598
263.144745 391.770111
265.158813 3333.01001
265.202362 310.150909
265.377655 137.534805
265.500122 62.222832
265.780121 52.35577
266.161377 218.163498
267.137817 296.365295
267.174744 1140.531006
268.344543 62.168919
269.112061 38.645
271.168518 51.161289
275.141937 56.36364
277.159119 10292.209961
277.226562 229.859604
277.276245 39.408329
277.346619 53.05896
277.447327 65.444771
277.482697 43.032139
277.57901 55.125
277.66922 50.76136
277.725128 58.445
277.990234 39.003052
278.161835 402.175415
278.286072 43.034088
279.137451 90.256409
282.158142 54.785709
283.167725 242.108307
285.144409 74.880211
285.183807 205.877594
287.107574 67.01786
291.165161 91.120407
293.154297 153.892899
294.15448 134.474594
295.170013 4404.757812
295.317688 63.385269
296.172607 311.793488
296.328491 47.88044
299.138977 710.794312
299.770172 71.339287
301.118958 62.778568
303.137695 59.072578
307.130554 48.20454
307.169891 626.019714
308.135498 249.385101
308.170258 121.525002
309.178375 44.689659
311.165649 124.036301
313.119995 96.108871
313.181213 1476.333984
315.137299 142.368195
315.156372 111.618103
317.147858 86.001709
319.167175 293.141602
320.284943 38.791672
325.181854 237.183899
326.181519 130.537796
327.136932 134.504196
328.12854 78.859703
329.113708 174.149399
329.151245 899.768982
329.317017 38.938831
329.500031 40.31522
331.134094 109.906502
331.185913 43.408329
337.180817 2249.631104
339.167969 172.8172
341.189453 88.29808
342.160065 195.587204
343.204742 76.487808
347.199127 44.028851
355.191925 1070.412964
356.193726 158.555695
356.632843 60.461071
357.146729 53.190479
357.183838 139.185303
358.191956 71.019073
359.16214 1656.243042
359.518372 76.848083
359.741425 54.102268
359.817413 41.882351
360.164551 208.002808
366.066376 39.003571
367.188385 154.320007
368.190155 96.33889
369.18573 7206.657227
369.288391 56.529411
369.534149 52.339291
369.81192 40.445648
369.937836 43.3689
370.188049 765.56012
371.200989 129.792404
371.371948 54.001808
372.20517 71.330704
373.198334 182.691406
374.205475 159.719101
375.184906 57.98864
377.137939 110.601196
377.170746 336.922607
379.152252 510.244904
381.185181 658.685974
383.163727 180.348602
387.194122 160.470596
389.172943 188.249298
391.166962 276.153687
397.201782 267.315887
397.697723 53.882351
398.200043 215.1315
399.196442 1647.391968
399.437988 48.44907
399.926697 86.80278
400.196472 58.57143
401.173157 42.444439
401.209686 54.0
415.212616 321.153809
415.468689 51.462841
416.80658 46.10746
417.21283 244.326508
417.837616 50.0
417.901428 59.07692
419.183136 7040.98291
419.26709 113.507004
419.296967 47.066669
419.509644 43.013889
419.554474 39.520828
419.617554 47.242649
419.691772 83.013893
419.718842 56.490002
419.833252 52.010422
420.185913 616.241882
420.381836 40.36742
420.7453 39.011909
420.802032 56.006939
421.176819 521.484619
421.868591 43.68182
422.174408 74.056252
429.206207 3116.768066
429.717438 58.799999
429.90332 42.25
430.206482 329.31839
430.906097 46.419781
437.194672 874.202026
438.189819 43.041672
439.184998 69.444443
441.168823 56.594391
442.044769 39.592209
449.185577 42.975811
451.186035 228.657196
453.838623 48.236698
457.220276 254.818802
458.22995 100.614403
459.21347 637.132812
462.19519 92.588226
478.549622 43.564819
478.968506 75.431084
479.203827 12078.549805
479.327026 144.0849
479.507141 94.315224
479.581085 103.75
479.639069 133.226898
479.698975 77.019234
479.737213 43.390629
479.837524 53.708328
479.873016 67.803574
480.207001 969.544983
480.42392 48.037041
480.744171 40.174999
480.790009 45.321812
481.197754 1564.862061
481.688385 53.779411
482.19754 174.163605
489.231659 213.655197
490.228699 78.541656
497.215607 858.82428
497.585175 45.14286
498.21875 47.53125
499.209656 236.579498
501.189026 275.552094
501.222015 171.198807
502.189392 64.375
511.200867 100.372902
517.243896 316.086304
518.647522 45.370609
519.238159 315.388397
539.223816 1257.031982
539.914062 38.75
540.231873 243.481903
541.220398 11970.280273
541.34668 60.44643
541.436768 46.54546
541.537598 117.481697
541.716248 89.156693
541.77417 42.211208
541.827271 75.905487
541.881531 73.559998
542.089233 56.125
542.223389 942.295593
542.31427 43.066669
542.381531 67.107452
542.418518 58.96196
542.472473 84.058823
542.821899 57.440788
557.237 161.123093
561.210083 115.75
579.25769 1135.737061
580.047485 65.355766
587.263245 42.387821
593.864624 64.601471
595.462341 51.430561
598.963806 44.370609
601.242004 38550.820312
601.594849 115.030403
601.66156 55.482059
601.694702 58.261341
601.786072 133.180603
601.882996 140.061798
601.978638 150.646896
602.025452 113.010803
602.07074 201.506607
602.127014 70.681824
602.184509 63.702702
602.244507 3228.917969
602.334595 95.920464
602.524963 40.3125
602.586304 54.291672
602.690002 112.612297
602.733643 73.0625
602.830566 81.063828
602.853333 77.135002
602.949524 78.347221
603.096558 69.408333
603.222839 112.100197
603.333862 43.41346
603.615967 48.56522
603.698547 42.076221
604.13623 41.49342
604.213318 65.028572
605.769897 46.26667
629.713135 57.440071
639.280396 2240.218018
639.74292 57.036289
639.777649 43.68597
640.282227 327.878815
643.251282 49.075001
661.264099 10483.019531
661.397095 66.395157
661.437195 39.0
661.578003 77.370369
661.732483 63.00544
661.795105 57.077591
661.929565 42.32143
662.036743 54.310341
662.184937 89.778229
662.264465 875.172302
662.361145 96.112663
662.475769 40.005951
662.644043 54.149391
667.297668 63.0625
670.742432 42.06649
721.283508 5525.693848
721.74585 102.128998
722.289001 366.199493
722.67157 67.777939
END IONS
