BEGIN IONS
PEPMASS=1225.71
CHARGE=1
MSLEVEL=2
SOURCE_INSTRUMENT=LC-ESI-qTof
FILENAME=f.philipwi/0_WilliamsFreshwaterCyanosStandardsConvertedTo_mzXML_v2/PW-13_v5_P1-B-4_Puwainaphycin_D_1224amu_01_15619_Scan626-648.mzXML;
SEQ=*..*
IONMODE=Positive
ORGANISM=GNPS-LIBRARY
NAME=Puwainaphycin D M+H
PI=Philip Williams
DATACOLLECTOR=Williams
SMILES=NC(C[C@H]1C(N2[C@H](C(N[C@@H]([C@@H](O)C(N[C@@H](C(C)C)C(N/C(C(N[C@H](C(N[C@H](C(N[C@@H](CCC(N)=O)C(NCC(N[C@H](C(N1C)=O)[C@@H](OC)C)=O)=O)=O)C(C)C)=O)[C@@H](O)C)=O)=C/C)=O)=O)[C@@H](C)CCCCCCCCCC(Cl)CC)=O)CCC2)=O)=O
INCHI=
INCHIAUX=
PUBMED=
SUBMITUSER=philipwi
TAGS=
LIBRARYQUALITY=3
SPECTRUMID=CCMSLIB00000424835
SCANS=638
63.401989 64.0
72.219971 36.0
94.164314 48.0
101.578499 28.0
107.145332 100.0
131.628265 36.0
134.133804 104.0
135.480743 28.0
137.334442 84.0
140.157471 124.0
142.681625 60.0
144.913559 148.0
145.067062 80.0
147.008194 44.0
147.162796 48.0
153.113998 80.0
154.093597 116.0
156.10199 48.0
158.572556 32.0
158.701019 116.0
161.686035 40.0
161.864395 32.0
162.708893 60.0
164.739761 144.0
165.042618 120.0
165.444122 44.0
166.100677 56.0
166.158188 132.0
166.223923 36.0
167.086258 260.0
168.07341 160.0
168.748199 44.0
169.00499 76.0
169.064545 344.0
169.378098 36.0
171.067703 48.0
171.133026 104.0
171.316528 36.0
171.675476 48.0
172.12677 108.0
173.132797 444.0
173.391876 48.0
173.719376 72.0
175.572617 28.0
177.068008 108.0
178.047546 68.0
178.115601 44.0
179.12085 36.0
179.590363 36.0
180.120377 112.0
180.291519 24.0
181.09877 748.0
181.448822 40.0
182.093369 120.0
182.2052 32.0
183.118073 428.0
183.5672 44.0
184.11409 260.0
184.940781 48.0
185.099915 1136.0
185.558929 120.0
185.854279 48.0
186.093628 1020.0
186.219437 40.0
186.419556 48.0
186.497894 44.0
187.079178 116.0
187.305649 104.0
187.552689 40.0
188.531677 40.0
189.381607 92.0
189.855591 36.0
190.928635 44.0
191.1577 76.0
191.951706 32.0
192.031189 24.0
192.68541 56.0
193.108627 200.0
194.130371 60.0
194.352463 44.0
194.921616 40.0
195.101059 212.0
195.331207 32.0
195.732315 152.0
195.910706 36.0
196.070343 392.0
197.099136 64.0
198.128433 348.0
198.461731 40.0
198.596451 144.0
198.749191 32.0
199.110306 240.0
200.144089 180.0
200.478333 28.0
200.920822 28.0
201.129776 928.0
201.4814 52.0
202.123199 540.0
203.113327 72.0
204.094131 92.0
204.916046 52.0
205.071198 24.0
205.388535 112.0
206.094513 404.0
206.992615 28.0
207.095886 108.0
208.091965 84.0
208.471756 36.0
209.094437 836.0
209.836121 48.0
209.956177 44.0
210.030075 32.0
210.111832 292.0
210.307297 32.0
210.57547 36.0
210.991913 40.0
211.113556 444.0
211.213272 40.0
211.575638 32.0
211.659103 96.0
212.107117 1256.0
212.559601 100.0
213.114182 264.0
213.611053 148.0
213.704224 48.0
214.110825 124.0
215.048187 32.0
215.403549 36.0
215.796646 32.0
217.100204 92.0
217.532455 88.0
218.157791 132.0
218.709229 28.0
218.935532 36.0
219.134888 92.0
219.217545 220.0
219.47348 28.0
219.605698 36.0
219.832474 32.0
220.175858 88.0
220.702835 52.0
220.949112 32.0
221.131882 220.0
221.593887 76.0
221.869156 36.0
222.129074 492.0
222.382172 96.0
222.610367 28.0
222.791107 36.0
222.886261 32.0
222.98143 28.0
223.119156 312.0
223.705429 40.0
223.886612 48.0
223.953384 36.0
224.10585 852.0
224.242615 7396.0
224.3936 64.0
224.464294 68.0
224.598587 68.0
224.8293 104.0
224.927444 24.0
225.114746 104.0
225.246597 872.0
225.564941 44.0
225.654587 40.0
226.121719 700.0
226.191132 132.0
226.402084 24.0
226.536392 32.0
226.805099 36.0
227.117523 212.0
227.496811 36.0
227.875153 48.0
227.99704 28.0
228.138718 2476.0
228.411102 44.0
228.526733 24.0
228.815903 32.0
229.134796 316.0
229.473969 40.0
229.607254 36.0
229.848785 32.0
230.118088 720.0
230.341919 80.0
231.139481 76.0
231.281296 28.0
232.164291 32.0
232.251724 24.0
232.494644 32.0
233.100342 188.0
233.409164 100.0
234.100113 308.0
234.891785 96.0
235.120697 372.0
235.272949 60.0
235.948074 32.0
236.108612 116.0
236.243576 420.0
236.820312 28.0
236.898804 36.0
236.977295 28.0
237.128738 248.0
237.234787 96.0
237.362411 52.0
237.662552 148.0
237.975037 64.0
238.054962 40.0
238.156189 2660.0
238.402283 36.0
238.510559 88.0
238.648392 64.0
238.915176 48.0
238.960983 40.0
239.142838 3596.0
239.417099 32.0
239.631668 48.0
239.85675 36.0
239.97963 40.0
240.140015 996.0
241.007706 48.0
241.124451 1332.0
241.26506 28.0
241.343369 44.0
241.532471 36.0
241.671188 28.0
241.899155 28.0
241.998306 32.0
242.125717 808.0
242.64328 72.0
242.941254 40.0
243.140656 772.0
243.249359 24.0
243.547699 24.0
243.690979 80.0
243.955734 108.0
244.129837 1156.0
244.374069 72.0
244.683075 28.0
244.852615 32.0
245.15567 300.0
245.371567 24.0
245.931046 32.0
246.131012 28.0
247.215759 252.0
247.412735 32.0
247.613312 32.0
248.082581 128.0
248.11795 84.0
248.139664 208.0
248.215515 116.0
248.707855 60.0
248.919006 116.0
249.12883 180.0
249.227844 408.0
249.371765 24.0
249.623489 76.0
249.764511 28.0
250.123581 412.0
250.212784 92.0
250.765869 40.0
250.924362 44.0
251.116623 4460.0
251.409271 28.0
251.510361 68.0
251.722687 32.0
251.867676 92.0
251.930359 68.0
252.10347 3668.0
252.375427 32.0
252.502029 32.0
252.626129 32.0
252.812332 32.0
252.926498 36.0
253.107727 1096.0
253.281311 32.0
253.39418 36.0
253.46521 28.0
254.162903 228.0
254.252151 2408.0
254.348892 40.0
254.521744 28.0
254.623459 28.0
254.704834 64.0
254.802505 40.0
254.918518 36.0
255.141541 456.0
255.251556 324.0
255.723175 44.0
255.941925 44.0
256.135925 400.0
256.620972 52.0
256.80481 28.0
257.145172 104.0
257.274933 40.0
257.827332 120.0
258.052582 28.0
258.154968 76.0
258.903168 28.0
259.385468 44.0
259.477875 32.0
259.920624 40.0
260.095001 60.0
260.219177 3316.0
260.392548 24.0
260.526276 52.0
260.690918 32.0
260.822449 36.0
261.082153 64.0
261.221161 696.0
261.374084 96.0
261.545868 28.0
261.836639 40.0
262.221008 968.0
262.515808 28.0
262.743073 40.0
262.877411 32.0
262.970428 32.0
263.119354 148.0
263.218201 336.0
263.373718 44.0
263.518585 64.0
263.665344 44.0
264.026886 40.0
264.14267 228.0
264.235474 500.0
264.398865 40.0
264.564728 36.0
264.637299 56.0
264.98999 52.0
265.172668 120.0
265.194702 116.0
265.233185 204.0
265.311768 36.0
265.415619 36.0
265.51947 24.0
265.666199 32.0
265.883148 28.0
266.153992 4892.0
266.43042 32.0
266.652863 64.0
266.809021 28.0
267.038116 32.0
267.140472 3484.0
267.249542 192.0
267.37677 72.0
267.559204 36.0
267.662323 36.0
267.693481 32.0
267.799805 68.0
267.928619 48.0
268.141266 512.0
268.465485 128.0
268.742218 48.0
268.850037 76.0
269.018585 84.0
269.127197 17892.0
269.286133 68.0
269.447693 32.0
269.51886 60.0
269.592804 40.0
269.737152 44.0
269.821381 24.0
269.965729 28.0
270.13446 1800.0
270.339935 192.0
270.4133 48.0
270.578949 80.0
270.765137 36.0
271.00061 32.0
271.133545 240.0
271.347015 44.0
271.630615 40.0
271.788208 48.0
271.935364 32.0
272.134186 52.0
272.215393 368.0
272.619049 40.0
272.711426 36.0
273.159607 516.0
273.303589 36.0
273.588196 64.0
273.73465 36.0
273.957336 36.0
274.164307 248.0
274.555054 84.0
274.664703 32.0
274.992279 32.0
275.182587 172.0
275.726685 32.0
275.965637 28.0
276.153564 156.0
276.771027 32.0
277.010223 44.0
277.132477 152.0
277.556335 32.0
277.811279 28.0
278.129486 184.0
278.286499 96.0
278.385284 32.0
278.75766 44.0
278.938629 52.0
279.118317 172.0
279.679016 40.0
279.940277 28.0
280.125458 120.0
280.262939 148.0
280.516479 36.0
280.644623 44.0
280.975769 32.0
281.128632 244.0
281.595825 36.0
281.681396 36.0
281.895416 64.0
282.075623 100.0
282.162842 112.0
282.249908 380.0
282.649536 48.0
282.773712 48.0
282.93988 32.0
283.157684 728.0
283.721008 84.0
283.811737 48.0
284.04834 36.0
284.159149 3984.0
284.28244 92.0
284.448364 48.0
284.551331 44.0
284.745148 80.0
284.878571 32.0
285.00769 152.0
285.158905 2180.0
285.395233 44.0
285.680084 40.0
285.750702 156.0
285.847687 24.0
285.952271 108.0
286.15506 152.0
286.239838 64.0
286.38681 48.0
286.663757 36.0
286.807678 24.0
287.169098 196.0
287.272064 180.0
287.412537 28.0
288.138123 80.0
288.266907 44.0
288.559174 44.0
288.71701 56.0
289.151581 100.0
289.24176 24.0
289.469482 44.0
289.610474 96.0
289.892609 100.0
290.114929 108.0
290.22702 420.0
290.859344 28.0
291.143738 104.0
291.296722 128.0
291.533752 56.0
292.034637 28.0
292.135712 260.0
292.255432 116.0
292.699493 40.0
292.863098 40.0
293.163696 236.0
293.769226 44.0
293.878479 40.0
294.14975 724.0
294.315765 48.0
294.632996 28.0
294.906586 32.0
295.146362 440.0
295.399384 32.0
295.563751 40.0
295.848755 36.0
296.136627 196.0
296.273254 76.0
297.14093 504.0
297.990631 44.0
298.163574 196.0
298.430939 44.0
298.519043 40.0
298.91568 32.0
299.144409 16.0
299.273529 176.0
299.651764 96.0
299.773163 48.0
300.029816 88.0
300.173981 132.0
300.754974 44.0
300.962555 40.0
301.057556 36.0
301.155975 4276.0
301.323059 28.0
301.433716 32.0
301.615662 64.0
301.891113 64.0
302.165802 476.0
302.796509 52.0
303.163666 312.0
303.762299 44.0
303.995667 80.0
304.165985 104.0
304.295807 80.0
304.618378 96.0
304.763 44.0
305.012848 36.0
305.141327 176.0
305.297394 68.0
305.54248 128.0
305.727478 100.0
306.142609 344.0
306.28949 156.0
306.606293 56.0
307.144562 196.0
307.273773 100.0
307.573761 28.0
307.94278 48.0
308.127472 184.0
308.233704 28.0
308.51355 28.0
308.659119 36.0
309.138641 168.0
309.25296 128.0
309.510834 24.0
309.735168 28.0
310.176361 128.0
310.846802 36.0
311.173462 2480.0
311.441498 40.0
311.57251 32.0
311.687439 128.0
311.802826 40.0
312.167908 424.0
312.354614 24.0
312.861786 32.0
313.022583 68.0
313.152802 1768.0
313.500366 92.0
313.640228 40.0
313.820892 36.0
313.990295 68.0
314.162262 420.0
314.47995 144.0
314.838013 108.0
314.939819 40.0
315.041656 40.0
315.162354 400.0
315.618927 48.0
315.961029 40.0
316.176117 112.0
316.238525 88.0
316.514221 24.0
316.612396 152.0
316.741058 36.0
317.126923 100.0
318.182068 228.0
318.290375 88.0
318.729523 24.0
318.809174 32.0
318.923004 28.0
319.179138 232.0
319.293274 192.0
319.595001 60.0
319.686188 24.0
319.829285 72.0
320.172424 236.0
320.30661 88.0
320.438843 24.0
320.621429 28.0
321.134827 416.0
321.292908 1612.0
321.695251 44.0
321.866791 32.0
322.15506 132.0
322.289734 240.0
322.700195 136.0
323.174652 924.0
323.332275 96.0
323.607422 32.0
323.88269 40.0
324.163849 408.0
324.490997 40.0
324.582855 68.0
324.709198 68.0
324.915985 24.0
325.172913 308.0
325.306763 76.0
326.152283 172.0
326.296265 40.0
326.434479 36.0
327.174896 364.0
328.226685 288.0
328.383759 36.0
328.814453 64.0
328.952911 40.0
329.183929 4416.0
329.531616 28.0
329.708649 172.0
329.84082 40.0
330.188538 900.0
330.463715 36.0
330.771484 36.0
330.982147 56.0
331.238831 108.0
331.397369 96.0
331.556458 32.0
331.637695 44.0
331.788635 24.0
331.997681 36.0
332.193115 564.0
332.613525 40.0
332.939117 44.0
333.170532 256.0
333.296204 432.0
333.649017 56.0
333.835327 32.0
333.931152 124.0
334.033356 32.0
334.155029 328.0
334.275665 176.0
335.137146 1340.0
335.30365 576.0
335.437714 116.0
335.56131 36.0
335.689758 24.0
335.92337 36.0
336.156586 168.0
336.293335 904.0
336.987396 24.0
337.292023 540.0
337.941406 96.0
338.156952 324.0
338.285339 96.0
338.425537 52.0
338.674561 44.0
338.979645 40.0
339.170776 1028.0
339.389252 36.0
339.496216 64.0
339.801666 72.0
340.194977 180.0
340.288208 144.0
340.448242 32.0
340.967163 36.0
341.182892 420.0
341.48407 44.0
341.871979 52.0
341.974579 40.0
342.172455 672.0
342.450684 40.0
342.608337 44.0
342.87912 108.0
343.192841 188.0
343.914978 92.0
344.136108 108.0
344.185059 76.0
345.114258 192.0
345.238434 92.0
345.856415 24.0
346.214325 536.0
346.854919 24.0
347.202057 232.0
347.506165 128.0
348.133087 60.0
348.297302 52.0
349.118927 104.0
349.199982 164.0
349.287933 568.0
349.421967 40.0
349.634888 68.0
349.786102 80.0
349.870544 52.0
350.093536 48.0
350.180511 468.0
350.410187 64.0
350.536835 196.0
350.861298 88.0
351.06485 208.0
351.170776 1228.0
351.304535 41932.0
351.451782 68.0
351.530182 168.0
351.679291 116.0
351.85965 232.0
351.947906 120.0
352.166687 1656.0
352.306885 8092.0
352.547485 100.0
352.685059 104.0
352.834625 108.0
352.956665 40.0
353.166687 508.0
353.316864 4072.0
353.480042 24.0
353.736786 32.0
353.970581 72.0
354.182892 428.0
354.319794 616.0
354.430969 56.0
354.510498 64.0
354.696533 28.0
354.81662 32.0
355.008759 36.0
355.206665 512.0
355.597504 24.0
355.786713 68.0
355.92215 32.0
356.023132 40.0
356.198456 1324.0
356.595917 96.0
357.263489 532.0
357.605469 84.0
357.793365 152.0
358.039307 76.0
358.208954 392.0
358.560699 32.0
358.850464 92.0
358.959137 72.0
359.270203 480.0
359.466553 80.0
359.635773 32.0
360.17865 72.0
360.373566 32.0
360.568054 116.0
360.75415 56.0
360.918335 64.0
361.171814 276.0
361.291595 604.0
361.621063 40.0
361.705902 28.0
361.83017 32.0
361.984802 120.0
362.151184 400.0
362.282318 128.0
362.700714 28.0
362.822113 44.0
362.994629 128.0
363.16217 112.0
363.30127 4316.0
363.667145 36.0
363.75531 84.0
364.061646 44.0
364.172455 100.0
364.303802 1324.0
364.591553 80.0
364.889191 32.0
365.220551 780.0
365.473907 52.0
365.571411 32.0
365.796906 32.0
365.959747 28.0
366.215179 396.0
366.510468 24.0
366.595917 32.0
366.754578 48.0
366.894135 28.0
367.192474 920.0
367.398499 52.0
367.635406 36.0
368.040558 32.0
368.195068 5424.0
368.560974 120.0
368.670624 48.0
368.743439 88.0
368.906281 36.0
369.019928 128.0
369.195435 1392.0
369.530945 32.0
369.653503 156.0
369.828522 104.0
369.935455 36.0
370.182037 476.0
370.427032 48.0
370.536438 48.0
370.634613 44.0
370.752472 60.0
371.039703 36.0
371.182404 180.0
371.269958 408.0
371.467529 24.0
371.633026 72.0
371.844391 80.0
372.261047 1456.0
372.613068 40.0
372.885162 36.0
373.257599 364.0
373.863525 52.0
374.103424 32.0
374.264252 660.0
374.44873 52.0
374.652283 96.0
374.846924 44.0
374.991669 24.0
375.122986 68.0
375.210938 164.0
375.283478 140.0
375.670898 44.0
375.774963 104.0
376.189972 80.0
376.83316 24.0
377.006439 44.0
377.179962 220.0
377.307129 96.0
377.687469 36.0
377.873322 68.0
377.967804 64.0
378.17688 876.0
378.309509 236.0
378.406342 84.0
378.517944 72.0
378.661346 64.0
378.793121 176.0
378.96228 48.0
379.172577 1104.0
379.29715 4624.0
379.667023 124.0
379.848602 120.0
380.006287 144.0
380.161621 1704.0
380.303314 1164.0
380.595795 44.0
380.779816 36.0
381.170105 756.0
381.307281 280.0
381.431549 100.0
381.677063 40.0
381.911224 28.0
382.208313 460.0
382.315338 228.0
382.445007 24.0
382.746338 44.0
382.908478 88.0
383.062958 64.0
383.207184 728.0
383.386078 52.0
383.494965 88.0
383.784912 36.0
384.056915 76.0
384.193756 392.0
384.469269 24.0
384.644287 24.0
384.85434 40.0
385.228333 312.0
385.357208 64.0
385.413513 188.0
385.709229 56.0
385.99469 108.0
386.203796 1396.0
386.499908 32.0
386.637268 76.0
386.843842 124.0
386.930817 32.0
387.103088 152.0
387.280457 18796.0
387.588318 80.0
387.686493 92.0
387.89386 84.0
387.96283 32.0
388.014618 64.0
388.282867 2996.0
388.508057 36.0
388.737396 168.0
388.925171 76.0
389.011749 64.0
389.110107 184.0
389.280884 6528.0
389.504974 76.0
389.677429 28.0
389.812286 84.0
389.954529 40.0
390.023132 72.0
390.09552 56.0
390.286255 1140.0
390.70636 28.0
390.857574 24.0
390.972687 40.0
391.168518 268.0
391.296326 1860.0
391.487946 28.0
391.778107 40.0
391.914795 48.0
392.034668 144.0
392.187531 172.0
392.297943 516.0
392.49762 44.0
392.611298 92.0
392.996063 52.0
393.217804 388.0
393.533875 52.0
393.63504 28.0
393.752777 104.0
394.209839 1868.0
394.488495 108.0
394.850098 64.0
395.024933 44.0
395.194244 8344.0
395.505219 40.0
395.529327 40.0
395.582275 36.0
395.740173 80.0
395.838715 36.0
396.054352 32.0
396.19693 1480.0
396.315338 136.0
396.513306 96.0
396.663513 116.0
396.756836 44.0
396.92218 148.0
397.185089 12220.0
397.415039 112.0
397.641663 124.0
397.865143 76.0
397.998657 28.0
398.187012 2000.0
398.5065 48.0
398.636597 84.0
398.897278 40.0
399.00296 28.0
399.27356 3404.0
399.499695 56.0
399.717224 56.0
399.80838 36.0
399.990662 52.0
400.255859 1912.0
400.443085 60.0
400.581482 92.0
400.714203 44.0
400.850525 36.0
400.990295 44.0
401.262878 760.0
401.579163 32.0
401.82193 52.0
401.919067 44.0
402.026398 88.0
402.269379 752.0
402.435486 40.0
402.785645 32.0
403.235016 176.0
403.715302 24.0
403.95401 44.0
404.101471 56.0
404.244995 128.0
404.458496 48.0
405.208344 276.0
405.346313 56.0
405.638794 44.0
406.204468 448.0
406.409454 28.0
406.786743 80.0
406.936523 52.0
407.199097 604.0
407.315125 256.0
407.515381 52.0
408.186096 204.0
408.336639 212.0
408.519714 24.0
408.777435 32.0
408.945007 40.0
409.048126 24.0
409.192078 372.0
409.311615 196.0
409.541962 96.0
409.730286 36.0
410.2005 444.0
410.506256 36.0
410.674164 128.0
410.829651 156.0
410.971344 44.0
411.202118 980.0
411.518555 36.0
411.690216 112.0
411.827576 36.0
411.976685 32.0
412.204315 3416.0
412.644348 60.0
412.74057 64.0
412.855652 68.0
412.957367 64.0
413.012421 32.0
413.05127 32.0
413.214111 2420.0
413.460297 64.0
413.580292 48.0
413.6828 52.0
413.934326 32.0
414.008453 68.0
414.207184 304.0
414.377014 144.0
414.545746 24.0
414.644958 56.0
415.005554 52.0
415.272552 6268.0
415.539185 48.0
415.749329 44.0
415.90506 68.0
416.055511 72.0
416.277618 2212.0
416.49295 28.0
416.598907 52.0
416.743652 128.0
416.976318 32.0
417.077393 68.0
417.280121 1504.0
417.622314 44.0
417.839569 60.0
418.280151 344.0
418.475891 40.0
418.567169 36.0
418.755341 40.0
419.298279 88.0
419.440094 32.0
419.570648 28.0
419.67511 28.0
420.001648 52.0
420.327698 328.0
420.472076 28.0
420.65509 72.0
420.995087 40.0
421.213989 208.0
421.338074 164.0
421.538971 56.0
421.949554 60.0
422.191101 140.0
422.243347 76.0
422.28183 164.0
422.579163 56.0
423.118042 36.0
423.225647 1024.0
423.772461 24.0
423.945984 36.0
424.220642 1180.0
424.745514 36.0
424.901733 28.0
425.075287 116.0
425.265991 1356.0
425.59845 36.0
425.756256 28.0
425.977264 40.0
426.282959 604.0
426.51947 36.0
426.769653 48.0
427.105988 56.0
427.270508 1628.0
427.541901 52.0
427.683136 36.0
427.882416 76.0
428.001129 160.0
428.240814 316.0
428.417328 40.0
428.609741 48.0
428.819214 44.0
429.091522 56.0
429.212891 6384.0
429.414062 24.0
429.460297 40.0
429.522583 56.0
429.572113 76.0
429.663422 56.0
429.817963 128.0
430.015289 76.0
430.217621 1012.0
430.47229 36.0
430.563538 28.0
430.663269 36.0
430.769104 32.0
430.874939 36.0
431.011658 36.0
431.282593 528.0
431.748688 40.0
431.867889 36.0
432.025421 36.0
432.297974 664.0
432.586853 80.0
432.822235 104.0
433.225464 184.0
433.349945 216.0
433.73114 28.0
434.085327 68.0
434.207794 756.0
434.311554 220.0
434.468231 32.0
434.61441 40.0
434.766327 32.0
434.893524 32.0
435.013184 32.0
435.199951 580.0
435.824554 36.0
435.93103 44.0
436.065796 32.0
436.193726 460.0
436.363678 80.0
437.205444 164.0
437.863007 32.0
438.023102 28.0
438.264038 328.0
438.535217 64.0
438.663696 28.0
438.797241 40.0
438.916626 40.0
439.024261 24.0
439.240753 196.0
439.505219 68.0
439.785889 32.0
440.013184 32.0
440.226837 436.0
440.724396 48.0
440.882751 56.0
440.976471 32.0
441.089783 32.0
441.242065 720.0
441.445099 136.0
441.870544 112.0
441.96759 24.0
442.266113 248.0
442.377777 108.0
442.544037 32.0
442.785431 40.0
442.969116 116.0
443.101807 28.0
443.305359 452.0
443.577179 28.0
443.859161 28.0
443.966614 64.0
444.192505 112.0
444.30719 1488.0
444.477142 60.0
444.618896 44.0
444.928528 60.0
445.095581 96.0
445.305084 460.0
445.875916 84.0
446.324219 536.0
446.568451 168.0
446.872528 116.0
447.324402 456.0
447.802826 40.0
447.951904 40.0
448.202698 52.0
448.31488 620.0
448.626038 92.0
448.855591 24.0
449.220306 56.0
449.460846 160.0
449.634064 52.0
449.747375 52.0
449.84201 36.0
450.012146 36.0
450.245331 396.0
450.368866 7244.0
450.687927 52.0
450.800964 36.0
450.906036 60.0
451.231415 3260.0
451.371826 1584.0
451.649109 48.0
451.73877 84.0
451.912964 40.0
452.220551 4092.0
452.363098 304.0
452.607727 48.0
452.78064 44.0
452.938904 36.0
453.273224 1392.0
453.483215 36.0
453.622009 36.0
453.90567 36.0
454.286774 884.0
454.635406 40.0
454.986542 56.0
455.284698 812.0
455.413513 68.0
455.60849 204.0
455.756042 24.0
455.905762 28.0
456.001038 112.0
456.29184 2440.0
456.660614 36.0
456.913513 32.0
457.252045 1828.0
457.764771 36.0
457.936005 32.0
458.090088 68.0
458.290863 628.0
458.467896 160.0
458.887817 60.0
459.055267 44.0
459.303131 432.0
459.47876 36.0
459.806763 40.0
459.916107 100.0
460.093842 32.0
460.354034 1284.0
460.494568 40.0
460.695648 40.0
460.818817 24.0
460.941986 36.0
461.0466 36.0
461.210449 144.0
461.352631 356.0
461.571747 36.0
461.775787 40.0
461.967255 32.0
462.10257 44.0
462.209961 384.0
462.337524 456.0
462.853882 40.0
463.024567 36.0
463.201813 128.0
463.350983 80.0
463.555756 56.0
463.765564 40.0
463.89978 36.0
463.945923 88.0
464.08136 28.0
464.239807 168.0
464.35025 4480.0
464.570374 40.0
464.725311 72.0
464.928589 48.0
465.34903 1612.0
465.555786 28.0
465.840759 44.0
466.033386 32.0
466.270538 292.0
466.649078 44.0
466.86441 44.0
466.919098 40.0
466.959015 28.0
467.019226 60.0
467.070404 88.0
467.266724 1180.0
467.424286 32.0
467.579346 32.0
467.870636 84.0
467.975739 32.0
468.284637 468.0
468.538055 120.0
468.665466 44.0
468.843536 80.0
468.968323 36.0
469.076263 184.0
469.242767 8152.0
469.444427 76.0
469.60434 68.0
469.770111 64.0
470.041901 24.0
470.255493 1076.0
470.798096 96.0
470.986725 104.0
471.292145 424.0
471.498749 36.0
471.73407 76.0
471.88974 148.0
472.015869 48.0
472.319214 304.0
472.465057 36.0
472.640106 68.0
472.865448 84.0
473.268982 420.0
473.591125 28.0
473.725525 132.0
473.938019 24.0
474.324707 1360.0
474.798798 108.0
475.12793 104.0
475.337952 464.0
475.604767 192.0
475.896729 28.0
476.021912 32.0
476.266724 60.0
476.359375 100.0
476.508789 116.0
476.606201 28.0
476.870667 48.0
477.279968 68.0
477.312714 32.0
477.351013 48.0
477.915253 56.0
478.233917 244.0
478.362152 1484.0
478.519287 36.0
478.682007 28.0
478.807526 28.0
479.058655 36.0
479.222534 1284.0
479.361664 940.0
480.081512 44.0
480.116089 48.0
480.227234 288.0
480.328186 152.0
480.474091 40.0
480.636536 80.0
480.860168 32.0
481.097809 48.0
481.289429 432.0
481.629272 32.0
481.74646 32.0
481.867126 32.0
482.091034 36.0
482.305939 600.0
482.445648 24.0
482.923462 44.0
483.029236 28.0
483.264313 1656.0
483.491669 24.0
483.659882 64.0
483.81723 32.0
484.070465 92.0
484.293152 804.0
484.682556 44.0
484.888 44.0
485.281647 1648.0
485.50882 80.0
485.742523 44.0
485.883362 228.0
485.988312 64.0
486.129456 124.0
486.346497 9692.0
486.559906 60.0
486.770752 44.0
486.930084 32.0
487.14682 128.0
487.341278 2612.0
487.48761 56.0
487.665314 32.0
487.758484 124.0
487.858124 148.0
488.018738 52.0
488.166107 52.0
488.346466 5272.0
488.687469 40.0
488.955261 40.0
489.12085 72.0
489.35849 704.0
489.559845 104.0
489.735046 24.0
489.876129 48.0
489.974915 40.0
490.235992 180.0
490.350769 308.0
490.845123 56.0
491.238586 248.0
491.355164 96.0
491.938202 32.0
492.245148 268.0
492.340881 1192.0
492.523346 32.0
492.645355 88.0
492.896423 156.0
493.101044 20.0
493.24588 348.0
493.494659 40.0
493.650421 88.0
493.792084 52.0
493.905396 24.0
494.076355 96.0
494.261078 316.0
494.492554 52.0
494.77771 44.0
494.933014 140.0
495.261292 1660.0
495.389923 956.0
495.672668 92.0
495.75882 64.0
495.954285 100.0
496.119141 44.0
496.276733 1888.0
496.506622 52.0
496.652252 64.0
496.785431 168.0
496.945282 32.0
497.080444 80.0
497.263519 1836.0
497.644714 88.0
497.858704 64.0
498.033691 40.0
498.091644 32.0
498.315674 2320.0
498.691132 52.0
498.826355 44.0
498.925354 76.0
499.329285 1076.0
499.819794 108.0
500.071777 44.0
500.322723 4188.0
500.540558 40.0
500.57016 32.0
500.632172 36.0
500.914276 36.0
501.074799 16.0
501.278198 3140.0
501.556488 36.0
501.742096 60.0
501.992004 40.0
502.032349 136.0
502.315369 852.0
502.564911 140.0
502.742096 112.0
502.91803 52.0
503.332428 548.0
503.832642 124.0
504.325165 236.0
504.601898 64.0
504.885925 24.0
505.044434 40.0
505.27597 128.0
505.43277 36.0
505.590424 56.0
505.985657 32.0
506.093658 40.0
506.298431 264.0
506.551208 84.0
506.772644 52.0
507.02475 60.0
507.250183 340.0
507.382751 128.0
507.613434 24.0
507.91507 36.0
508.265991 540.0
508.465576 80.0
508.633636 36.0
508.849304 36.0
509.256561 112.0
509.679718 44.0
509.826721 64.0
510.30896 1208.0
510.537537 52.0
510.691528 128.0
510.792389 76.0
511.008514 32.0
511.262512 1388.0
511.904114 32.0
512.104248 28.0
512.27655 680.0
512.630005 36.0
512.733948 64.0
513.065186 48.0
513.282043 400.0
513.56665 116.0
513.801086 36.0
514.042664 48.0
514.337708 5420.0
514.706543 72.0
514.909485 124.0
515.02771 96.0
515.336182 4776.0
515.52301 64.0
515.745117 36.0
515.897339 68.0
516.337585 3832.0
516.672791 56.0
516.885803 40.0
517.339355 1884.0
517.658569 92.0
517.807861 68.0
518.068665 104.0
518.235229 1252.0
518.342834 612.0
518.716248 36.0
518.950195 192.0
519.236084 236.0
519.363708 328.0
519.668701 60.0
519.836365 36.0
520.129517 48.0
520.242554 144.0
520.348022 156.0
520.534241 160.0
520.737854 40.0
520.891113 60.0
521.266846 284.0
521.765686 64.0
521.968323 52.0
522.01416 36.0
522.052246 80.0
522.278625 388.0
522.809448 44.0
522.922119 24.0
523.053284 64.0
523.262817 312.0
523.617798 152.0
523.793091 76.0
523.893372 36.0
524.098389 92.0
524.325623 12708.0
524.49646 84.0
524.671204 148.0
524.807922 180.0
524.936951 88.0
525.068665 84.0
525.133423 52.0
525.331238 4128.0
525.522095 44.0
525.668274 56.0
525.899292 48.0
526.323608 3556.0
526.495056 132.0
526.689148 60.0
526.935608 124.0
527.331055 1324.0
527.595886 204.0
527.852783 80.0
528.01123 44.0
528.283569 4356.0
528.575195 52.0
528.789978 40.0
528.998474 76.0
529.136414 76.0
529.284912 768.0
529.75354 64.0
529.90979 32.0
530.318848 400.0
530.837952 44.0
531.001038 40.0
531.368835 1584.0
531.570679 32.0
531.676575 124.0
531.984131 64.0
532.362549 860.0
532.541138 32.0
532.675415 28.0
532.83905 32.0
533.013855 24.0
533.381104 648.0
533.886963 96.0
534.267273 2184.0
534.388184 408.0
534.657898 32.0
534.787659 56.0
534.943481 56.0
535.060547 140.0
535.252991 7340.0
535.588928 68.0
535.63324 52.0
535.692505 56.0
535.924377 144.0
536.031372 68.0
536.254883 2096.0
536.575745 32.0
536.738831 48.0
536.891418 44.0
537.024353 24.0
537.34729 516.0
537.572083 108.0
537.708984 36.0
537.913208 28.0
538.314148 404.0
538.574402 28.0
538.906006 32.0
539.094421 96.0
539.281799 996.0
539.558594 56.0
539.775513 72.0
539.951599 72.0
540.277344 728.0
540.545898 32.0
541.293213 296.0
541.83606 28.0
542.329163 292.0
542.917603 28.0
543.018921 172.0
543.355896 1332.0
543.588379 168.0
543.860535 32.0
543.920288 52.0
544.052917 76.0
544.374634 320.0
544.502563 164.0
544.621765 36.0
544.792847 84.0
545.358459 528.0
545.790161 32.0
546.372986 180.0
546.57135 84.0
547.082825 48.0
547.386597 440.0
547.519043 32.0
547.771118 40.0
547.9422 56.0
548.326721 604.0
548.510376 48.0
548.638306 44.0
548.835205 192.0
549.071411 28.0
549.269226 564.0
549.669067 60.0
549.798279 96.0
550.081604 40.0
550.282715 416.0
550.773682 32.0
550.818237 28.0
550.867432 36.0
551.360596 312.0
551.65564 128.0
551.801392 72.0
552.010437 96.0
552.088318 40.0
552.143066 124.0
552.280334 9856.0
552.63092 104.0
552.919495 188.0
553.0271 44.0
553.287781 2276.0
553.679443 28.0
553.804993 36.0
553.872864 40.0
553.921631 40.0
554.321228 1076.0
554.592651 152.0
554.840149 72.0
554.998352 120.0
555.361755 2764.0
555.562683 132.0
555.801575 80.0
556.077454 36.0
556.346191 892.0
556.655518 44.0
557.044678 48.0
557.354431 1316.0
557.766846 28.0
557.959473 80.0
558.365356 216.0
558.5401 52.0
558.808289 68.0
559.004211 32.0
559.362732 136.0
559.577026 24.0
559.727844 24.0
560.130249 108.0
560.285278 112.0
560.420715 124.0
560.822205 76.0
561.049438 148.0
561.174072 112.0
561.403137 17232.0
561.735474 60.0
561.956787 112.0
562.062866 44.0
562.265564 644.0
562.406189 4864.0
562.616821 96.0
562.773376 36.0
562.867371 136.0
563.007935 92.0
563.254883 292.0
563.405823 996.0
563.585815 32.0
563.713196 100.0
563.828247 92.0
563.919189 60.0
564.120056 36.0
564.24762 136.0
564.49231 32.0
564.522095 128.0
564.719116 72.0
564.852051 44.0
565.361145 368.0
565.564331 48.0
565.785095 164.0
565.954407 44.0
566.164978 72.0
566.329956 2848.0
566.537964 40.0
566.817993 60.0
567.058533 32.0
567.313477 792.0
567.53479 60.0
567.855774 24.0
568.024841 60.0
568.319092 708.0
568.554749 24.0
568.832947 40.0
569.379456 1152.0
569.814758 80.0
570.045288 32.0
570.380371 656.0
570.64917 36.0
570.933777 36.0
571.379089 1220.0
571.674927 28.0
571.796875 32.0
571.979797 60.0
572.382629 688.0
572.696533 88.0
572.833862 24.0
573.048828 44.0
573.395691 348.0
573.79541 24.0
574.387634 248.0
575.099182 72.0
575.381714 172.0
575.50592 104.0
575.766907 40.0
575.889282 36.0
576.312439 220.0
577.327698 196.0
577.680969 120.0
578.289917 176.0
578.429443 632.0
578.633545 44.0
578.781799 52.0
578.906799 68.0
579.034607 36.0
579.352661 1664.0
579.735291 36.0
579.871521 32.0
579.97583 40.0
580.278687 2728.0
580.693726 48.0
580.943848 40.0
581.078247 36.0
581.355835 480.0
581.587341 56.0
581.729492 44.0
581.936035 32.0
582.353882 352.0
582.593628 24.0
582.711609 40.0
583.049194 20.0
583.174622 48.0
583.361389 2024.0
583.660522 72.0
583.802917 40.0
583.974976 52.0
584.175293 44.0
584.311768 5192.0
584.734253 48.0
584.838318 32.0
585.326843 1044.0
585.782898 24.0
585.902771 80.0
586.085938 44.0
586.349609 400.0
586.662659 44.0
586.770752 68.0
587.203186 136.0
587.396484 408.0
587.573975 72.0
588.1922 64.0
588.388489 128.0
589.011841 48.0
589.377136 108.0
589.692749 32.0
589.894043 36.0
590.250671 128.0
590.411072 284.0
590.648132 116.0
591.355286 232.0
591.567322 92.0
592.009277 24.0
592.296204 56.0
592.404846 160.0
592.668579 32.0
592.84967 120.0
593.056641 24.0
593.344788 520.0
593.563904 36.0
593.729126 36.0
593.856995 104.0
594.094482 68.0
594.32782 996.0
594.570435 68.0
594.990356 60.0
595.134216 148.0
595.339905 416.0
595.661011 48.0
595.942993 132.0
596.373718 280.0
596.579346 68.0
596.756592 200.0
597.038452 140.0
597.160645 252.0
597.375366 46848.0
597.724731 172.0
597.87146 176.0
598.001038 216.0
598.380127 13752.0
598.717957 204.0
598.929626 112.0
599.148621 176.0
599.37854 15088.0
599.708984 140.0
599.834534 88.0
600.006592 68.0
600.382812 4304.0
600.738647 116.0
600.904175 28.0
601.165649 96.0
601.194092 116.0
601.363831 1340.0
601.587952 44.0
601.66449 44.0
601.802917 52.0
601.998779 64.0
602.100098 68.0
602.369873 388.0
602.743164 44.0
602.850586 68.0
603.002136 32.0
603.169739 92.0
603.376221 316.0
603.55426 60.0
603.716919 100.0
603.949768 140.0
604.154602 68.0
604.366516 220.0
604.579346 52.0
604.721985 136.0
604.924316 84.0
605.147522 76.0
605.272583 44.0
605.56311 92.0
605.904236 112.0
606.388 144.0
606.530823 120.0
606.701965 36.0
606.827576 44.0
607.097595 80.0
607.365845 3096.0
607.576111 196.0
607.873596 48.0
608.175781 60.0
608.373596 1176.0
608.552856 120.0
608.723938 44.0
608.7724 32.0
608.974365 88.0
609.368469 1572.0
609.619934 52.0
610.241516 100.0
610.381042 600.0
610.649414 28.0
610.815491 148.0
611.070679 64.0
611.329346 836.0
611.665833 24.0
611.728516 76.0
611.771484 60.0
611.820618 88.0
612.087646 72.0
612.315002 1524.0
612.571106 72.0
612.881165 44.0
613.054871 40.0
613.163452 104.0
613.354614 788.0
613.718323 44.0
613.830261 80.0
614.018738 64.0
614.17865 52.0
614.407959 5072.0
614.829773 108.0
615.067993 28.0
615.401672 1524.0
615.587158 72.0
615.707947 68.0
615.822327 40.0
616.079407 76.0
616.407043 1316.0
616.801208 36.0
616.893738 60.0
617.004761 60.0
617.40741 1000.0
617.821899 140.0
618.021851 76.0
618.426147 764.0
618.820496 84.0
619.026672 36.0
619.42981 420.0
619.661255 44.0
619.797363 132.0
620.320679 120.0
620.645447 36.0
620.899536 32.0
621.126709 120.0
621.364746 252.0
621.641846 128.0
621.876831 40.0
622.391785 200.0
622.775269 24.0
623.093506 136.0
623.220764 24.0
623.387756 544.0
623.767273 44.0
624.191895 28.0
624.374084 344.0
624.845032 72.0
624.998413 64.0
625.377502 1492.0
625.615784 36.0
626.100525 32.0
626.390076 888.0
626.800903 68.0
626.950134 40.0
627.116638 48.0
627.3797 644.0
628.227661 40.0
628.388977 520.0
628.696167 48.0
628.912842 84.0
629.102295 116.0
629.330505 10392.0
629.744263 56.0
630.034973 112.0
630.335876 2292.0
630.838257 36.0
631.089539 152.0
631.351074 372.0
631.713074 76.0
631.930298 20.0
632.330933 212.0
632.597107 32.0
632.722656 160.0
632.853638 84.0
632.957092 44.0
633.140869 88.0
633.334106 188.0
633.607544 48.0
633.807373 84.0
633.94458 32.0
634.105103 76.0
634.338379 100.0
634.456482 216.0
634.623535 52.0
634.752136 40.0
635.054138 116.0
635.205139 88.0
635.359192 8184.0
635.823792 108.0
635.946472 108.0
636.11676 64.0
636.366333 3852.0
636.852966 80.0
637.029541 152.0
637.360168 2988.0
637.625366 44.0
637.765198 44.0
637.969971 108.0
638.375488 1200.0
638.709595 36.0
638.847961 48.0
639.121033 80.0
639.387085 372.0
639.646179 36.0
639.896973 132.0
640.026001 28.0
640.386597 224.0
640.558289 36.0
640.801575 52.0
641.074646 28.0
641.40509 260.0
641.875732 104.0
642.04248 92.0
642.401672 11504.0
642.867432 56.0
642.995117 40.0
643.170776 140.0
643.401001 4128.0
643.752625 84.0
643.800415 108.0
644.082703 100.0
644.410461 3748.0
644.709778 48.0
645.150024 72.0
645.41864 1036.0
646.134949 44.0
646.290222 372.0
646.406189 452.0
646.606384 24.0
646.860413 24.0
647.010254 44.0
647.102539 124.0
647.275513 204.0
647.398376 132.0
647.608398 156.0
647.815063 68.0
648.03363 32.0
648.385315 276.0
648.764038 80.0
648.919067 44.0
649.373901 584.0
649.640503 100.0
649.850708 40.0
649.888489 36.0
649.999634 132.0
650.361145 176.0
650.697632 44.0
650.854858 36.0
651.374512 720.0
651.599365 156.0
651.896851 28.0
652.068665 44.0
652.138367 36.0
652.169006 64.0
652.40155 440.0
653.033691 60.0
653.412048 1100.0
653.788086 24.0
653.981018 24.0
654.144043 52.0
654.41156 2900.0
654.798584 76.0
654.910522 36.0
655.095398 36.0
655.405884 1352.0
655.765564 32.0
655.948181 80.0
656.254333 124.0
656.416565 1132.0
656.863586 56.0
657.250854 56.0
657.407959 364.0
657.80658 152.0
657.98645 48.0
658.169556 40.0
658.41449 272.0
658.845154 48.0
659.13916 60.0
659.416138 296.0
659.68811 24.0
659.802734 24.0
660.042603 68.0
660.41687 92.0
660.680908 128.0
660.930603 44.0
661.1297 40.0
661.375549 136.0
661.900269 128.0
662.015076 52.0
662.129883 28.0
662.442017 908.0
662.761841 100.0
662.9646 32.0
663.314575 3012.0
663.818665 36.0
664.090332 32.0
664.328857 736.0
664.802673 128.0
665.007324 136.0
665.137878 68.0
665.382385 472.0
665.743408 36.0
665.87915 40.0
666.023071 36.0
666.403015 3424.0
666.772095 100.0
667.062622 36.0
667.40564 1720.0
667.708313 64.0
667.908813 44.0
668.117126 104.0
668.405762 1388.0
668.872131 36.0
669.013611 28.0
669.152405 64.0
669.410461 632.0
670.164673 44.0
670.435181 1740.0
670.637939 84.0
670.833374 64.0
671.06842 36.0
671.434814 504.0
671.710754 56.0
671.873596 28.0
672.043579 64.0
672.436279 1096.0
672.733948 44.0
672.950439 28.0
673.126953 84.0
673.424622 388.0
673.595459 36.0
674.009155 36.0
674.408691 188.0
674.55542 64.0
674.704407 36.0
674.836853 40.0
675.201233 28.0
675.480469 56.0
675.725891 88.0
675.863953 24.0
676.103821 156.0
676.364685 168.0
676.659668 120.0
676.81134 80.0
677.000366 68.0
677.169373 104.0
677.367493 3120.0
677.822693 40.0
678.056213 172.0
678.370911 1384.0
678.716736 100.0
678.866821 24.0
679.014282 32.0
679.128357 124.0
679.367371 1104.0
679.59491 116.0
679.792725 48.0
680.060852 172.0
680.361633 13644.0
680.635132 204.0
680.880127 88.0
681.055908 72.0
681.368896 2952.0
681.796875 180.0
681.992676 192.0
682.412598 3216.0
682.992126 40.0
683.412598 1348.0
683.704285 76.0
684.106628 32.0
684.411194 392.0
684.722961 40.0
684.908142 60.0
685.201721 116.0
685.408264 344.0
685.827087 28.0
686.073853 36.0
686.412537 136.0
686.712158 24.0
687.079712 160.0
687.389526 56.0
687.581116 56.0
687.831848 68.0
687.9823 24.0
688.316772 44.0
688.473511 108.0
688.682312 128.0
689.086304 28.0
689.461975 556.0
689.795532 32.0
689.970093 144.0
690.445435 300.0
690.630798 64.0
690.844421 28.0
690.978455 88.0
691.140259 84.0
691.434814 148.0
691.665649 24.0
691.78302 32.0
692.411743 444.0
692.599182 72.0
692.940369 32.0
693.404053 208.0
693.762817 52.0
693.962585 40.0
694.388489 656.0
694.630615 180.0
694.769836 88.0
694.999146 68.0
695.221497 76.0
695.362366 548.0
695.70343 32.0
695.818909 48.0
696.180115 52.0
696.375366 652.0
696.610718 72.0
696.737854 128.0
696.922974 68.0
697.158569 40.0
697.416565 420.0
697.596252 32.0
697.81781 72.0
697.999573 88.0
698.110596 96.0
698.42804 10792.0
698.780579 132.0
698.967407 24.0
699.136108 68.0
699.256104 104.0
699.432251 5252.0
699.83728 76.0
700.09668 184.0
700.429565 4852.0
700.782471 88.0
700.96759 96.0
701.089233 116.0
701.429626 1304.0
701.718811 120.0
702.233948 40.0
702.432678 444.0
702.994324 40.0
703.438965 144.0
703.807007 84.0
703.991882 112.0
704.385742 56.0
704.544495 60.0
704.90155 108.0
705.029419 184.0
705.379456 32.0
705.566223 124.0
706.07373 136.0
706.198425 64.0
706.422729 208.0
706.745117 32.0
707.16748 56.0
707.412537 172.0
707.632935 88.0
707.766174 88.0
708.419434 2168.0
708.830017 36.0
709.027222 108.0
709.218262 44.0
709.417236 1208.0
709.759033 56.0
709.884399 36.0
710.178833 52.0
710.245239 44.0
710.419434 1300.0
710.886108 32.0
711.179565 36.0
711.417175 556.0
711.725525 64.0
711.844543 44.0
712.029907 80.0
712.077576 40.0
712.36792 5220.0
712.712219 28.0
712.956116 60.0
713.107605 52.0
713.367676 2336.0
713.597412 32.0
713.831604 48.0
714.399353 412.0
714.811218 48.0
715.18396 52.0
715.481262 128.0
715.778748 40.0
715.94928 36.0
716.456116 316.0
716.648743 28.0
717.041321 24.0
717.484131 372.0
718.080078 24.0
718.409241 1284.0
718.885986 32.0
719.034607 64.0
719.409119 672.0
719.811401 32.0
720.018311 36.0
720.399048 304.0
720.989807 144.0
721.401184 124.0
721.585571 40.0
721.978943 140.0
722.177307 80.0
722.439148 144.0
722.770996 40.0
722.975281 44.0
723.173157 60.0
723.429199 184.0
723.578857 32.0
723.76532 32.0
724.116943 32.0
724.448242 264.0
725.024536 144.0
725.21228 52.0
725.43927 12136.0
725.767456 44.0
725.922607 40.0
726.10553 44.0
726.446777 5832.0
726.6427 56.0
726.924255 60.0
727.223267 32.0
727.439575 4944.0
727.840698 32.0
728.017212 56.0
728.226135 56.0
728.441284 1204.0
728.859985 40.0
729.00531 36.0
729.211853 44.0
729.44165 396.0
729.582031 200.0
729.755005 44.0
730.107239 76.0
730.282959 120.0
730.471497 140.0
730.680481 44.0
731.464417 164.0
731.754883 80.0
731.882446 32.0
732.227417 32.0
732.409912 492.0
732.751709 72.0
732.934753 40.0
733.22821 44.0
733.515442 512.0
734.402588 328.0
734.529419 284.0
734.817078 172.0
735.076294 56.0
735.453125 272.0
736.009888 52.0
736.148193 52.0
736.410034 1588.0
736.849915 36.0
737.037903 108.0
737.255554 56.0
737.429016 960.0
737.675354 32.0
737.896118 40.0
738.103882 28.0
738.225159 48.0
738.419006 404.0
738.690308 28.0
739.119141 60.0
739.425781 472.0
740.166199 92.0
740.450867 284.0
740.808044 76.0
740.964172 92.0
741.103027 52.0
741.44165 136.0
742.168457 96.0
742.333008 52.0
742.480896 44.0
743.040955 60.0
743.488159 348.0
744.05603 36.0
744.348206 80.0
744.50592 188.0
745.273743 28.0
745.455017 156.0
745.90033 52.0
746.460693 212.0
746.736206 32.0
746.858154 36.0
747.03241 144.0
747.460938 140.0
748.444336 84.0
748.723389 28.0
748.96759 32.0
749.173462 32.0
749.435669 1136.0
750.026794 156.0
750.437317 920.0
750.852844 48.0
751.023193 32.0
751.135681 44.0
751.471252 1200.0
751.799316 52.0
752.13147 24.0
752.454895 308.0
752.861145 40.0
752.930969 36.0
753.092285 36.0
753.474854 1892.0
754.035278 44.0
754.475891 792.0
755.001831 40.0
755.469116 672.0
755.852234 40.0
756.116394 84.0
756.277466 144.0
756.478638 252.0
756.978882 108.0
757.224426 40.0
757.468933 348.0
757.978882 48.0
758.439941 96.0
758.751282 28.0
759.161926 52.0
759.410156 140.0
759.842224 148.0
760.204285 232.0
760.399414 544.0
760.56012 88.0
760.736755 32.0
760.938965 40.0
761.070862 40.0
761.516602 704.0
761.950378 32.0
762.214355 32.0
762.467468 196.0
762.502808 392.0
762.881348 36.0
763.472107 412.0
763.680969 72.0
763.995789 40.0
764.442505 280.0
764.638306 180.0
764.969849 84.0
765.130432 56.0
765.440979 940.0
765.834412 44.0
766.010803 44.0
766.129639 64.0
766.277527 44.0
766.451416 460.0
766.808655 72.0
767.008789 44.0
767.231812 44.0
767.447693 996.0
767.797485 96.0
768.055542 44.0
768.45874 476.0
768.775208 68.0
768.902832 164.0
769.07251 44.0
769.501587 4832.0
769.855957 32.0
769.982544 160.0
770.504272 2328.0
770.933044 24.0
771.169067 40.0
771.294495 108.0
771.501038 1524.0
771.871399 52.0
772.225647 36.0
772.497864 744.0
772.86731 36.0
773.002747 116.0
773.488953 272.0
773.927124 36.0
774.104492 116.0
774.47699 172.0
775.021057 36.0
775.280579 112.0
775.481812 112.0
775.754761 44.0
776.026672 76.0
776.44458 156.0
776.635559 88.0
776.944763 36.0
777.122498 32.0
777.433472 172.0
777.78009 32.0
778.064575 52.0
778.420654 1600.0
778.758179 52.0
778.977112 60.0
779.481873 3648.0
779.748047 32.0
779.876953 60.0
780.119385 56.0
780.474121 1580.0
780.728027 36.0
780.779785 84.0
780.995789 92.0
781.4823 1276.0
781.785278 24.0
782.479675 1020.0
782.783691 48.0
783.109192 132.0
783.478577 720.0
783.705078 68.0
784.014771 36.0
784.201477 140.0
784.465942 504.0
784.871765 104.0
785.068237 28.0
785.477539 192.0
785.662476 76.0
786.26532 32.0
786.47229 100.0
786.849731 80.0
786.980469 28.0
787.177185 24.0
787.486877 104.0
787.749634 64.0
787.946472 100.0
788.485046 76.0
789.03833 32.0
789.163696 40.0
789.458496 256.0
789.683105 64.0
790.023499 56.0
790.481567 204.0
790.973389 24.0
791.453735 660.0
791.959717 100.0
792.210876 40.0
792.460815 424.0
792.758179 108.0
792.983704 84.0
793.157166 44.0
793.452026 388.0
793.616455 124.0
793.932434 40.0
794.146545 76.0
794.446106 468.0
794.686279 44.0
794.814575 24.0
795.012268 92.0
795.192017 36.0
795.449463 284.0
795.708191 28.0
796.09021 132.0
796.49707 504.0
796.658447 108.0
797.000854 52.0
797.249451 52.0
797.498962 11532.0
797.916138 76.0
798.500732 5976.0
798.745178 176.0
799.102051 48.0
799.499939 4436.0
799.924805 68.0
800.117249 64.0
800.498596 1324.0
800.851196 188.0
801.276306 116.0
801.498047 420.0
801.828613 56.0
802.097961 124.0
802.290222 64.0
802.508606 96.0
802.841858 48.0
803.111938 80.0
803.471497 280.0
804.064209 104.0
804.44281 80.0
804.689453 36.0
804.892334 168.0
805.032776 80.0
805.245056 28.0
805.505371 232.0
805.863831 40.0
806.104492 80.0
806.4729 200.0
806.796753 80.0
806.996399 76.0
807.219482 28.0
807.466736 228.0
807.633301 140.0
807.842896 40.0
807.97876 44.0
808.479004 1572.0
808.840576 164.0
809.217896 32.0
809.467407 2728.0
809.830017 72.0
810.170898 40.0
810.472168 1420.0
810.717163 48.0
810.957703 64.0
811.194275 80.0
811.459778 1320.0
811.737854 72.0
812.104431 40.0
812.461243 872.0
812.716492 68.0
813.019348 48.0
813.241028 36.0
813.468384 248.0
813.765869 116.0
814.105713 56.0
814.521851 2600.0
815.05011 44.0
815.281677 44.0
815.528137 1020.0
816.522278 1004.0
816.973755 44.0
817.145996 32.0
817.478271 428.0
817.984436 44.0
818.251526 80.0
818.481873 284.0
818.732056 44.0
819.064148 40.0
819.195435 60.0
819.475403 364.0
820.158691 44.0
820.479309 280.0
820.706421 88.0
820.830994 136.0
821.086731 40.0
821.461487 164.0
821.984863 52.0
822.478088 312.0
822.679199 120.0
823.060608 32.0
823.298401 56.0
823.493591 160.0
823.920349 36.0
824.251343 92.0
824.486816 288.0
824.988831 128.0
825.336609 44.0
825.525208 76.0
825.934326 40.0
826.110229 60.0
826.180664 36.0
826.225769 76.0
826.492493 3796.0
826.845581 88.0
826.968872 132.0
827.233276 32.0
827.298462 28.0
827.492981 1668.0
827.740234 104.0
828.165405 40.0
828.491516 2156.0
828.97821 168.0
829.494934 708.0
829.982544 40.0
830.272095 36.0
830.507263 260.0
830.968933 44.0
831.310791 32.0
831.485779 564.0
832.296936 56.0
832.48877 316.0
833.470459 352.0
833.679382 108.0
834.484802 216.0
835.225281 136.0
835.470581 504.0
835.801392 112.0
835.967224 96.0
836.485291 296.0
836.723083 72.0
836.889038 28.0
837.165649 32.0
837.478271 400.0
838.501526 384.0
838.734131 40.0
839.343506 68.0
839.510559 320.0
839.908752 48.0
840.193237 156.0
840.482544 360.0
840.920227 60.0
841.135803 40.0
841.509399 192.0
842.479492 44.0
842.893066 32.0
843.115173 32.0
843.511169 80.0
843.726074 68.0
843.966797 36.0
844.096436 56.0
844.226074 92.0
844.519287 268.0
845.059753 36.0
845.282166 124.0
845.542358 104.0
846.023682 36.0
846.338867 32.0
846.546204 68.0
847.456604 80.0
848.120117 36.0
848.495361 996.0
849.153503 132.0
849.503601 536.0
849.735962 28.0
849.925598 40.0
850.501648 500.0
850.893982 120.0
851.350159 212.0
851.515259 588.0
852.508545 660.0
852.935059 36.0
853.121277 156.0
853.32605 36.0
853.523071 156.0
853.735779 48.0
854.182861 80.0
854.513733 244.0
855.058716 36.0
855.494324 44.0
855.767212 36.0
855.897705 104.0
856.326721 36.0
856.518494 88.0
857.405029 60.0
857.55658 44.0
857.97937 40.0
858.230469 32.0
858.466675 80.0
858.534973 52.0
858.589233 72.0
859.479797 636.0
860.042847 36.0
860.248474 44.0
860.475647 404.0
860.68689 36.0
860.803772 156.0
861.526489 108.0
862.063049 28.0
862.528381 316.0
862.793091 36.0
863.519836 232.0
863.755188 132.0
864.17926 44.0
864.521729 380.0
864.793213 116.0
865.502808 376.0
865.904114 60.0
866.166748 96.0
866.513245 272.0
866.823486 80.0
867.521545 596.0
868.521179 232.0
868.983154 160.0
869.114685 140.0
869.321411 36.0
869.53009 344.0
870.201599 44.0
870.530579 160.0
871.536682 196.0
872.199402 80.0
872.566101 244.0
873.265198 88.0
873.543762 112.0
873.951111 32.0
874.309204 136.0
874.526123 220.0
874.780457 44.0
875.082153 60.0
875.525818 140.0
875.723389 32.0
876.006409 52.0
876.176208 36.0
876.501465 184.0
876.874512 32.0
877.159607 40.0
877.308716 128.0
877.488098 880.0
878.495667 448.0
878.92511 28.0
879.235657 32.0
879.502502 284.0
879.746033 40.0
880.237732 24.0
880.518188 320.0
881.070068 36.0
881.521729 408.0
881.902771 36.0
882.05426 32.0
882.364868 108.0
882.531616 416.0
882.944275 24.0
883.133667 32.0
883.266296 32.0
883.529053 368.0
883.727234 148.0
884.54425 144.0
885.161804 96.0
885.520874 312.0
885.920593 52.0
886.520569 228.0
887.520752 328.0
887.761963 24.0
887.907532 72.0
888.360352 48.0
888.5354 56.0
889.053955 96.0
889.575867 812.0
890.16626 56.0
890.527954 724.0
891.07196 36.0
891.28125 36.0
891.531189 388.0
891.812134 36.0
891.983459 32.0
892.53241 456.0
892.859436 136.0
893.107056 28.0
893.500183 156.0
893.642639 36.0
894.516785 232.0
895.508118 204.0
895.752869 36.0
896.515381 460.0
896.656006 180.0
897.088989 152.0
897.30304 96.0
897.55011 1728.0
897.875977 44.0
898.200745 44.0
898.334473 28.0
898.565125 584.0
898.831299 28.0
899.060669 52.0
899.56427 788.0
900.164185 116.0
900.571838 200.0
900.790222 116.0
901.577209 172.0
901.987427 32.0
902.530701 96.0
902.807861 152.0
903.561829 44.0
903.959473 160.0
904.347656 40.0
904.554626 72.0
904.720764 48.0
905.542236 40.0
905.686157 44.0
905.8396 136.0
906.050659 32.0
906.352173 28.0
906.522461 104.0
907.202271 36.0
907.543884 2416.0
907.912842 28.0
908.544861 1712.0
908.991638 108.0
909.237427 56.0
909.544128 1488.0
909.776917 36.0
909.992493 96.0
910.545288 840.0
911.088135 96.0
911.53949 284.0
911.816162 48.0
911.976135 104.0
912.316711 36.0
912.514771 204.0
913.106262 36.0
913.395203 84.0
913.575073 96.0
913.934753 32.0
914.581787 120.0
915.052795 44.0
915.54657 120.0
915.985718 76.0
916.509705 92.0
917.539429 52.0
918.372437 100.0
918.613953 88.0
919.562256 120.0
919.841187 68.0
920.208557 32.0
920.52478 68.0
920.895203 40.0
921.330444 52.0
921.548157 160.0
922.187927 52.0
922.54187 192.0
922.879028 32.0
923.215393 108.0
923.542419 64.0
923.762329 60.0
924.03418 44.0
924.229492 28.0
924.562927 332.0
924.813965 180.0
925.010437 136.0
925.106445 120.0
925.557129 11672.0
925.904297 136.0
926.281372 88.0
926.563293 5324.0
926.994751 136.0
927.272461 56.0
927.558472 5276.0
928.045105 40.0
928.284973 32.0
928.557678 2664.0
928.807617 84.0
929.273499 76.0
929.556763 532.0
929.784241 56.0
930.551392 168.0
930.777466 52.0
931.322083 40.0
931.596008 152.0
932.119873 48.0
932.528625 28.0
932.762207 44.0
933.5177 96.0
933.774841 24.0
933.911255 24.0
934.077454 60.0
934.378845 120.0
934.543091 128.0
934.963501 40.0
935.516785 168.0
935.938293 32.0
936.172363 56.0
936.435669 112.0
936.568237 176.0
937.119141 68.0
937.559204 432.0
937.933411 96.0
938.570923 380.0
938.826782 32.0
939.217468 28.0
939.365662 48.0
939.549133 144.0
940.571594 200.0
940.937378 32.0
941.188843 28.0
941.387207 28.0
941.609558 120.0
941.895752 156.0
942.56781 516.0
943.31665 120.0
943.555908 344.0
943.887573 164.0
944.12738 128.0
944.562134 424.0
944.754211 56.0
944.891418 24.0
945.118591 52.0
945.533386 116.0
946.18512 24.0
946.599365 648.0
946.832275 44.0
947.31488 80.0
947.548218 292.0
948.055359 152.0
948.193115 124.0
948.554138 180.0
949.030396 36.0
949.226807 44.0
949.554077 164.0
950.529602 268.0
950.720032 136.0
951.135254 32.0
951.564453 240.0
951.823486 32.0
952.505493 136.0
952.981689 52.0
953.139099 40.0
953.316223 36.0
953.544006 168.0
953.694092 76.0
954.040283 72.0
954.202148 36.0
954.374451 48.0
954.575562 888.0
955.387207 48.0
955.591187 296.0
956.044128 80.0
956.591614 416.0
957.138367 44.0
957.355286 32.0
957.575684 244.0
958.592285 92.0
958.763733 84.0
959.28009 156.0
959.498657 188.0
960.41925 36.0
960.592712 44.0
961.225037 28.0
961.516846 88.0
962.561829 116.0
962.747437 28.0
963.162842 96.0
963.550781 184.0
964.26947 36.0
964.565796 1196.0
965.128235 40.0
965.320435 44.0
965.570801 896.0
966.101196 68.0
966.296509 44.0
966.57196 504.0
966.897583 20.0
967.5625 392.0
967.837341 24.0
968.3927 148.0
968.568909 740.0
968.786987 68.0
969.573792 648.0
970.073547 104.0
970.564514 292.0
971.0896 28.0
971.61438 176.0
971.946777 40.0
972.632507 56.0
973.417969 40.0
973.58905 76.0
974.55658 112.0
975.148987 104.0
975.608887 80.0
975.825928 28.0
976.025085 24.0
976.34375 76.0
976.539368 180.0
976.901489 52.0
977.060913 52.0
977.240234 28.0
977.496704 188.0
977.883972 40.0
978.103088 28.0
978.336548 28.0
978.542786 104.0
978.934814 76.0
979.16748 36.0
979.575012 396.0
979.801819 52.0
980.041443 36.0
980.231628 28.0
980.543213 244.0
980.736755 132.0
981.580994 176.0
982.148499 36.0
982.581055 5640.0
983.063354 36.0
983.144836 28.0
983.587402 2768.0
984.22229 180.0
984.581787 2308.0
984.834839 64.0
985.087402 128.0
985.584839 1516.0
986.036865 36.0
986.316956 64.0
986.568787 280.0
986.792053 216.0
987.193665 36.0
987.5401 288.0
987.930481 64.0
988.174988 40.0
988.373474 36.0
988.575806 68.0
988.946777 28.0
989.562012 120.0
989.766357 48.0
990.195862 48.0
990.551941 72.0
990.697388 68.0
991.555908 76.0
992.042114 40.0
992.57428 108.0
993.126587 64.0
993.573975 120.0
993.910217 48.0
994.091125 100.0
994.568359 356.0
994.8349 84.0
994.963562 80.0
995.297363 136.0
995.594971 376.0
996.10199 32.0
996.242798 40.0
996.597595 468.0
997.088013 92.0
997.607666 220.0
998.094727 52.0
998.573364 288.0
998.833862 132.0
999.037842 136.0
999.593079 408.0
999.968506 68.0
1000.598877 976.0
1000.869019 96.0
1001.138 112.0
1001.604797 392.0
1001.857483 40.0
1002.106384 32.0
1002.573547 264.0
1002.94574 68.0
1003.573547 332.0
1004.128601 48.0
1004.57135 96.0
1004.860352 52.0
1005.549866 356.0
1005.762146 28.0
1006.135864 104.0
1006.562927 204.0
1007.01593 64.0
1007.54541 100.0
1008.351501 44.0
1008.598328 176.0
1009.255005 64.0
1009.610657 148.0
1010.562073 236.0
1011.594543 296.0
1012.018616 48.0
1012.160583 84.0
1012.591736 212.0
1013.243469 84.0
1013.603821 116.0
1014.631531 136.0
1014.920593 68.0
1015.286133 76.0
1015.666687 88.0
1016.058105 132.0
1016.627136 60.0
1017.297974 32.0
1017.627441 124.0
1017.806335 36.0
1018.34137 52.0
1018.584839 44.0
1018.76239 40.0
1018.986206 36.0
1019.128662 24.0
1019.271118 48.0
1019.596741 180.0
1019.922485 88.0
1020.566406 680.0
1020.959534 60.0
1021.358215 40.0
1021.584229 348.0
1022.596008 256.0
1023.182312 32.0
1023.583496 204.0
1023.875732 44.0
1024.276489 124.0
1024.583496 156.0
1024.793823 28.0
1025.059082 100.0
1025.59729 340.0
1026.591675 184.0
1026.998901 44.0
1027.609253 264.0
1028.595947 88.0
1029.104126 64.0
1029.641235 636.0
1030.229126 40.0
1030.642456 508.0
1030.883911 28.0
1031.027222 24.0
1031.231934 36.0
1031.644287 392.0
1032.647827 116.0
1033.17749 92.0
1033.341431 96.0
1033.684082 168.0
1034.345703 24.0
1034.684204 188.0
1035.248047 28.0
1035.615479 264.0
1036.048096 48.0
1036.584229 792.0
1037.104492 184.0
1037.607666 400.0
1038.618408 296.0
1039.230835 88.0
1039.615234 356.0
1040.094116 112.0
1040.238037 36.0
1040.603638 148.0
1041.204468 32.0
1041.632446 228.0
1041.883423 28.0
1042.241943 44.0
1042.604126 116.0
1042.850708 36.0
1043.588013 148.0
1043.838989 48.0
1044.325317 92.0
1044.628784 180.0
1045.567017 100.0
1045.713989 140.0
1046.231689 36.0
1046.576172 68.0
1047.32251 36.0
1047.61084 784.0
1047.989746 48.0
1048.304077 112.0
1048.606445 600.0
1048.798584 168.0
1049.056152 64.0
1049.324585 44.0
1049.598389 824.0
1049.97168 36.0
1050.597412 296.0
1050.970215 84.0
1051.287109 36.0
1051.619507 708.0
1051.896362 120.0
1052.238159 112.0
1052.617432 692.0
1052.856934 52.0
1052.976807 128.0
1053.613159 2600.0
1054.224121 32.0
1054.617432 1264.0
1054.927979 36.0
1055.144287 36.0
1055.61145 628.0
1055.997192 76.0
1056.167236 24.0
1056.285034 92.0
1056.616455 644.0
1056.886108 60.0
1057.63147 268.0
1058.284668 36.0
1058.429932 140.0
1058.623047 116.0
1058.963989 32.0
1059.21814 144.0
1059.57605 48.0
1060.048096 28.0
1060.320679 92.0
1060.60498 112.0
1060.765259 48.0
1061.000732 36.0
1061.39502 32.0
1061.666138 388.0
1062.319824 132.0
1062.62085 260.0
1063.230103 120.0
1063.572021 316.0
1063.817139 32.0
1064.106689 44.0
1064.336792 28.0
1064.598267 180.0
1065.002808 88.0
1065.162842 28.0
1065.62085 14900.0
1066.050903 152.0
1066.288452 72.0
1066.619629 10368.0
1067.147095 132.0
1067.618774 8028.0
1068.095337 68.0
1068.298584 136.0
1068.619995 3016.0
1069.051025 120.0
1069.422241 96.0
1069.64563 3864.0
1070.165771 36.0
1070.310913 56.0
1070.651123 2048.0
1071.115601 76.0
1071.653564 1924.0
1072.045532 36.0
1072.274414 124.0
1072.642212 708.0
1073.268188 52.0
1073.644043 224.0
1073.802856 40.0
1074.112793 104.0
1074.417114 36.0
1074.644897 172.0
1074.939453 28.0
1075.106689 156.0
1075.377075 36.0
1075.625244 184.0
1075.925415 24.0
1076.45874 48.0
1076.648926 144.0
1077.030518 80.0
1077.652954 124.0
1077.888428 28.0
1078.645996 464.0
1079.09729 52.0
1079.349243 36.0
1079.645874 1064.0
1080.332153 136.0
1080.635498 1288.0
1080.904175 28.0
1081.135498 96.0
1081.648071 556.0
1082.057129 68.0
1082.346313 56.0
1082.627197 312.0
1082.842285 64.0
1082.990845 100.0
1083.609131 356.0
1083.89856 148.0
1084.25293 48.0
1084.639648 232.0
1084.889771 28.0
1085.057739 44.0
1085.296997 124.0
1085.617554 140.0
1085.936279 92.0
1086.234009 28.0
1086.423096 72.0
1086.637573 64.0
1086.900146 40.0
1087.116577 116.0
1087.504272 116.0
1087.590332 52.0
1087.630249 92.0
1088.104614 88.0
1088.348877 52.0
1088.607544 48.0
1088.945801 28.0
1089.555908 52.0
1089.775879 124.0
1090.083984 96.0
1090.511719 48.0
1090.663086 40.0
1091.28125 140.0
1091.620361 92.0
1091.92749 88.0
1092.183105 36.0
1092.636719 556.0
1092.916138 56.0
1093.114868 40.0
1093.418213 56.0
1093.61731 1520.0
1094.619507 756.0
1094.946899 36.0
1095.06311 40.0
1095.286743 68.0
1095.608032 576.0
1096.029541 80.0
1096.247681 140.0
1096.626953 392.0
1097.18811 64.0
1097.644531 14944.0
1098.011841 156.0
1098.282471 128.0
1098.649048 9252.0
1098.981079 76.0
1099.214233 60.0
1099.414185 96.0
1099.645142 7344.0
1100.037598 176.0
1100.317749 40.0
1100.6427 2432.0
1101.22998 24.0
1101.651978 740.0
1102.00293 52.0
1102.377563 28.0
1102.661377 352.0
1102.96167 24.0
1103.309204 44.0
1103.603516 96.0
1103.889893 68.0
1104.334717 32.0
1104.621948 200.0
1105.033813 32.0
1105.349365 36.0
1105.713745 52.0
1106.093628 28.0
1106.440308 168.0
1106.659668 92.0
1107.001099 40.0
1107.225098 40.0
1107.631714 88.0
1108.113892 32.0
1108.27832 108.0
1108.647095 164.0
1108.95752 124.0
1109.16687 76.0
1109.600586 64.0
1109.730957 120.0
1110.088989 80.0
1110.256592 44.0
1110.637695 6744.0
1111.154663 24.0
1111.648682 3628.0
1111.973999 48.0
1112.33252 128.0
1112.641113 1980.0
1113.108276 60.0
1113.384521 60.0
1113.648315 1180.0
1113.999512 32.0
1114.197021 68.0
1114.368774 20.0
1114.649292 348.0
1114.883057 84.0
1115.122192 28.0
1115.652588 1468.0
1115.949829 32.0
1116.656982 964.0
1117.251831 28.0
1117.401001 88.0
1117.649536 524.0
1117.957764 32.0
1118.390869 36.0
1118.658081 300.0
1119.042358 44.0
1119.313477 84.0
1119.626343 136.0
1120.574585 140.0
1121.005005 36.0
1121.609619 188.0
1121.887451 96.0
1122.115112 128.0
1122.414062 28.0
1122.625854 92.0
1123.50354 28.0
1123.706055 84.0
1124.006714 112.0
1124.689697 40.0
1125.27771 32.0
1125.628418 36.0
1125.855103 48.0
1126.637085 632.0
1127.181641 52.0
1127.414917 44.0
1127.618042 128.0
1127.887939 68.0
1128.290894 44.0
1128.675903 1096.0
1129.151367 20.0
1129.378906 104.0
1129.671143 456.0
1130.136963 64.0
1130.315308 68.0
1130.674072 532.0
1131.112915 68.0
1131.380249 52.0
1131.677368 392.0
1132.665405 424.0
1133.315186 40.0
1133.639404 276.0
1134.292725 32.0
1134.639526 348.0
1135.636475 652.0
1136.642944 252.0
1137.004883 36.0
1137.626099 300.0
1138.05835 36.0
1138.644531 128.0
1139.155273 112.0
1139.391968 68.0
1139.695312 200.0
1140.707153 104.0
1141.027954 140.0
1141.660278 152.0
1142.169434 76.0
1142.631348 64.0
1143.707275 100.0
1143.866943 152.0
1144.586914 76.0
1145.338501 100.0
1145.613037 184.0
1146.007324 44.0
1146.628418 56.0
1147.086548 28.0
1147.36731 168.0
1147.571899 112.0
1148.231079 124.0
1148.646606 688.0
1149.203369 100.0
1149.676147 764.0
1150.028564 136.0
1150.240845 64.0
1150.392212 68.0
1150.661621 636.0
1151.322021 32.0
1151.664917 568.0
1152.122559 68.0
1152.650635 136.0
1152.879883 32.0
1153.650513 128.0
1154.200562 36.0
1154.677124 256.0
1154.95874 84.0
1155.206543 64.0
1155.654419 40.0
1155.868774 48.0
1156.150513 48.0
1156.627441 104.0
1157.212769 36.0
1157.714111 244.0
1157.921265 68.0
1158.676147 320.0
1159.078491 40.0
1159.425781 24.0
1159.643677 268.0
1160.077026 92.0
1160.272339 84.0
1160.617676 232.0
1160.793579 76.0
1161.010742 180.0
1161.206299 60.0
1161.463867 28.0
1161.728516 108.0
1162.322388 108.0
1162.675659 112.0
1163.183838 44.0
1163.33606 32.0
1163.690674 160.0
1164.645264 152.0
1164.840332 48.0
1165.184814 40.0
1165.669067 464.0
1165.924805 84.0
1166.144653 40.0
1166.679077 752.0
1166.947998 40.0
1167.665405 1164.0
1167.99353 40.0
1168.463135 120.0
1168.675049 488.0
1168.886841 104.0
1169.082153 112.0
1169.24292 24.0
1169.683838 444.0
1170.478394 52.0
1170.689941 144.0
1171.41626 24.0
1171.690063 164.0
1172.437134 200.0
1172.724854 144.0
1173.184204 44.0
1173.430908 136.0
1173.709595 100.0
1173.926636 84.0
1174.172852 88.0
1174.46814 56.0
1174.688965 40.0
1174.860596 60.0
1175.162842 56.0
1175.671631 376.0
1175.99646 44.0
1176.286621 32.0
1176.65686 4192.0
1177.132446 100.0
1177.435303 84.0
1177.655762 2464.0
1178.07959 200.0
1178.386475 64.0
1178.651611 1540.0
1178.946533 80.0
1179.276123 80.0
1179.648193 1132.0
1180.039795 60.0
1180.096558 32.0
1180.170532 64.0
1180.671997 808.0
1181.364258 108.0
1181.676392 576.0
1182.082642 36.0
1182.688721 384.0
1182.908569 28.0
1183.315063 24.0
1183.669922 436.0
1184.238403 40.0
1184.388062 52.0
1184.660767 324.0
1185.286621 192.0
1185.710327 44.0
1185.823608 56.0
1186.343018 40.0
1186.579468 44.0
1186.840698 64.0
1187.471313 112.0
1187.751709 28.0
1188.392212 68.0
1188.709717 76.0
1188.900269 172.0
1189.064819 60.0
1189.356567 36.0
1189.728394 1388.0
1190.452393 32.0
1190.705811 1008.0
1191.225098 96.0
1191.407104 60.0
1191.693848 684.0
1192.204102 116.0
1192.688232 524.0
1193.050659 100.0
1193.132568 96.0
1193.209473 100.0
1193.67688 20424.0
1194.314819 120.0
1194.68042 12304.0
1195.190674 104.0
1195.347656 200.0
1195.677612 10192.0
1196.104736 132.0
1196.678833 4472.0
1196.998291 108.0
1197.212891 68.0
1197.284302 88.0
1197.700073 3032.0
1198.067383 196.0
1198.239014 80.0
1198.4646 136.0
1198.709961 1812.0
1199.170532 40.0
1199.710083 1168.0
1200.050903 52.0
1200.215698 72.0
1200.420532 56.0
1200.711548 920.0
1201.165527 32.0
1201.743652 284.0
1202.115723 32.0
1202.352295 40.0
1202.740479 104.0
1203.189941 168.0
1203.508423 52.0
1204.061401 36.0
1204.240967 172.0
1204.407837 84.0
1204.791382 40.0
1204.990601 32.0
1205.173096 32.0
1205.602783 36.0
1206.050659 40.0
1206.291992 40.0
1206.458862 24.0
1206.690186 112.0
1207.049316 28.0
1207.389038 36.0
1207.693237 1536.0
1208.242432 48.0
1208.682739 9828.0
1209.300415 128.0
1209.680786 7060.0
1210.183838 92.0
1210.677368 4944.0
1211.079956 44.0
1211.271118 168.0
1211.68457 2444.0
1212.316528 168.0
1212.682617 740.0
1212.967041 32.0
1213.411377 36.0
1213.654663 180.0
1213.880249 80.0
1214.213379 36.0
1214.463257 64.0
1214.714966 72.0
1214.958252 60.0
1215.299927 44.0
1215.660889 80.0
1216.020752 60.0
1216.296997 44.0
1216.577393 96.0
1217.001465 36.0
1217.184937 52.0
1217.480835 44.0
1217.881226 32.0
1218.047363 32.0
1218.296387 68.0
1218.583984 88.0
1218.83728 132.0
1219.115479 144.0
1219.217651 88.0
1219.823975 96.0
1219.97876 76.0
1220.138306 104.0
1220.388794 92.0
1220.616577 120.0
1221.026367 272.0
1221.375122 72.0
1221.406128 52.0
1221.610229 80.0
1222.078125 52.0
1222.171997 92.0
1222.245361 136.0
1222.642456 120.0
1223.074219 148.0
1223.147339 156.0
1223.253296 108.0
1223.326416 64.0
1223.682617 128.0
1223.867676 164.0
1224.108154 176.0
1224.369141 236.0
1224.733032 348.0
1224.975586 180.0
1225.033691 220.0
1225.293945 256.0
1225.710571 107172.0
1226.161499 488.0
1226.279175 244.0
1226.315552 352.0
1226.473389 288.0
1226.710938 74108.0
1227.098877 328.0
1227.351807 312.0
1227.707397 58444.0
1228.195312 244.0
1228.706055 21096.0
1229.273193 96.0
1229.710449 4788.0
1230.464966 116.0
1230.702148 980.0
1231.342529 80.0
1231.522583 56.0
1231.699097 100.0
1231.901001 176.0
1232.237305 72.0
1232.520874 68.0
1232.938232 104.0
1232.992676 100.0
1233.291748 76.0
1233.648682 284.0
1234.020874 32.0
1234.194092 28.0
1234.370972 112.0
1234.705566 136.0
1234.962524 56.0
1235.16272 40.0
1235.309204 96.0
1235.720581 72.0
1235.877441 24.0
1236.034302 28.0
1236.235962 24.0
1236.527344 28.0
1236.748901 68.0
1236.975708 36.0
1237.170532 52.0
1237.312012 76.0
1237.624634 128.0
1237.916504 132.0
1238.433472 64.0
1238.67395 72.0
1238.896118 60.0
1239.230835 28.0
1239.471191 32.0
1239.728271 120.0
1240.052856 24.0
1240.44165 116.0
1240.849365 56.0
1241.171753 48.0
1241.571533 80.0
1242.317383 32.0
1243.412964 32.0
1243.823242 36.0
1244.182983 36.0
1244.362793 32.0
1244.542725 32.0
1245.057739 40.0
1245.419922 28.0
1245.622437 140.0
1246.027344 28.0
1246.211426 68.0
1246.567505 24.0
1246.931152 84.0
1247.377808 28.0
1247.715576 36.0
1248.202515 144.0
1249.124634 92.0
1249.314819 44.0
1249.810547 80.0
1250.281128 60.0
1250.599365 44.0
1251.343384 48.0
1251.684814 28.0
1252.358276 40.0
1252.786987 52.0
1253.386719 76.0
1253.80957 76.0
1254.208862 32.0
1254.637817 36.0
1255.066772 32.0
1256.012695 32.0
1256.196289 96.0
1256.48999 76.0
1257.032349 44.0
1257.248047 44.0
1257.936523 44.0
1258.501831 76.0
1259.157715 64.0
1259.700562 112.0
1260.198364 72.0
1260.58313 48.0
1260.76416 96.0
1261.013184 44.0
1261.28479 40.0
1261.835083 52.0
1262.258545 104.0
1262.657227 40.0
1264.229614 68.0
1264.485474 96.0
1264.796265 88.0
1266.875732 76.0
1267.972168 32.0
1268.380737 24.0
1268.834839 40.0
1271.151978 96.0
1271.358643 168.0
1272.220337 116.0
1273.198242 124.0
1273.448486 84.0
1274.55603 60.0
1274.722656 48.0
1275.314453 40.0
1276.840088 108.0
1277.796997 36.0
1277.956543 84.0
1278.457886 24.0
1279.255737 40.0
1279.651733 88.0
1280.572632 156.0
1284.002441 28.0
1285.647583 152.0
1287.614014 36.0
1289.490356 72.0
1290.52063 36.0
1294.255981 80.0
1294.898193 140.0
1295.494629 36.0
1297.81311 112.0
1299.421021 44.0
1301.00708 48.0
1303.560547 140.0
1308.352051 156.0
1310.751099 64.0
1311.466675 168.0
1312.574951 64.0
1313.72998 96.0
1314.654297 92.0
1316.883789 104.0
1318.725342 92.0
1321.481445 92.0
1322.338989 52.0
1324.031616 44.0
1324.379639 28.0
1327.699097 52.0
1328.360718 152.0
1333.209595 68.0
1334.650146 160.0
1338.125244 32.0
1338.475098 60.0
1339.618042 116.0
1342.559448 92.0
1344.148071 24.0
1350.442261 24.0
1352.480957 76.0
1355.272095 144.0
1355.671143 124.0
1358.958984 120.0
1360.369263 48.0
1360.604492 68.0
1360.863037 36.0
1364.792969 116.0
1365.193359 92.0
1365.499634 76.0
1368.421997 48.0
1370.568726 124.0
1371.276855 108.0
1372.858887 76.0
1373.803711 168.0
1377.752319 80.0
1377.988892 60.0
1380.237793 24.0
1383.247192 112.0
1390.028809 144.0
1390.891724 36.0
1391.557495 64.0
1392.675293 36.0
1394.373169 68.0
1394.769531 116.0
1395.126587 152.0
1396.245972 104.0
1403.400879 64.0
1404.11731 28.0
1404.786255 44.0
1405.813843 40.0
1406.889526 112.0
1412.178589 28.0
1415.270508 44.0
1419.710449 156.0
1420.839478 104.0
1421.163208 136.0
1424.133301 132.0
1424.421997 36.0
1427.238159 92.0
1428.033081 24.0
1428.828125 100.0
1429.069092 36.0
1430.684082 104.0
1431.214478 140.0
1435.800171 84.0
1437.443115 132.0
1438.530884 156.0
1441.796753 52.0
1443.685303 140.0
1444.121338 76.0
1444.557373 52.0
1448.557739 88.0
1449.601196 84.0
1452.515015 44.0
1458.814087 136.0
1461.737305 96.0
1466.005371 172.0
1469.790894 56.0
1470.964233 104.0
1473.507935 76.0
1474.952026 136.0
1480.171143 60.0
1480.563599 112.0
1480.906982 52.0
1481.422119 24.0
1481.618408 96.0
1486.185791 144.0
1486.751099 60.0
1488.349121 68.0
1489.800415 48.0
1499.016724 148.0
1500.275635 108.0
1502.844604 44.0
1511.977051 164.0
1515.821411 56.0
1523.101929 100.0
1530.050781 64.0
1532.620117 124.0
1536.065918 32.0
1536.640503 28.0
1541.366943 160.0
1550.891724 108.0
1552.775024 40.0
1554.734985 44.0
1560.949463 96.0
1570.382812 104.0
1570.837524 116.0
1575.186157 108.0
1587.759644 104.0
1608.119385 216.0
1610.906982 80.0
1616.489258 28.0
1622.877319 40.0
1623.467896 44.0
1630.410156 172.0
1633.767578 32.0
1634.092896 148.0
1669.429932 40.0
1681.01416 88.0
1705.144897 140.0
1716.931396 32.0
1740.333496 92.0
1742.541504 136.0
1746.002441 108.0
1747.494385 104.0
1755.123779 60.0
1767.027954 28.0
1772.659546 76.0
1783.491943 40.0
1788.718384 56.0
1790.174438 60.0
1792.251831 96.0
1797.518066 28.0
1800.465088 80.0
1803.197998 36.0
1803.739502 40.0
1803.983154 68.0
1816.621948 160.0
1829.959351 140.0
1854.326538 44.0
1869.82312 56.0
1884.765137 60.0
1904.743286 84.0
1931.656616 104.0
1933.89856 132.0
1951.345947 32.0
END IONS
