BEGIN IONS
PEPMASS=761.3
CHARGE=1
MSLEVEL=2
SOURCE_INSTRUMENT=LC-ESI-Orbitrap
FILENAME=Cpd_15_761_terracinolide.mgf
SEQ=*..*
IONMODE=Positive
ORGANISM=GNPS-LIBRARY
NAME=terracinolide C M+Na
PI=LITAUDON/TOUBOUL
DATACOLLECTOR=Esposito
SMILES=O[C@@H]1[C@@]([C@@H](OC2=O)[C@](CC2)(OC(C)=O)[C@H](OC(C(C)C)=O)[C@@H](OC(C)=O)[C@@H](OC(C)=O)C(C)(C)/C=C/[C@H](C)C3=O)([H])[C@]3(OC(C)=O)C[C@]1(OC(C)=O)C
INCHI=
INCHIAUX=
PUBMED=N/A
SUBMITUSER=lfnothias
TAGS=
LIBRARYQUALITY=1
SPECTRUMID=CCMSLIB00000840548
SCANS=1
200.583023 21165.65625
201.862152 11311.84668
203.866608 12276.461914
245.408447 14046.743164
269.233246 12119.614258
284.314117 11524.624023
320.461609 12800.262695
323.162079 17124.152344
345.593628 15878.922852
351.160858 46191.707031
361.472565 12273.27832
369.170746 16490.453125
385.066589 16320.475586
389.170502 20700.386719
411.180634 33689.644531
431.696167 16780.582031
433.164001 31544.351562
449.190033 50123.953125
450.12677 14391.567383
468.075195 13726.166992
477.230072 21654.539062
493.187317 543730.625
503.263153 13890.067383
509.219574 37511.371094
510.332947 14290.430664
511.196564 113928.851562
521.211243 47880.417969
523.629578 11829.254883
531.226929 24647.347656
537.245667 437923.40625
539.227295 47707.160156
553.155457 13865.831055
553.204651 1006522.6875
564.201782 19762.253906
569.23822 27981.0625
571.213928 33995.683594
571.616516 13580.448242
580.90979 13324.56543
580.930969 12464.40918
581.237915 2175172.5
586.011353 13401.18457
597.266602 261056.328125
599.246033 68465.515625
613.220886 1654005.25
617.315186 12964.430664
619.255371 23095.257812
631.234985 102965.390625
640.381897 21948.546875
640.41864 13750.317383
640.602417 23498.117188
640.626892 15805.375977
640.700439 27767.769531
640.724915 23558.390625
640.749451 24400.472656
640.773987 20412.535156
640.798462 32896.621094
640.847534 29216.503906
640.872009 36786.367188
640.896545 33454.035156
640.921082 32614.132812
640.945618 41607.046875
640.970154 46837.289062
640.99469 43121.09375
641.019165 61882.308594
641.043701 57432.25
641.068237 59066.695312
641.092773 69650.757812
641.11731 86812.3125
641.141846 96105.078125
641.166382 85342.171875
641.252258 15090526.0
641.338196 74017.820312
641.362732 77179.9375
641.387268 93966.617188
641.411865 79386.867188
641.436401 72535.25
641.460938 56770.378906
641.485535 59102.820312
641.510071 42610.300781
641.534607 60772.957031
641.58374 39475.46875
641.608276 33390.3125
641.632874 35513.269531
641.65741 35524.375
641.682007 33864.957031
641.73114 25793.660156
641.755737 29709.449219
641.804871 23389.4375
641.829407 23268.691406
641.878601 19399.382812
641.903137 18721.726562
641.927734 16470.1875
641.952332 19091.5625
641.976929 15361.74707
642.222839 28289.785156
649.091248 16087.301758
650.907166 14663.317383
657.291321 451079.71875
679.299805 27093.257812
683.264038 56891.035156
696.977539 16315.549805
700.088806 25813.621094
700.817261 44682.65625
700.845337 54547.738281
700.873352 60910.542969
700.901428 57095.996094
700.929443 63946.074219
700.95752 77674.875
700.985535 70076.164062
701.013611 96020.90625
701.041687 90453.617188
701.069702 95824.617188
701.097778 114703.84375
701.125854 132658.0625
701.15387 140168.09375
701.181946 122729.359375
701.280212 19656718.0
701.378418 122543.601562
701.406494 134871.171875
701.43457 127906.273438
701.462646 116271.984375
701.490723 107770.242188
701.51886 92709.492188
701.546936 83908.132812
701.575012 79044.9375
701.603088 65448.613281
701.631165 67442.820312
701.659241 66305.382812
701.687378 49589.34375
701.715454 51427.890625
701.74353 55883.699219
706.076294 15824.397461
738.242859 16665.421875
743.270691 30553.007812
END IONS
