BEGIN IONS
PEPMASS=659.267
CHARGE=1
MSLEVEL=2
SOURCE_INSTRUMENT=LC-ESI-Hybrid FT
FILENAME=f.lfnothias/140221_LF_015_AcOEt_ASE-cpd-2.mzXML;
SEQ=*..*
IONMODE=Positive
ORGANISM=GNPS-LIBRARY
NAME=3,5,7,15-tetraacetoxy-2-hydroxy-8-isobutyroyloxy-9,14-dioxojatropha-6(17),11E-diene (2) M+Na
PI=Louis-Felix NOTHIAS-SCAGLIA
DATACOLLECTOR=Louis-Felix NOTHIAS-SCAGLIA
SMILES=C=C([C@@H]1OC(C)=O)[C@H](OC(C)=O)[C@@H](OC(C(C)C)=O)C(C(C)(C)/C=C/[C@@H](C)C([C@]2(OC(C)=O)[C@]1([H])[C@@H](OC(C)=O)[C@](C)(O)C2)=O)=O
INCHI=InChI=1S/C32H44O13/c1-15(2)29(39)44-25-24(42-19(6)34)17(4)23(41-18(5)33)22-28(43-20(7)35)31(11,40)14-32(22,45-21(8)36)26(37)16(3)12-13-30(9,10)27(25)38/h12-13,15-16,22-25,28,40H,4,14H2,1-3,5-11H3/b13-12+/t16-,22+,23?,24?,25-,28?,31-,32?/m1/s1
INCHIAUX=
PUBMED=24926807
SUBMITUSER=lfnothias
TAGS=
LIBRARYQUALITY=3
SPECTRUMID=CCMSLIB00000424718
SCANS=1
194.552582 1724.096313
194.554626 2699.587891
194.556671 3239.102539
194.558731 2855.946289
194.560776 1770.53772
196.444733 431.915527
196.446808 2192.454102
196.448883 3328.202148
196.450974 2880.575195
196.453049 1342.124878
196.475937 1562.663696
196.478027 2305.564453
196.480103 2678.354492
196.482193 2260.923828
196.484268 1134.107544
200.235687 1224.665405
200.237823 2067.171875
200.239975 2434.831055
200.242111 2214.639648
200.244247 1573.435181
200.585159 718.396851
200.587311 2820.146973
200.589462 4225.01709
200.591599 3637.100098
200.59375 1858.164429
203.066071 1594.213501
203.068268 3040.150879
203.07045 3623.253418
203.072632 2378.695801
203.074829 335.410645
215.102615 893.000977
215.104996 2282.970215
215.107391 2922.040527
215.109772 2397.351562
215.112152 1259.605103
219.441833 1207.613647
219.44429 2063.126465
219.446747 2617.37793
219.449203 2635.597656
219.45166 2033.403442
219.454117 1046.790894
220.447556 1815.236694
220.450027 2362.359863
220.452499 2502.049805
220.454987 2030.555542
220.457458 1070.045044
225.121262 969.012451
225.123825 2845.774414
225.126373 3899.989258
225.128922 2791.342773
225.131485 203.912842
231.061234 1345.374146
231.063889 3609.979004
231.066544 3937.252441
231.069199 2262.589355
231.071854 161.552856
235.140976 700.170288
235.143707 2812.943359
235.146423 4427.313965
235.149155 4088.988281
235.151871 2131.769531
235.154602 383.300903
236.999374 1334.754272
237.002136 2192.727051
237.004883 2572.912598
237.007645 2039.251587
237.010406 880.307129
248.345627 1358.139282
248.348587 2589.542969
248.351532 3263.15625
248.354492 3166.774902
248.357452 2339.877441
248.360413 966.773315
249.119354 904.647949
249.12233 2151.47998
249.12529 3315.862305
249.128265 3220.329102
249.131241 1828.010376
253.0793 1323.455688
253.082336 2364.354004
253.085373 2794.064453
253.088425 2275.332031
253.091461 1386.008423
253.115814 1061.230347
253.118851 2199.821289
253.121887 2762.178711
253.124939 2241.429688
253.127975 1235.765991
253.149292 1097.69519
253.152328 5930.566406
253.15538 11301.692383
253.158417 13322.742188
253.161469 10195.873047
253.164505 4470.027832
253.167557 817.699829
257.109467 1247.177856
257.11261 2839.873535
257.115723 3636.090332
257.118835 2876.759277
257.121948 1024.484009
260.746002 1312.575073
260.749207 2147.793945
260.75238 2563.411621
260.755554 2336.930664
260.758759 1451.213745
263.084381 1564.124634
263.087585 4732.776367
263.09082 6525.345703
263.094055 5299.69873
263.09726 2209.849121
263.100494 212.12854
263.132751 997.206177
263.135956 4972.053711
263.139191 10604.350586
263.142426 13841.597656
263.14566 11848.172852
263.148865 6253.069336
263.1521 1328.279663
273.103668 1541.151489
273.107086 3110.143066
273.110504 4492.019531
273.113922 4496.533203
273.11731 3045.85498
273.120728 1077.8927
280.030212 1874.278931
280.033752 2425.429688
280.037292 2533.188477
280.040833 2442.71582
280.044373 2158.036133
280.047913 1450.88855
281.092072 1488.831421
281.095642 6819.805664
281.099182 12206.685547
281.102753 13106.682617
281.106323 8975.394531
281.109863 3537.904297
281.113434 43.765259
281.141937 2008.569214
281.145508 14123.873047
281.149048 31519.666016
281.152618 42093.367188
281.156189 36686.894531
281.15976 19892.25
281.1633 4742.355957
281.16687 14.398438
282.910034 2030.298218
282.913635 3155.832031
282.917236 3254.66748
282.920837 2205.239746
282.924438 569.196289
291.129242 2160.992676
291.132996 5865.736816
291.136749 8238.964844
291.140503 7343.975098
291.144257 3853.803711
291.14801 464.447998
295.417908 2055.998047
295.421753 2663.161621
295.425598 2703.391602
295.429443 2449.488281
295.433258 1908.704956
299.151947 2209.985352
299.155853 12122.867188
299.15976 24923.759766
299.163666 31039.740234
299.167572 25004.730469
299.171509 11966.462891
299.175415 1753.672974
309.135132 1309.942261
309.139252 11085.899414
309.143372 26297.419922
309.147461 36392.453125
309.151581 32766.177734
309.15567 18579.777344
309.15979 5003.174805
309.16391 63.894653
327.140839 22.472046
327.145294 3925.530762
327.14978 16492.171875
327.154236 33217.332031
327.158722 41739.109375
327.163177 34671.296875
327.167664 18194.330078
327.172119 5076.508301
327.176605 1517.334351
341.1651 2193.249512
341.169861 5664.429688
341.174622 7401.475098
341.179382 5572.1875
341.184143 1448.599731
342.607819 1999.18396
342.61261 2382.619629
342.617401 2501.557129
342.622192 2418.562988
342.626984 1843.71936
345.152252 696.471558
345.157074 2190.774902
345.161926 5039.178711
345.166779 7352.73291
345.171631 7097.92627
345.176483 4285.643066
345.181305 973.192017
351.131012 477.798706
351.135986 4454.625488
351.140961 7817.937988
351.145935 7981.456543
351.150909 5081.472168
351.155884 1854.613892
356.736359 1633.712769
356.741455 2138.539551
356.746552 2573.499023
356.751648 2531.56543
356.756714 1752.555298
359.177612 2080.005859
359.18277 4092.833984
359.187897 4166.934082
359.193054 2373.332031
359.198181 126.796387
369.149323 366.65332
369.154694 2497.887695
369.160034 6900.723633
369.165405 11505.451172
369.170746 12910.049805
369.176117 9738.30957
369.181488 4313.583008
369.186829 590.419922
369.1922 505.609497
369.197571 2807.705078
369.202911 4867.713867
369.208282 4603.603516
369.213654 2216.824707
379.179169 892.059326
379.184753 2429.891113
379.190338 3176.453125
379.195923 2410.09082
379.201508 1187.060913
385.072296 1363.259644
385.078003 3038.07373
385.08371 3329.354004
385.089417 2389.150879
385.095123 1182.46521
385.981842 2058.575684
385.987579 2333.57666
385.993317 2306.82666
385.999054 2202.801758
386.004761 1952.682983
387.16507 1266.563354
387.170837 3856.126953
387.176575 6617.961914
387.182343 6801.030762
387.18811 4245.719238
387.193848 1151.161499
397.182556 1318.945435
397.188538 5248.787598
397.194519 10346.211914
397.2005 12725.379883
397.206482 10343.032227
397.212463 5247.004395
397.218445 1104.05603
431.702942 1660.444702
431.709717 3528.005371
431.716492 3932.920898
431.723267 2780.87207
431.730042 1010.757446
451.146088 1804.229614
451.15332 2721.383301
451.160583 3488.788086
451.167816 3636.508301
451.175049 2850.762207
451.182312 1518.633911
457.202332 849.35144
457.209717 3904.862793
457.217102 6301.697266
457.224487 6329.745117
457.231873 4288.138184
457.239258 2460.260254
457.246643 1814.933472
469.163818 1863.912231
469.171478 4706.726562
469.179169 7061.679199
469.186859 6812.606445
469.194519 4347.794922
469.202209 2000.216431
479.182037 1685.900513
479.189941 7555.407715
479.197876 13182.246094
479.205811 13942.405273
479.213745 9177.71875
479.22168 2889.04248
480.015442 1504.51355
480.023376 2274.490234
480.031342 2749.118164
480.039276 2403.644043
480.047241 1451.222778
487.354675 959.635376
487.362793 2660.875
487.370911 3044.25293
487.379059 2368.197754
487.387177 1200.410522
497.192749 513.024414
497.201141 2422.61377
497.209503 4214.580566
497.217896 4572.330566
497.226257 3619.935059
497.23465 2379.252441
497.243011 1503.001099
506.254059 2017.455933
506.262665 2182.623047
506.271271 2330.44043
506.279877 2196.237793
506.288483 1401.217407
511.170349 855.943115
511.179077 3755.496094
511.187805 6847.202148
511.196564 7466.032715
511.205292 5504.856934
511.21402 3330.124512
511.222748 3179.479004
511.231476 3457.294434
511.240234 2506.792969
511.248962 976.612427
513.185059 658.424561
513.193848 3020.70752
513.202637 4972.781738
513.211426 4963.259277
513.220215 2881.537598
513.229004 325.116699
517.223694 1387.84436
517.232544 2942.647949
517.241455 3371.491211
517.250366 2292.80127
517.259216 801.866211
529.178772 1496.454468
529.187927 7286.477051
529.197144 13059.805664
529.20636 14264.963867
529.215515 9943.310547
529.224731 3832.021973
529.233948 895.424683
539.189453 988.295044
539.198914 21889.183594
539.208374 64797.828125
539.217834 106435.96875
539.227295 114079.976562
539.236755 81200.21875
539.246216 35215.621094
539.255676 6375.623047
553.05719 1128.028687
553.067017 2244.672363
553.076843 2748.538086
553.08667 2252.849609
553.096497 981.158569
557.208557 1798.335815
557.218506 4760.466797
557.228455 7484.150879
557.238342 7378.526855
557.248291 4219.187988
557.25824 526.858765
564.222046 1052.678101
564.232178 2825.598145
564.242249 5015.945801
564.25238 5826.696289
564.262512 4394.162109
564.272644 1790.320679
571.224304 1437.148315
571.234619 5985.623535
571.244934 10243.773438
571.255249 11096.467773
571.265564 7988.652832
571.275879 3492.677734
571.286194 445.05896
599.135193 1274.644409
599.14624 9969.429688
599.157349 2372.485352
599.168396 11766.450195
599.179504 1129.762329
599.190552 1216.567505
599.20166 12155.620117
599.212769 235602.921875
599.223816 804576.1875
599.234924 1478336.5
599.246033 1751030.75
599.25708 1384064.75
599.268188 686796.4375
599.279236 160822.25
599.290344 12115.426758
599.301453 4390.299805
599.3125 296.384399
617.210876 1026.202759
617.222473 7939.781738
617.234009 24855.326172
617.245605 44490.160156
617.257202 51970.890625
617.268799 40768.351562
617.280396 20476.527344
617.291992 5484.367188
653.638977 2048.381836
653.651611 2313.23291
653.664246 2471.043457
653.67688 2374.57959
653.689514 1822.946899
654.131775 2028.270874
654.14447 2377.463867
654.157104 2685.543457
654.169739 2753.024414
654.182373 2405.241211
654.195007 1882.602905
END IONS
