BEGIN IONS
PEPMASS=789.331
CHARGE=1
MSLEVEL=2
SOURCE_INSTRUMENT=LC-ESI-qTof
FILENAME=terracinolide_J.mgf
SEQ=*..*
IONMODE=Positive
ORGANISM=GNPS-LIBRARY
NAME=terracinolide J M+Na
PI=LITAUDON/TOUBOUL
DATACOLLECTOR=Esposito
SMILES=O[C@]12[C@@]([C@@H](OC(C)=O)[C@@](OC(C)=O)(C)C2)([H])[C@@H](OC3=O)[C@](CC3)(OC(C(C)C)=O)[C@H](OC(C(C)C)=O)[C@@H](OC(C)=O)[C@@H](OC(C)=O)C(C)(C)/C=C/[C@H](C)C1=O
INCHI=
INCHIAUX=
PUBMED=N/A
SUBMITUSER=lfnothias
TAGS=
LIBRARYQUALITY=1
SPECTRUMID=CCMSLIB00000840334
SCANS=1
67.054222 35.791988
69.032372 27.908871
83.04847 28.52529
95.083969 30.01849
142.017258 26.147909
159.079971 44.002602
183.113541 26.278379
201.1241 26.275961
217.083481 25.286289
227.067383 31.786989
229.119705 36.79723
235.146744 25.50742
245.116135 28.393669
247.13121 45.364571
263.140564 84.103447
271.131775 32.20401
277.155945 52.785801
279.172821 76.501503
281.148773 64.38559
293.104401 27.623119
295.129181 51.914551
295.166107 81.369202
296.138 29.010099
297.183502 26.62484
299.160248 30.944571
305.150848 46.128651
307.16568 97.308128
309.146271 61.7164
323.161224 315.281708
325.176849 101.250504
327.153076 29.75486
333.145508 63.061939
341.1716 168.738205
349.176758 32.67857
351.156036 241.408401
352.158112 42.883579
359.183685 103.546402
369.167145 262.295593
383.181427 108.3601
384.183716 30.342051
387.177032 74.305977
401.191284 59.398651
411.177582 128.437607
429.184753 68.853699
433.155029 32.394772
443.203278 26.98612
449.18988 32.760471
451.170471 66.145378
461.215393 27.136761
465.185394 50.341419
465.216461 36.24453
467.200226 57.89719
471.197693 85.232941
472.199066 25.570921
489.206451 45.406971
493.179962 126.969597
494.180145 28.334221
499.222565 35.06741
509.211853 182.615906
511.191284 220.086807
525.2052 163.809204
537.241821 31.663651
539.218628 26.20248
541.237976 43.885262
553.202026 532.899475
554.201294 63.41095
569.233398 447.692505
570.23877 89.712723
571.211731 220.597
597.263367 466.100189
598.266296 58.310909
599.237976 52.29427
601.257202 37.538139
613.223694 6526.666992
613.357544 38.326172
613.467651 29.844219
613.660278 27.494381
613.710327 42.189751
613.79303 27.04261
613.865784 30.191099
613.923096 33.621792
613.971558 36.319641
614.128113 32.87022
614.226746 769.190796
614.335571 26.57937
614.487854 25.278561
615.232544 42.372459
631.233459 1013.01001
632.236389 139.269196
641.253418 242.961502
642.256104 39.17384
657.28595 1600.416016
658.288025 257.287689
669.243042 29.61614
669.281616 97.197647
701.275635 6718.26416
701.419861 72.223557
701.615417 27.78548
701.792419 26.71253
702.000427 26.26495
702.0802 30.563841
702.27832 1043.014038
702.368408 28.670509
702.540955 30.663469
719.28064 44.72633
729.306213 817.265686
730.307617 128.905396
789.328308 24981.589844
789.478455 202.504303
789.604675 50.86372
789.639832 26.66441
789.712341 84.419746
789.776123 95.177032
789.831543 98.860497
789.86499 25.43993
789.914612 89.386307
789.980774 71.481712
790.040771 70.067757
790.102478 104.837601
790.178101 106.210197
790.246338 83.728256
790.331177 4485.645996
790.445068 73.365334
790.486206 72.878166
790.538635 32.501949
790.584167 53.245682
790.6698 65.154266
790.737366 45.288269
790.796326 40.227322
790.836731 40.035069
790.877014 42.85239
790.934509 44.246479
791.001465 59.341511
791.05481 45.26141
791.138672 43.549129
791.200317 43.339581
791.275269 61.38332
791.370422 37.52095
791.446777 56.320148
791.511597 25.850941
791.587158 33.659241
791.650757 29.069429
791.906433 34.184349
791.964905 37.70993
792.46405 27.622841
792.761108 27.901541
END IONS
