BEGIN IONS
PEPMASS=681.34
CHARGE=1
MSLEVEL=2
SOURCE_INSTRUMENT=LC-ESI-Hybrid FT
FILENAME=f.novakj/siderophores/Desferri_ornibactin_C4.mzXML;
SEQ=*..*
IONMODE=Positive
ORGANISM=GNPS-LIBRARY
NAME=Ornibactin C4 M+H
PI=Havlicek
DATACOLLECTOR=
SMILES=CC(O)CC(=O)N(O)CCCC(N)C(=O)NC(C(O)C(O)=O)C(=O)NC(CO)C(=O)NC(CCCN(O)C=O)C(=O)NCCCCN
INCHI=
INCHIAUX=
PUBMED=27956353
SUBMITUSER=novakj
TAGS=
LIBRARYQUALITY=3
SPECTRUMID=CCMSLIB00001059071
SCANS=1
167.117905 715395.0
173.496445 2421695.0
175.144104 981994.0
184.144455 1076626.0
210.624634 586147.0
217.118271 816204.0
218.113571 1269827.0
227.066269 817347.0
229.165955 611835.0
244.092834 1444884.0
246.108551 726978.0
247.176498 1852440.0
285.119385 752761.0
288.344238 681084.0
288.345398 8155804.0
295.103668 871385.0
296.087799 968528.0
313.114288 2132863.0
316.197937 1842904.0
330.129608 1409632.0
331.124786 2097143.0
334.208466 8407926.0
335.211823 1394256.0
348.140137 1249253.0
349.135254 673465.0
356.19046 1141797.0
359.119751 2575252.0
373.21936 895905.0
377.130249 2434292.0
390.140747 959237.0
417.161652 925471.0
426.162018 960802.0
435.172089 1208056.0
447.219727 2845140.0
452.198517 729581.0
454.157196 775648.0
465.230347 13721909.0
466.233704 2396440.0
468.256195 718103.0
471.183411 996873.0
472.167816 683812.0
475.214813 943285.0
489.193939 1027601.0
515.246155 1167103.0
524.246704 697525.0
525.275146 670175.0
542.257019 2076087.0
547.236084 993803.0
557.220093 734671.0
560.267517 1777477.0
565.246399 1805636.0
575.230652 1881906.0
577.294128 1509007.0
593.241333 4469121.0
594.244385 1247608.0
607.341187 718402.0
645.320435 987706.0
663.330872 4899036.0
664.33374 992068.0
681.334717 940693.0
681.34137 13110122.0
END IONS
