BEGIN IONS
PEPMASS=673.319
CHARGE=1
MSLEVEL=2
SOURCE_INSTRUMENT=LC-ESI-qTof
FILENAME=7b_13b_17-O-triacetoxy-15b-hydroxy-5a-O-methylbutyroyloxy-3b-O-propanoyloxy-14-oxopremyrsinol.mgf
SEQ=*..*
IONMODE=Positive
ORGANISM=GNPS-LIBRARY
NAME=7,13,17-O-Triacetyl-5-O-(2-methylbutyryl)-3-O-propanoyl-14-oxopremyrsinol M+Na
PI=LITAUDON/TOUBOUL
DATACOLLECTOR=Esposito
SMILES=O=C1[C@@](C)(OC(C)=O)[C@@]2([H])[C@]([C@H](OC(C)=O)C[C@@]3([H])[C@]2([H])C3(C)C)(COC(C)=O)[C@H](OC(C(C)CC)=O)[C@@]4([H])[C@@H](OC(CC)=O)[C@@H](C)C[C@@]41O
INCHI=
INCHIAUX=
PUBMED=N/A
SUBMITUSER=lfnothias
TAGS=
LIBRARYQUALITY=1
SPECTRUMID=CCMSLIB00000840343
SCANS=1
44.021278 296.760315
51.023407 231.133301
51.030937 63.01136
54.445595 69.805
55.017796 236.851898
55.023766 73.16346
55.054199 275.231812
55.061859 59.92046
57.034103 1038.588989
57.041451 207.132401
57.046581 102.9263
57.070343 7196.111816
57.076801 827.925171
57.085392 534.145081
57.090729 256.172394
57.103691 92.16346
57.11631 74.941261
58.037952 67.01786
58.073112 590.200378
58.080849 99.462837
59.050499 347.539215
59.056435 75.066177
61.268921 76.01667
65.04023 84.400002
67.054749 247.5
69.033577 264.041107
69.040062 62.674999
69.070023 587.960815
69.076653 120.587303
77.039009 537.127686
79.054916 590.536011
79.063553 138.455597
81.070274 1105.595947
81.075798 255.826508
81.087402 122.3442
83.010406 1885.457031
83.018417 226.2453
83.028053 105.222198
83.035446 66.720238
83.05011 502.760803
83.067513 72.529411
83.085571 93.666656
85.028854 524.000427
85.065338 913.889282
85.07206 119.017899
85.084732 65.351753
86.066856 177.411804
87.081375 83.038803
89.059135 101.5709
91.054787 767.263794
91.062469 170.313705
91.072899 97.889999
92.061195 91.230766
93.070267 1262.301025
93.080078 247.715302
93.088974 126.097198
95.051025 305.219086
95.085945 820.022888
95.092682 155.969803
96.053848 116.857101
97.026474 476.942291
97.064919 1006.497986
97.080627 85.769234
99.069801 111.470596
99.081322 158.283401
99.11689 66.280167
101.061005 87.84375
103.054268 133.041702
105.033409 319.959198
105.070198 798.815918
105.076256 241.963196
105.088158 65.005951
107.049492 898.356384
107.058754 84.72007
107.069901 58.605
107.085197 1852.738037
107.105644 156.469406
107.209381 60.796051
107.373215 69.333344
108.087952 189.547302
109.064415 490.027191
109.077271 62.555561
109.102097 85.942307
110.103737 71.059212
111.042847 98.564034
111.07975 503.512512
113.061478 94.644997
115.053383 114.224998
116.05558 94.004311
116.064842 62.67857
117.07074 390.730408
117.08065 72.900864
119.048531 404.403687
119.08506 1267.343994
119.093788 151.412796
119.107941 73.657608
120.088837 465.905701
121.063995 614.395386
121.100876 423.788605
123.043526 208.005402
123.08062 1123.409058
123.090858 206.320007
123.10202 91.080879
123.117645 76.03125
124.048203 77.291656
125.021034 67.175003
125.05938 1020.502991
125.068123 92.012497
125.08036 101.141296
125.096512 387.275604
125.106056 113.917297
128.061188 129.346298
128.953293 213.344803
129.070297 705.363098
129.080322 158.931
129.091858 60.901321
130.074722 111.141899
131.048538 119.347603
131.085358 1636.609985
131.094101 363.71701
131.107529 78.120087
132.086075 130.166702
133.064667 563.338928
133.074829 96.404999
133.087936 80.0
133.101151 2509.153076
133.123001 158.432693
133.131958 114.632698
134.065231 261.019592
134.105621 560.251526
134.116318 158.166397
135.043076 100.800003
135.080643 865.669922
135.089462 243.1129
135.104568 72.226852
135.119736 106.592102
136.082581 223.633804
136.090454 128.2966
137.057129 425.509399
137.06398 87.240082
137.096497 829.65387
137.108215 155.191101
137.118988 69.679047
138.06369 131.134399
139.074234 328.668488
140.115112 63.08654
141.054642 127.7556
141.06987 754.546387
141.078888 102.599998
141.09285 85.03846
142.076813 265.1633
142.090637 76.444443
143.085434 1737.030029
143.108398 140.327194
143.118225 68.564034
145.064102 244.068802
145.101501 1798.859009
145.112335 320.333313
145.125381 150.120193
146.102997 281.180206
146.111816 96.336113
147.042786 85.003777
147.080353 862.909424
147.089996 156.057693
147.117477 442.843903
147.126724 127.041702
148.119949 90.875
149.059845 246.826508
149.094681 825.233826
149.106598 169.2155
149.18959 59.64286
151.075241 402.636414
151.088898 96.828583
151.11232 96.787163
152.062164 255.5952
152.082413 161.508896
153.069519 219.572403
153.078293 93.349998
153.091843 97.004631
155.08577 911.795593
155.103363 85.132812
156.08757 216.3134
156.098679 88.125
157.063446 491.920898
157.072571 132.852295
157.101013 922.497192
158.074203 141.245895
158.104401 775.782593
159.079987 1822.000977
159.090164 260.032104
159.10408 80.612808
159.116898 623.272827
159.132431 86.375
160.086334 189.555695
160.121536 342.877686
161.059067 138.543304
161.0728 60.066669
161.096085 1125.375977
161.10614 207.015594
161.121216 86.5
161.133209 251.953506
162.12085 62.845001
162.134033 118.320099
163.07489 1213.082031
163.085693 319.454315
163.103012 77.280167
163.112839 227.801697
164.115799 65.322357
165.070374 418.070312
165.081238 77.177643
165.094086 113.306297
166.076981 231.307693
167.07103 68.11364
167.08577 737.901184
167.107071 234.332001
168.093292 189.468994
168.104538 67.166656
169.086411 66.570663
169.101135 2193.410889
169.112854 472.803314
170.103668 175.111206
170.111343 109.036301
171.080276 602.111084
171.116196 1244.916992
171.126038 219.7202
171.14357 101.716301
171.15184 83.076218
172.087128 185.225006
172.117874 196.893005
173.059372 146.449707
173.068817 78.297623
173.096481 1634.48999
173.106537 199.210007
173.122086 146.173599
173.134033 281.045288
174.063995 114.270302
174.100296 262.627411
174.110519 58.08654
174.138153 187.142395
175.075012 550.958313
175.085785 122.114304
175.112747 865.958618
175.120895 379.467194
175.132629 80.560188
176.075562 377.008911
176.117188 341.06131
176.126602 75.01667
177.090897 486.566498
177.126999 319.000885
177.143448 62.64286
178.036591 92.125
178.078217 72.78241
179.070953 105.784103
179.085419 456.036987
179.105896 525.555725
179.117004 68.224998
179.656372 61.43214
180.093536 231.165497
180.110184 65.816673
181.084198 1581.427002
181.100708 3188.051025
181.109863 830.558228
181.125458 222.612793
181.135254 108.227303
181.14682 76.685966
181.50087 71.901314
182.074677 112.446404
182.085907 508.619812
182.105453 385.013702
183.079956 928.416077
183.101212 158.906296
183.117111 2472.316895
183.128799 673.560974
183.142944 186.75
183.154785 67.003571
184.084091 122.680099
184.120148 167.656006
185.057297 615.82843
185.096527 1535.678955
185.108826 292.740112
185.132599 340.029602
186.061234 199.446198
186.098999 87.886627
186.107697 102.455597
187.075027 352.158508
187.110916 1201.723999
187.127411 164.238403
187.137955 72.907257
188.116837 419.640106
188.154434 180.408295
189.090378 723.656982
189.103348 176.938797
189.127274 494.014099
190.09668 154.843002
190.126953 74.680557
191.083084 123.521698
191.106369 358.132385
191.11676 133.008301
192.09346 226.480194
192.112289 158.641006
193.084976 114.906303
193.101044 2121.520996
193.118347 214.133102
193.127701 155.641006
193.140701 75.125
193.503754 77.764709
194.088715 108.260399
194.107513 875.938782
194.134903 85.142441
195.079346 530.858215
195.11618 3046.468018
195.128647 491.336792
195.142456 269.100189
195.153625 89.25
196.089142 264.015411
196.100311 76.639999
196.12146 701.677185
196.13475 136.571198
196.166428 92.150002
197.096222 5106.734863
197.132507 1727.750977
197.143494 337.678589
197.159561 169.100006
198.102844 1087.597046
198.116699 261.012604
198.133972 163.100403
198.144669 94.911362
198.31897 70.285713
199.075211 114.246902
199.111099 810.190918
199.12471 173.641006
199.146896 318.285492
199.159988 114.160698
200.080048 164.253998
200.112625 471.627594
200.123734 304.326904
200.149719 275.813812
201.091583 891.64093
201.104721 89.841217
201.126266 365.281006
201.53302 68.26667
202.096695 386.662415
202.112976 75.53125
202.125885 130.013901
203.067947 364.868011
203.083603 78.011902
203.107452 198.227203
203.135727 62.480259
205.082932 77.005432
205.097763 305.087311
205.123108 195.75
206.110352 94.242653
206.126495 58.532612
207.060944 168.640198
207.076385 211.028702
207.090927 72.333344
207.116531 3713.417969
207.128601 664.105896
207.14418 312.84549
207.15509 91.400002
207.53418 66.375
208.088486 108.520798
208.09874 57.450001
208.122757 615.610229
209.095215 786.026489
209.11174 126.230797
209.132507 2751.719971
209.144943 385.001404
209.159485 164.570999
209.171707 79.215424
210.101929 612.96051
210.136826 888.560913
210.162567 87.326607
211.075974 164.756302
211.111557 4547.653809
211.12384 838.474915
211.147202 1744.396973
211.1604 374.736786
211.174805 146.422394
212.084 220.011795
212.09404 95.041656
212.114426 1406.115967
212.13002 123.184196
212.151566 295.263
213.089111 302.118408
213.102081 107.670502
213.127289 920.0625
213.144913 147.8526
213.162003 148.198502
213.171677 68.102272
214.133484 83.231483
214.169067 208.559998
215.108139 832.224487
215.141708 292.104187
215.178329 139.988602
216.108902 126.387802
216.145523 240.408997
216.15416 71.375
217.09964 179.240005
217.125381 272.9263
217.136322 69.04348
218.10704 87.671303
218.126984 67.007347
219.034225 94.75
219.061142 93.409088
219.102783 126.805298
219.116806 1353.244995
219.135208 263.992798
220.086853 94.107452
220.12561 476.043701
221.097321 431.618286
221.110214 188.181793
221.132385 815.312927
221.145706 280.363586
221.154541 203.231598
222.08374 92.454536
222.103409 518.814514
222.117767 147.818207
222.142899 215.919998
223.092865 101.883499
223.112366 1248.364014
223.147446 1719.292969
223.176178 199.410294
224.085602 97.072678
224.119247 305.007812
224.132126 101.289398
224.155151 960.675903
224.180069 111.028801
225.088348 76.382927
225.111633 147.001907
225.127472 3912.532959
225.139633 567.06012
225.164551 4046.876953
225.192505 308.894592
225.207611 103.882401
225.536804 69.349998
225.82402 76.515244
226.100494 95.91848
226.130219 735.138489
226.14238 163.177597
226.167053 636.515198
226.183228 102.406898
227.082504 81.728447
227.108154 977.543701
227.142792 1211.57605
227.160156 141.002304
227.172867 206.490402
227.186951 97.449997
228.143311 79.458344
228.152725 93.125
229.084229 202.546906
229.125183 397.571411
229.158203 371.449097
230.125427 142.197601
230.164398 101.265602
231.116409 95.782257
231.13913 209.176498
232.119537 128.778793
233.080307 197.426193
233.093887 169.698196
233.116791 138.226898
233.130753 413.864197
233.138504 133.680603
233.151291 113.006599
234.083099 68.449074
234.104813 772.140503
234.118713 130.360306
234.140121 680.990479
234.152283 217.696106
234.171249 89.926277
235.095291 132.495895
235.111572 2526.133057
235.148514 3386.326904
235.178314 345.928894
236.066406 76.694443
236.114441 633.447388
236.152435 679.106628
236.62294 91.375
237.088852 81.404999
237.111679 245.799103
237.127609 4704.790039
237.139465 705.061279
237.163757 1568.255981
237.176208 377.467804
237.192688 148.0
237.451248 111.1856
238.130569 1055.340942
238.165802 259.625
238.180161 64.326607
239.107254 778.449097
239.143188 920.933716
239.158676 186.846207
239.179108 1541.099976
239.207413 144.903702
240.146637 151.657806
240.182678 725.375
240.195282 113.243896
241.121857 349.063385
241.132233 69.18409
241.159576 396.283386
241.187286 193.023804
242.125168 238.2453
243.136795 216.0
243.174423 1293.994995
243.188919 330.001007
243.204132 76.671303
244.127304 206.983505
244.178314 251.888901
244.745438 116.210503
245.12648 117.800003
245.152145 82.827583
245.184586 118.25
246.119781 73.118423
246.137115 102.520798
247.112198 365.647095
247.129608 112.307701
247.147614 748.949219
247.161926 116.136101
247.174698 139.727295
248.116272 211.076004
248.151367 143.25
249.113205 205.612396
249.127136 648.177429
249.144028 103.556801
249.163879 5439.435059
249.217651 72.245689
249.635498 58.80278
250.133881 275.959686
250.168289 1130.0
250.180862 330.000793
250.196075 87.224998
250.566528 66.64286
251.142685 1973.082031
251.156555 504.636108
251.180023 897.445374
251.195908 228.195099
251.210846 76.603569
252.115662 355.210388
252.149628 2893.290039
252.178497 492.079987
253.121307 2522.737061
253.137421 397.444611
253.158539 15068.259766
253.226456 80.666656
253.534073 66.089996
253.773331 82.444771
254.125107 476.718414
254.161972 3845.082031
254.173615 871.155579
254.192001 274.880493
254.647888 62.010422
255.137772 703.263977
255.148911 268.004913
255.166168 548.495178
255.180984 176.800003
255.19545 75.959999
256.138245 150.337997
256.17804 255.792892
256.187653 72.226852
257.104401 68.390633
257.117401 230.106705
257.138489 105.784103
257.187195 124.880402
258.118347 77.941177
259.147369 930.01593
259.170502 139.416702
260.152283 182.408905
260.169922 61.235291
261.067444 69.416656
261.126251 245.413803
261.157043 157.063797
262.13562 896.781982
262.145203 279.407593
262.166962 69.347221
263.087952 566.456909
263.102264 116.142899
263.140717 246.231598
263.180603 66.032143
263.197144 67.289284
265.159088 1697.916016
265.189056 97.445
266.141327 116.512497
266.163879 273.803314
266.181976 295.145599
267.137634 323.661407
267.152588 217.415207
267.174194 15460.849609
267.205688 1103.572021
267.220795 380.778412
267.245209 108.531898
267.348572 68.005432
267.756653 66.979652
268.14212 121.016701
268.177948 3737.541016
268.192261 790.245605
268.210449 330.314087
268.225037 80.64286
268.815491 61.038792
269.086975 81.045464
269.153107 670.017883
269.187408 438.065186
270.159668 276.597687
270.181519 161.457108
270.194427 165.410202
270.283203 62.339291
271.132355 145.255295
271.142059 61.333328
271.169708 1370.625
271.185394 225.003601
271.200989 95.041656
272.170837 255.379501
272.187195 76.494873
274.134338 274.66449
274.143402 111.133102
274.162994 198.349503
275.126831 148.720093
275.141144 359.315613
276.142426 131.153793
277.158417 8125.233887
277.171478 1609.508057
277.18988 569.414185
277.20282 214.001694
277.216125 101.148102
277.229156 68.644997
277.279755 62.92046
277.84671 81.349998
278.162659 1990.100952
278.193726 150.349594
279.08548 83.115738
279.125 72.680557
279.135742 67.446426
279.152466 80.25
279.168182 290.521515
280.151031 269.001709
280.16684 95.570663
281.115753 101.531898
281.148407 182.282593
281.191772 115.5
282.121643 78.599998
282.160614 144.186707
283.168793 932.15918
283.203583 134.75
283.215302 88.447357
284.138367 60.75
284.170166 288.128387
285.148132 110.8526
285.159637 63.637199
285.184967 4618.298828
285.21759 384.023407
286.152649 81.157051
286.187683 1271.608032
286.221344 87.247643
287.141083 694.346985
287.163757 69.14286
287.191803 163.214905
288.143341 96.29657
288.190948 155.074997
289.153015 219.943802
289.166351 122.231598
290.158539 65.574997
291.17691 175.880096
291.19693 59.55603
292.175903 83.840118
293.153503 237.789093
295.117645 66.321426
295.131226 65.0625
295.169617 18997.419922
295.202606 1344.124023
295.244049 141.202301
295.273499 76.470741
295.368561 66.736107
295.408051 84.01136
295.517151 69.027443
295.586151 81.247643
295.629974 91.230766
295.795868 83.375
295.818604 68.125
296.171967 5241.194824
296.187012 959.900024
296.20462 435.803314
296.663666 63.07692
297.149841 128.142899
297.178589 360.098785
297.207397 66.125
298.15802 117.306801
299.138947 116.408798
299.203552 247.931702
301.179352 162.053299
301.190704 100.656799
303.119232 99.909088
303.196472 761.356689
303.213379 208.462906
304.136383 164.222794
304.147552 92.001633
304.202942 211.5
304.219421 58.367649
304.778839 68.960533
305.150177 213.009796
305.164185 74.125
306.154053 142.041702
306.169067 57.57143
306.225708 63.326611
307.170197 150.197403
307.196716 103.777802
309.186798 611.45813
309.200745 149.938904
310.19046 207.3311
311.163696 325.375
311.193207 125.027802
311.209473 97.805
312.176605 79.245003
312.208313 101.510399
312.229492 58.333328
313.179871 5604.724121
313.216888 452.9086
313.234375 180.0
314.182831 1704.895996
314.21579 122.564796
315.185974 171.130905
317.151093 8952.43457
317.184723 681.30719
317.772797 66.905487
318.155151 2401.781982
318.171631 375.330688
318.187805 190.736099
318.205322 76.48214
318.683289 59.337959
319.157257 580.275024
319.174072 147.326904
319.187866 126.009598
321.092133 419.778992
321.105042 122.235298
321.180969 98.768623
322.102264 145.240707
323.110992 1368.704956
323.129974 301.760406
323.145416 109.1008
323.200531 161.413193
324.113647 107.130898
325.179413 121.485298
325.924805 69.291656
326.190216 67.840912
327.152863 106.625
327.193878 1563.656006
327.216309 223.493896
328.200317 386.004791
329.176178 90.63636
331.185028 178.725906
333.190033 59.480259
334.152527 157.358002
335.161865 1161.93396
335.177246 286.438599
335.19574 78.5
336.164886 126.510597
337.179413 773.11322
337.195526 239.349594
337.211121 130.678604
338.183197 134.630203
340.200256 93.002449
341.211426 897.377319
341.229889 134.461502
342.217957 212.421494
342.23587 65.089287
343.153809 71.160713
343.217316 162.917007
346.209351 112.520798
346.657471 62.226849
347.198059 198.347198
348.163208 57.840912
349.175385 789.124329
349.19693 78.361107
350.180115 322.074585
351.195374 926.556885
351.228638 77.347221
352.197571 389.177307
352.212799 131.011398
353.164612 142.351807
353.208191 72.111839
354.174744 120.030296
354.217041 239.146698
355.190125 2238.864014
355.204254 286.75
355.224182 300.051086
356.193939 502.144714
357.170624 59.0
357.199188 428.013885
357.218475 76.886627
359.161285 174.882401
359.174896 78.448273
359.216827 102.884598
359.227753 60.01786
360.225922 202.321396
363.084595 60.005951
364.362213 184.054901
364.37561 80.199997
368.194672 78.360291
369.206268 2008.46106
369.241272 273.697815
369.270844 65.084457
370.209473 526.778015
370.223389 167.911301
370.249207 88.368423
371.210754 131.166107
372.757355 126.884598
373.203125 649.484375
373.217957 71.041656
373.236206 74.422417
373.987183 67.013893
377.172241 8221.946289
377.187897 1641.046021
377.208069 772.125
377.224182 224.432693
377.242188 92.764832
377.760742 64.025002
378.174744 1754.340942
378.219513 121.004303
379.180725 517.432922
379.20166 127.083298
379.222046 83.160713
380.184692 77.675003
382.813965 76.333344
385.242432 70.053574
387.216339 308.678589
387.240631 74.508926
388.220734 105.538498
390.978119 93.571426
391.187561 9315.305664
391.223877 756.226074
391.724609 62.404999
392.192108 2356.304932
392.210602 550.680176
392.225494 191.111099
392.892548 64.036293
393.164948 122.010399
393.193237 414.443512
393.208466 146.122101
394.177216 122.027802
394.194305 84.666656
395.182159 6475.412109
395.197479 1347.261963
395.219208 399.0625
395.518738 59.247639
395.605835 63.695511
395.622345 64.308823
395.75592 83.333344
396.187134 1484.251953
396.233826 105.920502
396.440765 57.512501
396.696198 70.756149
397.191986 440.200806
397.239014 226.740097
398.243195 104.568398
401.228607 272.969788
402.235718 83.285713
408.225433 70.349136
409.199097 564.308716
409.222717 118.025002
410.201782 330.283813
410.220001 152.508896
411.219788 347.878204
411.239105 78.45153
412.218597 265.449097
412.234222 68.532608
413.191681 663.817017
413.215057 177.789505
414.199615 70.625
415.215332 103.058998
415.245026 115.224503
416.250397 194.6875
419.221008 328.593109
420.221436 134.114304
421.203918 74.083344
422.209534 103.734802
423.21402 76.408333
425.213837 82.521553
429.226532 760.052307
429.24649 215.360992
429.265106 175.2258
430.22998 338.090912
436.223724 92.084457
437.19339 5374.740234
437.231903 763.119995
437.256653 147.469498
438.19693 1800.0
438.235229 144.360306
438.993835 70.011902
439.195496 392.678802
440.249603 71.570663
442.232483 60.57143
443.278351 145.005402
443.291138 58.44643
449.238403 81.089287
451.208496 15604.0
451.249084 1148.94104
451.321014 73.012497
451.613403 63.038792
451.986816 79.034088
452.005188 68.211197
452.158539 69.308823
452.212555 5398.420898
452.277039 105.6036
452.39444 82.666656
452.760254 68.004631
452.778473 89.259613
452.79364 69.01786
453.21402 1183.227051
453.231689 271.347198
453.25943 134.080399
453.274658 64.099998
453.643188 60.44643
454.215424 368.343414
454.397217 66.125
455.20343 12540.509766
455.244324 854.070374
455.277832 136.072693
455.296417 82.052643
455.567993 116.043098
455.757751 86.594391
456.012054 60.16346
456.034515 140.814499
456.207672 5567.368164
456.225464 1152.177002
456.245911 398.01889
456.267273 105.458298
456.308685 75.004044
456.326447 65.545464
456.492889 69.17308
457.212616 857.960022
457.238708 80.347221
457.257568 90.125
457.278992 91.889153
458.196594 96.08036
458.212311 85.720589
469.220978 588.894592
469.259277 58.160709
470.223022 470.167786
470.244019 140.760406
472.277985 103.003403
473.213257 209.009506
479.238037 1054.795044
480.242798 496.28421
480.261536 189.859604
481.245209 85.692307
483.228394 163.132797
483.241241 94.930229
489.250732 215.197403
493.255402 8687.514648
493.628021 57.285709
493.858582 57.470589
494.126343 107.382896
494.259308 3427.230957
494.297089 264.449493
494.980133 58.53289
495.264343 781.618225
495.2854 104.015404
496.239929 59.640629
496.264191 109.25
496.28006 65.960114
497.218964 89.285713
497.250488 380.952911
497.266205 190.155899
511.194183 70.78125
511.229889 15777.759766
511.554413 73.879044
511.65979 82.171608
511.684479 64.889153
511.711578 90.485291
511.770996 62.160709
512.204529 110.920097
512.233032 5793.338867
512.316284 69.0
512.459961 89.402779
512.564209 73.025002
512.580933 82.708344
512.840393 66.030403
512.955444 60.244999
513.233948 794.853516
513.274963 122.612801
513.302795 96.644997
513.549622 93.328949
514.111267 62.46944
514.242676 140.067307
515.185791 65.79348
515.225464 9484.385742
515.744324 73.291656
515.920166 113.555702
516.227661 3647.446045
516.272156 287.880188
516.4953 85.446426
517.23114 829.108276
517.601562 64.185608
518.234924 118.558098
518.258118 65.480766
529.245056 354.422211
529.738586 61.96196
530.245239 138.432693
531.237976 77.976349
531.298035 108.202301
539.26123 1041.042969
539.307434 89.230766
540.264832 421.600708
540.288269 91.59259
541.264526 113.737198
553.2771 27563.710938
553.52832 65.612808
553.551941 116.570297
553.620911 71.8125
553.674683 78.556038
553.700378 82.520844
553.768188 93.712341
553.791504 67.988876
553.828247 74.198532
553.846924 85.311798
553.870483 65.704002
553.917542 101.027397
553.997681 65.85601
554.013489 57.619259
554.062622 80.431122
554.090027 102.480797
554.118469 70.720238
554.158813 72.559998
554.207764 134.775604
554.280334 11940.339844
554.377014 69.423668
554.593933 71.366341
554.61322 89.024712
554.640869 62.014709
554.761841 57.408329
554.782104 113.900002
554.795532 97.049606
554.890503 91.375
554.914307 85.034088
555.020081 57.714291
555.282898 2474.320068
555.345581 85.025002
555.446899 57.375
555.869629 104.002701
556.284668 412.491394
556.30896 91.002777
556.628357 60.150002
561.008606 75.125
571.25177 8921.666016
571.33136 100.469398
571.562073 59.047619
571.644226 101.688904
571.761963 62.890629
571.957336 80.703949
572.254517 4740.629883
572.380188 73.408783
572.755371 62.002781
573.184448 81.061569
573.221191 82.235291
573.258789 1100.886963
573.302917 156.531601
573.325989 78.83696
574.255737 164.382996
574.279053 110.211197
590.235291 70.003777
592.323425 62.164471
613.29895 27458.609375
613.600403 89.260406
613.630066 80.002663
613.677856 69.266296
613.69812 109.481499
613.716125 106.428902
613.765747 76.322113
613.870972 91.32753
613.889282 89.008331
613.95636 65.422821
613.973511 94.313347
614.161499 84.0625
614.179016 71.185608
614.20813 69.25
614.270325 138.107498
614.302429 11919.0
614.390564 140.796707
614.410706 144.435196
614.539612 60.46376
614.561584 68.709381
614.577515 61.18626
614.657471 70.908813
614.947266 74.818176
615.303833 3139.302979
615.409729 106.440498
615.449524 63.25
615.463684 78.211197
616.306824 659.605774
616.334351 145.044998
617.022705 62.48214
670.008179 86.793602
673.272278 104.654099
673.319275 57215.410156
673.766174 65.147057
673.833374 93.728683
673.867126 169.070007
673.899231 68.142967
673.920898 133.037994
673.954224 94.462387
673.986328 177.8759
674.01532 145.434494
674.039429 91.742523
674.072754 125.083298
674.10022 186.210098
674.132324 97.692307
674.157532 75.194443
674.184204 58.04924
674.322571 26570.970703
674.540894 58.36618
674.58374 161.946899
674.644836 58.70219
674.683289 169.368607
674.7052 141.713104
674.73584 97.741089
674.77887 183.449005
674.810852 108.040199
674.835815 104.744102
674.871948 78.724403
674.897095 131.433807
674.924683 112.413696
674.949219 132.632706
674.987427 60.61747
675.012329 98.436798
675.053406 91.717468
675.078796 126.046097
675.110657 68.441879
675.136414 68.418152
675.1651 123.0298
675.22699 68.487862
675.280884 111.712303
675.325928 7893.012207
675.416321 114.329201
675.447449 65.882278
675.469788 145.633102
675.525391 60.347389
675.610962 90.172867
675.72699 78.693962
675.743591 119.955299
675.778748 128.409103
675.835999 74.938828
675.852722 137.854401
675.867249 112.25
675.903015 88.041656
675.930908 107.490402
675.949219 86.60318
676.001831 80.45797
676.039429 77.608849
676.110962 63.14286
676.220459 97.610001
676.240479 69.192062
676.325012 1160.124023
676.378723 94.173813
676.410645 78.574997
676.499329 95.272728
677.184143 59.005951
677.265259 77.080132
677.28363 60.197578
END IONS
