BEGIN IONS
PEPMASS=1104.77
CHARGE=1
MSLEVEL=2
SOURCE_INSTRUMENT=LC-ESI-Orbitrap
FILENAME=f.lfnothias/1901_fungal_symbiont_annotation_confirmation/Pure_compounds/Pure_compounds_mzML/LeucinostatinAandB_1uL.mzML;
SEQ=*..*
IONMODE=Positive
ORGANISM=GNPS-LIBRARY
NAME=Leucinostatin D M+H putative observed in leucinostatin A/B standard M+H
PI=Dorrestein
DATACOLLECTOR=lfnothias
SMILES=CC[C@H](C)/C=C/C(=O)N1C[C@@H](CC1C(=O)NC(CC(C)C)C(=O)NC(C(C(C)C)O)C(=O)NC(C)(C)C(=O)NC(CC(C)C)C(=O)NC(CC(C)C)C(=O)NC(C)(C)C(=O)NC(C)(C)C(=O)NCCC(=O)NC(C)CNC)C
INCHI=InChI=1S/C56H101N11O11/c1-20-35(10)21-22-43(69)67-30-36(11)28-41(67)49(74)61-38(25-31(2)3)47(72)63-44(45(70)34(8)9)50(75)65-55(15,16)52(77)62-39(26-32(4)5)46(71)60-40(27-33(6)7)48(73)64-56(17,18)53(78)66-54(13,14)51(76)58-24-23-42(68)59-37(12)29-57-19/h21-22,31-41,44-45,57,70H,20,23-30H2,1-19H3,(H,58,76)(H,59,68)(H,60,71)(H,61,74)(H,62,77)(H,63,72)(H,64,73)(H,65,75)(H,66,78)/b22-21+/t35-,36+,37?,38?,39?,40?,41?,44?,45?/m0/s1
INCHIAUX=RDUJTYZLXJPVKP-YDZNBPEVSA-N
PUBMED=
SUBMITUSER=lfnothias
TAGS=
LIBRARYQUALITY=3
SPECTRUMID=CCMSLIB00005435724
SCANS=2098
70.960701 2216.166504
71.53759 1948.940308
79.497482 1960.192627
84.080894 11366.217773
88.075928 2227.179688
90.638031 2042.619507
91.862885 4584.146484
99.188469 2539.608154
111.080498 9484.354492
117.782623 2327.375977
125.106407 2459.374023
142.133545 2624.968994
146.665924 2197.345215
194.153656 38799.539062
222.148956 31509.25
242.812027 2444.301025
272.18512 2448.107422
335.231903 5795.603516
410.731567 2680.056152
419.832458 2606.36084
446.300812 5937.355957
531.353088 5414.88623
617.123657 2624.474121
END IONS
