BEGIN IONS
PEPMASS=1281.83
CHARGE=1
MSLEVEL=2
SOURCE_INSTRUMENT=LC-ESI-qTof
FILENAME=f.amcaraballor/DorresteinLab_AMCR_2018/2018_02_12_NSF_FGA_Plates1_2_mzXML/PD-FGA-21_BD2_01_8377.mzXML;
SEQ=*..*
IONMODE=Positive
ORGANISM=GNPS-LIBRARY
NAME=Putative orfamide B M+H
PI=Dorrestein
DATACOLLECTOR=amcaraballor
SMILES=CCCCCCCCCCCC(O)CC(NC(C(NC(C(NC1C(C)OC(C(C(C)C)NC(C(CO)NC(C(CC(C)C)NC(C(CC(C)C)NC(C(CO)NC(C(CC(C)C)NC(C(C(C)C)NC1=O)=O)=O)=O)=O)=O)=O)=O)=O)CCC(O)=O)=O)CC(C)C)=O
INCHI=InChI=1S/C63H112N10O17/c1-15-16-17-18-19-20-21-22-23-24-41(76)31-49(77)64-43(27-34(2)3)55(81)65-42(25-26-50(78)79)54(80)73-53-40(14)90-63(89)52(39(12)13)72-60(86)48(33-75)70-57(83)45(29-36(6)7)66-56(82)44(28-35(4)5)67-59(85)47(32-74)69-58(84)46(30-37(8)9)68-61(87)51(38(10)11)71-62(53)88/h34-48,51-53,74-76H,15-33H2,1-14H3,(H,64,77)(H,65,81)(H,66,82)(H,67,85)(H,68,87)(H,69,84)(H,70,83)(H,71,88)(H,72,86)(H,73,80)(H,78,79)
INCHIAUX=
PUBMED=N/A
SUBMITUSER=amcaraballor
TAGS=
LIBRARYQUALITY=3
SPECTRUMID=CCMSLIB00004679299
SCANS=2891
98.440712 34.0
99.580223 36.0
101.335655 57.0
102.053032 145.0
102.153618 57.0
102.470825 35.0
102.870384 44.0
103.056625 61.0
103.129318 42.0
103.533455 49.0
104.427185 32.0
104.529617 53.0
105.133049 39.0
106.13736 42.0
106.963158 54.0
107.990944 26.0
108.624931 27.0
108.65937 73.0
111.916725 38.0
112.109344 50.0
112.695892 42.0
114.086151 120.0
114.492912 86.0
114.834839 32.0
116.16552 27.0
117.079582 42.0
117.595062 53.0
118.971634 49.0
119.406281 50.0
123.116394 110.0
124.053398 42.0
124.267006 36.0
126.015488 66.0
126.22921 57.0
126.499748 30.0
128.163849 89.0
128.267624 55.0
132.20076 27.0
133.334732 32.0
133.617523 33.0
134.821289 48.0
135.640594 46.0
136.456848 33.0
137.311844 33.0
138.08934 66.0
139.083725 66.0
139.127075 98.0
141.033936 36.0
141.282867 35.0
143.105423 38.0
147.507233 66.0
148.271347 35.0
150.059219 90.0
151.778625 48.0
152.094193 53.0
153.112457 66.0
154.059235 87.0
155.117554 419.0
157.09642 48.0
157.177811 52.0
159.114136 195.0
159.991638 39.0
160.872055 28.0
162.184418 40.0
162.622955 50.0
162.96463 44.0
162.990036 35.0
163.070297 55.0
164.525589 27.0
165.00383 46.0
166.981064 72.0
167.081116 144.0
167.11264 106.0
169.099518 137.0
170.132416 76.0
170.552231 49.0
171.070541 77.0
173.130615 312.0
174.137802 81.0
175.332031 55.0
177.138031 80.0
178.004166 36.0
178.279358 83.0
178.376266 70.0
181.762039 98.0
182.326263 39.0
182.456482 31.0
183.108536 430.0
184.11351 55.0
185.08844 68.0
185.137161 32.0
185.165604 108.0
185.731964 42.0
187.071625 176.0
187.103424 84.0
187.14357 59.0
189.188248 32.0
189.772217 44.0
190.125259 49.0
190.536789 52.0
190.624268 50.0
194.790314 26.0
195.075943 436.0
195.124939 103.0
196.085007 114.0
197.126999 83.0
199.180252 216.0
201.125076 1441.0
201.573257 37.0
202.128662 103.0
203.10202 324.0
204.78299 45.0
205.119385 733.0
205.726288 37.0
206.116776 64.0
209.341125 38.0
209.378708 51.0
210.199509 42.0
210.75798 56.0
210.827637 59.0
211.148544 50.0
211.186722 33.0
211.329422 110.0
211.81572 26.0
212.199524 52.0
213.087021 3334.0
213.157913 281.0
213.194809 45.0
214.090775 311.0
214.137695 50.0
214.172623 219.0
214.504791 42.0
215.107346 85.0
215.157623 78.0
215.203247 33.0
215.72377 72.0
215.927307 26.0
216.845413 45.0
218.140335 86.0
218.447235 34.0
219.13092 115.0
220.139511 111.0
221.875168 52.0
223.982498 33.0
224.138809 146.0
224.327606 67.0
225.125885 163.0
227.081268 68.0
227.137405 85.0
227.172363 393.0
227.370468 33.0
228.154343 68.0
228.188278 66.0
229.374786 65.0
230.111954 57.0
231.097733 361.0
231.162766 75.0
231.960754 41.0
232.368851 53.0
233.796646 60.0
235.113373 74.0
236.106659 47.0
238.117386 69.0
239.956573 49.0
240.529984 30.0
241.183685 27.0
241.346741 28.0
242.141968 418.0
242.18663 41.0
243.13118 97.0
243.281296 87.0
244.229767 55.0
244.383514 30.0
245.146286 53.0
245.190323 122.0
248.536652 28.0
248.944519 73.0
248.994873 53.0
251.128204 67.0
251.177765 184.0
251.435883 50.0
252.14389 69.0
252.290878 29.0
252.685699 27.0
255.167175 269.0
255.353851 39.0
256.131317 82.0
257.17746 97.0
258.146332 74.0
258.756134 58.0
259.796722 41.0
260.158997 287.0
260.193329 35.0
260.234253 70.0
262.995453 36.0
265.158539 80.0
265.675995 77.0
266.149567 549.0
267.155396 94.0
268.202942 60.0
268.281494 68.0
269.113312 99.0
269.188507 205.0
270.1474 224.0
270.192505 48.0
270.590607 51.0
271.325562 33.0
271.781891 33.0
273.180908 150.0
273.429413 26.0
276.442719 29.0
276.488373 62.0
279.187073 234.0
280.95697 81.0
281.070526 46.0
281.146515 97.0
281.216888 77.0
281.343597 37.0
281.679565 32.0
282.182617 507.0
283.192993 44.0
284.161652 900.0
285.209747 95.0
286.141266 305.0
286.211548 51.0
286.241913 26.0
287.17157 65.0
287.648682 28.0
288.160339 83.0
292.122986 27.0
292.159119 33.0
293.218506 33.0
294.146027 415.0
294.292542 116.0
295.141937 295.0
295.18045 57.0
295.807465 61.0
296.148926 223.0
296.195374 1957.0
296.288666 37.0
297.198914 211.0
297.279236 97.0
298.167175 61.0
298.269806 76.0
299.883789 42.0
300.192902 991.0
300.23642 73.0
300.288666 78.0
300.837738 40.0
301.200073 109.0
301.359528 83.0
301.517761 39.0
302.170349 125.0
303.164642 42.0
303.80365 31.0
304.165161 87.0
308.156982 77.0
311.194458 62.0
311.605927 55.0
312.156311 1564.0
312.290497 3505.0
312.396423 45.0
312.610962 51.0
312.688873 46.0
313.081451 42.0
313.159393 567.0
313.189728 163.0
313.292511 916.0
314.085754 70.0
314.163452 106.0
314.209198 2858.0
314.295441 152.0
315.164124 34.0
315.210541 489.0
315.437775 104.0
316.144958 88.0
316.206787 88.0
316.299896 80.0
318.203857 2474.0
318.331116 49.0
318.443542 43.0
319.090363 76.0
319.204712 318.0
319.762665 34.0
320.191803 57.0
320.669189 53.0
322.132629 51.0
322.275696 554.0
322.395477 45.0
323.208038 62.0
323.239624 96.0
323.292236 110.0
323.525299 38.0
323.869293 34.0
324.069061 33.0
324.188904 339.0
325.191772 101.0
326.173523 328.0
326.241425 226.0
326.26886 139.0
327.243378 187.0
327.75 61.0
328.177979 153.0
329.197754 76.0
329.985016 67.0
330.118713 45.0
330.167084 837.0
330.249878 73.0
330.301666 70.0
331.169678 147.0
331.250031 68.0
332.187225 116.0
332.228577 93.0
333.22406 104.0
333.649872 55.0
336.038727 30.0
337.215302 38.0
337.630859 35.0
338.201874 128.0
338.872864 29.0
339.230988 90.0
339.268341 34.0
340.140381 74.0
340.185547 111.0
340.214752 66.0
340.285156 9153.0
340.383331 58.0
340.526672 49.0
340.935364 30.0
341.223236 226.0
341.245331 270.0
341.288177 2074.0
342.155518 105.0
342.199646 134.0
342.234467 133.0
342.282837 117.0
342.929962 43.0
343.2995 83.0
343.721375 37.0
344.253632 118.0
345.202942 41.0
346.808319 27.0
348.182922 111.0
349.179657 99.0
350.240509 69.0
350.283447 61.0
350.517456 54.0
351.197021 171.0
351.751587 56.0
352.199707 80.0
355.154388 59.0
355.24118 151.0
356.225708 54.0
356.553741 36.0
356.577911 30.0
356.887726 51.0
359.081787 67.0
359.228149 195.0
359.463196 57.0
360.060059 45.0
360.23172 139.0
361.167847 48.0
365.167114 49.0
365.217133 728.0
365.311676 60.0
366.226807 249.0
366.835754 47.0
367.273315 268.0
368.258423 176.0
368.299988 81.0
369.216003 475.0
370.156708 65.0
370.212708 184.0
371.092499 62.0
373.248352 155.0
374.217621 56.0
376.189056 27.0
378.087036 66.0
378.164917 54.0
378.187347 50.0
378.237976 58.0
379.227325 260.0
380.305115 38.0
381.15741 34.0
381.175201 56.0
381.328308 81.0
382.270355 353.0
382.771881 33.0
383.176819 99.0
383.23111 2710.0
384.229065 819.0
384.338409 32.0
384.450684 33.0
385.201141 36.0
385.284393 487.0
385.769348 50.0
386.161438 81.0
386.263367 232.0
387.218964 743.0
387.269104 124.0
388.218353 51.0
388.263733 46.0
388.660278 39.0
389.188873 26.0
390.021484 54.0
390.230255 67.0
391.081451 33.0
391.282379 54.0
391.439331 40.0
391.829346 37.0
391.853363 36.0
393.07843 46.0
393.222565 149.0
393.790833 37.0
395.19577 52.0
395.268005 728.0
395.633362 27.0
396.266571 271.0
396.33667 33.0
397.215179 108.0
397.248535 377.0
398.23877 60.0
398.655029 50.0
398.809235 31.0
398.88562 45.0
399.18869 420.0
399.298065 598.0
399.366943 36.0
399.950714 43.0
400.197235 121.0
400.257904 65.0
400.309448 91.0
400.322815 129.0
401.196289 170.0
401.241333 1396.0
401.308868 75.0
402.173187 56.0
402.191742 65.0
402.237244 467.0
402.270111 108.0
402.710663 48.0
403.250458 71.0
403.916931 29.0
404.155304 81.0
404.419739 40.0
405.169098 32.0
405.233521 169.0
406.786621 77.0
407.226746 469.0
408.080414 67.0
408.216827 50.0
408.241425 46.0
409.281677 464.0
410.278839 124.0
410.31842 84.0
411.177704 32.0
411.238251 245.0
412.225067 84.0
412.36377 45.0
412.394165 44.0
413.225006 198.0
413.276398 1696.0
413.33728 46.0
414.0466 71.0
414.208923 61.0
414.27594 257.0
414.965027 32.0
415.252228 369.0
415.287689 70.0
416.219604 48.0
416.734955 50.0
417.100311 113.0
417.197205 988.0
417.265594 1223.0
418.206726 236.0
418.275391 222.0
418.815613 38.0
419.203186 66.0
419.264557 178.0
419.522308 32.0
420.012299 51.0
420.212891 94.0
420.395599 59.0
420.778046 48.0
421.245758 101.0
421.335114 32.0
423.235291 48.0
423.326111 35.0
424.184845 59.0
424.329498 62.0
425.194702 138.0
425.239532 1581.0
426.243317 336.0
426.852814 51.0
427.042664 73.0
427.163757 50.0
427.208466 153.0
427.290771 2904.0
427.549561 63.0
427.697144 35.0
427.951569 49.0
428.29538 801.0
429.232269 269.0
429.307495 134.0
430.37146 34.0
430.436859 63.0
431.136871 46.0
431.210815 88.0
431.286591 1787.0
431.388794 81.0
431.4216 75.0
431.738281 44.0
431.972076 33.0
432.161682 63.0
432.221191 50.0
432.283173 423.0
432.573059 54.0
432.653717 38.0
433.108551 84.0
433.286316 62.0
433.626129 38.0
434.227417 40.0
435.254761 59.0
436.287231 144.0
436.452667 32.0
437.199005 64.0
437.276215 151.0
439.198639 72.0
439.229797 58.0
439.276367 88.0
439.35553 96.0
440.217743 75.0
440.266907 109.0
442.26593 76.0
443.255463 514.0
443.554749 43.0
444.255707 252.0
444.73822 42.0
445.182281 71.0
445.293915 132.0
446.248138 47.0
449.253784 85.0
449.319855 82.0
449.841766 32.0
450.297333 58.0
450.499725 42.0
451.084534 51.0
451.243103 49.0
451.28952 158.0
451.449097 56.0
452.236084 80.0
452.315765 87.0
452.892273 44.0
453.251831 29.0
453.355988 148.0
454.302063 286.0
455.248566 51.0
455.287384 166.0
455.466309 91.0
456.092194 64.0
456.248566 91.0
456.286926 111.0
457.299866 68.0
457.333313 38.0
457.538239 37.0
458.171814 50.0
458.271179 100.0
459.687897 41.0
460.786438 51.0
461.276642 90.0
461.808502 42.0
462.24231 41.0
463.326752 60.0
463.985901 32.0
464.28833 1086.0
464.339447 58.0
465.095184 33.0
465.184845 42.0
465.285461 369.0
466.265564 90.0
467.254669 125.0
467.335907 148.0
468.198792 83.0
468.233582 38.0
468.289093 62.0
468.317261 56.0
468.394501 99.0
469.256256 129.0
469.326538 4511.0
469.423004 27.0
469.533203 26.0
470.136597 70.0
470.259094 156.0
470.325775 863.0
470.455872 51.0
471.239166 50.0
471.322327 156.0
471.525543 41.0
471.655884 36.0
471.755035 28.0
472.117767 32.0
472.312927 346.0
472.523407 51.0
473.189941 54.0
473.301422 146.0
474.260742 54.0
474.309326 96.0
474.785889 36.0
474.827972 49.0
475.249176 50.0
475.291779 51.0
475.352142 75.0
475.450653 37.0
475.994659 46.0
476.242554 249.0
476.333008 40.0
476.451141 36.0
477.079376 38.0
477.221924 87.0
478.173248 92.0
478.300842 609.0
478.715088 27.0
479.300568 265.0
480.062653 63.0
480.250671 206.0
480.284668 98.0
481.304077 67.0
481.336273 202.0
481.415985 30.0
482.162689 48.0
482.296082 2373.0
482.401031 58.0
482.463806 56.0
483.165314 76.0
483.241943 80.0
483.292877 883.0
483.373291 59.0
483.415009 50.0
484.245789 96.0
484.291626 296.0
484.446869 37.0
485.337494 148.0
485.974213 30.0
486.091949 46.0
486.29718 323.0
486.333801 295.0
486.420135 71.0
487.100952 41.0
487.321594 91.0
488.168365 28.0
488.271942 243.0
489.26413 52.0
489.835297 30.0
490.204529 60.0
490.344971 49.0
491.251587 30.0
492.272736 68.0
492.31424 77.0
493.304474 37.0
493.625122 40.0
493.948792 52.0
494.263031 862.0
494.3255 171.0
494.398621 119.0
495.276245 199.0
495.403503 72.0
495.55307 28.0
496.238525 118.0
496.311584 1795.0
496.405823 42.0
497.230103 36.0
497.321686 604.0
497.416595 42.0
498.210449 51.0
498.257385 481.0
498.317871 169.0
498.366882 301.0
498.411774 62.0
498.541626 67.0
499.117523 32.0
499.260162 283.0
499.380096 116.0
499.434082 81.0
499.944733 34.0
500.012573 63.0
500.111023 27.0
500.308228 4897.0
500.730042 28.0
501.310364 1287.0
502.122345 38.0
502.319061 206.0
502.405884 63.0
502.474335 49.0
503.124908 44.0
503.305115 123.0
503.40567 50.0
504.235779 132.0
504.307312 246.0
504.441956 70.0
505.310455 127.0
505.358154 44.0
505.785278 47.0
506.230927 50.0
506.301819 246.0
506.354797 48.0
507.662567 49.0
508.262299 75.0
508.310486 104.0
508.352295 262.0
509.199677 45.0
509.334808 67.0
509.493958 32.0
510.319977 209.0
510.377014 82.0
510.74234 101.0
511.098846 43.0
511.298248 98.0
511.432861 64.0
511.787323 62.0
511.909485 32.0
512.27063 1673.0
512.341492 244.0
512.49408 101.0
513.274658 259.0
513.350891 52.0
513.718079 40.0
514.120483 88.0
514.321106 2013.0
514.416748 40.0
515.106567 38.0
515.326477 552.0
516.151855 28.0
516.200745 45.0
516.26825 1700.0
516.846008 31.0
517.259521 357.0
517.894165 32.0
518.110901 86.0
518.219788 68.0
518.317444 4108.0
518.390625 189.0
518.450195 64.0
519.080933 49.0
519.327881 889.0
519.717163 36.0
520.289612 138.0
520.326721 318.0
520.772034 76.0
522.24231 51.0
522.385071 899.0
522.600586 37.0
522.967102 42.0
523.018188 50.0
523.259155 33.0
523.323364 94.0
523.397034 173.0
524.21582 46.0
524.310791 297.0
524.36438 235.0
524.422729 77.0
524.495422 85.0
524.892761 63.0
525.043396 37.0
525.147339 50.0
525.173157 56.0
525.287903 113.0
525.35437 75.0
525.45282 82.0
526.075684 83.0
526.185303 82.0
526.362793 1601.0
526.459717 44.0
527.359253 413.0
527.398865 113.0
527.677307 84.0
528.291443 159.0
528.326172 121.0
528.367004 106.0
528.467224 28.0
528.810303 41.0
529.242371 119.0
529.294678 58.0
530.288696 701.0
530.358337 780.0
530.465942 49.0
531.284546 246.0
531.355896 267.0
531.457764 31.0
531.772339 42.0
532.01123 27.0
532.278748 167.0
532.343079 144.0
532.851562 38.0
533.064331 29.0
533.309082 63.0
533.864441 38.0
534.289673 92.0
534.357117 827.0
534.434692 75.0
534.637939 36.0
534.924072 37.0
535.251709 44.0
535.353821 411.0
536.287598 50.0
536.35675 240.0
536.40332 69.0
537.348022 73.0
537.902588 75.0
538.147278 44.0
538.319702 258.0
538.352356 307.0
538.404968 71.0
539.327393 159.0
539.495544 55.0
540.251465 40.0
540.338562 50.0
540.401184 63.0
541.35321 31.0
541.801758 27.0
542.322876 617.0
542.38269 212.0
543.11615 38.0
543.31781 304.0
543.379944 153.0
543.499573 45.0
544.270996 67.0
544.353943 111.0
545.288574 50.0
545.370117 215.0
546.264648 84.0
546.704041 53.0
547.049927 76.0
547.295105 69.0
548.193726 35.0
548.300964 150.0
548.662415 90.0
549.250061 53.0
549.288025 26.0
549.49585 97.0
550.074036 42.0
550.224731 62.0
550.257141 44.0
550.296143 49.0
550.363892 514.0
550.646423 39.0
550.693115 42.0
550.807861 86.0
551.248413 57.0
551.325073 390.0
551.375061 174.0
551.612915 65.0
551.669678 58.0
552.046631 53.0
552.118835 87.0
552.168457 44.0
552.365417 20669.0
552.457214 253.0
552.497925 377.0
552.61615 77.0
552.861267 31.0
552.930481 34.0
553.165344 38.0
553.305054 247.0
553.365417 6810.0
553.541382 53.0
553.817444 33.0
553.856445 41.0
554.374084 1297.0
554.474854 79.0
555.191956 46.0
555.373779 250.0
555.451233 49.0
556.018127 46.0
556.185974 93.0
556.355103 495.0
556.40686 48.0
556.519958 28.0
556.718445 49.0
557.03064 70.0
557.347595 336.0
557.906433 35.0
557.961853 27.0
558.271118 136.0
559.11261 33.0
559.773621 31.0
560.346619 85.0
561.121277 40.0
561.341248 141.0
561.376526 59.0
561.688904 31.0
561.850342 54.0
562.322998 71.0
563.275208 101.0
563.35376 148.0
563.398376 83.0
564.325256 64.0
565.273254 52.0
565.348633 86.0
565.718872 28.0
565.793152 31.0
566.333252 335.0
567.147461 38.0
567.27887 94.0
567.328186 47.0
567.391052 329.0
568.121582 27.0
568.273926 49.0
568.367737 329.0
569.334106 536.0
570.22699 38.0
570.373047 1989.0
570.461182 129.0
570.504517 82.0
570.613647 26.0
570.66095 39.0
571.253113 57.0
571.294617 38.0
571.380066 708.0
571.876404 47.0
572.125977 43.0
572.378967 298.0
572.463867 30.0
573.363098 138.0
574.386902 57.0
574.491577 55.0
574.803589 72.0
575.456665 46.0
575.947327 45.0
576.561462 76.0
577.301514 60.0
577.371826 303.0
578.365784 184.0
579.245911 63.0
579.348511 157.0
580.200378 32.0
580.347656 109.0
580.404724 65.0
581.137939 39.0
581.245056 2192.0
581.330383 79.0
581.400269 140.0
581.449158 134.0
581.732544 39.0
582.133362 129.0
582.24292 712.0
582.410217 375.0
583.053162 51.0
583.140686 135.0
583.198669 32.0
583.250488 310.0
583.348633 477.0
583.393616 155.0
583.767212 31.0
583.914368 75.0
584.153137 80.0
584.251038 66.0
584.34137 258.0
584.418701 46.0
584.525391 50.0
584.993286 41.0
585.270081 33.0
585.39325 442.0
585.474487 64.0
586.10376 28.0
586.258118 65.0
586.310425 67.0
586.385132 400.0
587.339966 1168.0
588.346252 353.0
588.528015 48.0
588.594543 35.0
588.711182 53.0
589.333557 365.0
589.433289 65.0
590.335449 103.0
590.44458 63.0
591.035095 30.0
591.281006 49.0
591.389465 219.0
592.388672 148.0
593.312988 148.0
593.349426 167.0
593.742493 36.0
594.320557 74.0
595.279968 61.0
595.381836 2131.0
595.477417 69.0
595.523132 112.0
596.108459 80.0
596.384521 650.0
596.579895 68.0
597.035645 38.0
597.187927 38.0
597.361145 251.0
597.402405 155.0
598.203125 33.0
598.311951 91.0
598.357727 87.0
598.440369 85.0
599.022156 39.0
599.101929 33.0
599.250854 51.0
599.37854 385.0
599.575623 41.0
600.23877 66.0
600.291443 60.0
600.387085 98.0
600.428284 67.0
600.583313 45.0
600.965027 43.0
601.308228 69.0
601.367432 672.0
601.446106 68.0
602.055603 55.0
602.281738 35.0
602.344543 96.0
602.382874 99.0
603.358582 123.0
604.386719 90.0
605.366028 77.0
605.44574 298.0
605.54425 35.0
606.405273 150.0
606.497498 83.0
607.092834 37.0
607.157227 37.0
607.209778 47.0
607.346985 1232.0
607.416809 72.0
607.451233 78.0
607.494751 34.0
608.264221 48.0
608.34845 331.0
608.664001 62.0
609.033081 46.0
609.149719 32.0
609.317383 196.0
609.353149 240.0
609.40033 1238.0
609.476868 107.0
609.762939 52.0
610.400208 145.0
610.661987 46.0
611.066223 32.0
611.267212 92.0
611.333679 1194.0
611.401733 264.0
611.638794 46.0
611.69397 39.0
612.233215 41.0
612.342041 393.0
612.390625 169.0
612.487549 31.0
612.535767 48.0
613.237 71.0
613.393372 5890.0
613.478821 117.0
614.126892 37.0
614.313293 120.0
614.396423 1767.0
615.409119 336.0
615.842651 47.0
615.940002 26.0
616.344727 67.0
616.389526 120.0
616.607666 37.0
617.39032 358.0
617.449402 148.0
617.507996 45.0
618.007874 28.0
618.360535 79.0
618.398804 144.0
618.946228 77.0
619.325806 35.0
619.388 101.0
619.492432 52.0
620.392334 67.0
621.310364 422.0
621.376465 146.0
621.649902 41.0
621.910156 52.0
622.041138 88.0
622.282837 110.0
622.313782 82.0
622.40155 53.0
622.905396 82.0
623.299683 74.0
623.37384 243.0
623.434326 2524.0
623.538391 34.0
624.061462 32.0
624.360352 47.0
624.441772 1030.0
625.016968 80.0
625.360779 1774.0
625.425598 696.0
625.505371 66.0
625.537354 50.0
626.079468 84.0
626.360352 487.0
626.422546 379.0
627.194763 42.0
627.337952 220.0
627.402588 942.0
628.002197 28.0
628.190247 44.0
628.252014 30.0
628.311707 102.0
628.359741 48.0
628.409729 355.0
628.473999 53.0
629.028259 33.0
629.049194 57.0
629.283508 203.0
629.354248 3824.0
629.485413 49.0
629.512329 68.0
629.577393 49.0
629.653931 29.0
630.098267 39.0
630.178589 43.0
630.227478 78.0
630.359802 632.0
630.421265 115.0
630.776367 37.0
631.03949 83.0
631.170105 87.0
631.232178 110.0
631.402893 20213.0
631.517395 156.0
631.569946 118.0
631.667664 60.0
631.761719 78.0
631.86731 32.0
631.965759 62.0
632.155396 68.0
632.199707 39.0
632.242432 72.0
632.405579 7306.0
632.587158 81.0
632.643005 62.0
632.789062 37.0
632.919373 149.0
633.008911 26.0
633.094788 28.0
633.131592 35.0
633.280151 43.0
633.418518 3474.0
633.676453 65.0
633.793518 27.0
633.862488 28.0
634.059814 46.0
634.087341 65.0
634.423523 1066.0
634.544128 96.0
634.688477 40.0
634.849915 37.0
635.014893 31.0
635.082397 47.0
635.212769 26.0
635.321655 68.0
635.40564 141.0
635.477905 243.0
635.649536 47.0
635.756409 26.0
635.880798 53.0
635.919312 37.0
636.169067 36.0
636.328308 64.0
636.406189 166.0
636.484558 105.0
636.532166 36.0
636.791809 34.0
636.84314 44.0
636.971558 37.0
637.02478 58.0
637.120789 60.0
637.16156 110.0
637.305969 10712.0
637.385437 417.0
637.48584 85.0
637.593933 32.0
638.16864 120.0
638.210205 49.0
638.30658 4698.0
638.391235 239.0
638.487549 70.0
638.65387 85.0
639.028748 63.0
639.305969 1106.0
639.394653 185.0
639.421631 233.0
639.460083 169.0
639.507935 91.0
639.819946 60.0
640.279358 62.0
640.320862 186.0
640.389954 123.0
640.447388 38.0
640.607666 35.0
641.035278 45.0
641.071533 62.0
641.315735 117.0
641.449707 761.0
641.525146 60.0
641.935425 81.0
642.087952 28.0
642.307678 33.0
642.408386 124.0
642.438049 156.0
642.47699 153.0
643.298767 260.0
643.367249 579.0
643.4375 161.0
643.505737 55.0
643.870056 55.0
644.013062 70.0
644.270447 57.0
644.368469 366.0
644.432434 231.0
644.50592 34.0
644.989136 40.0
645.168213 101.0
645.217896 41.0
645.260132 60.0
645.34906 85.0
645.381836 108.0
645.44519 68.0
645.642578 28.0
646.01001 33.0
646.258728 39.0
646.301147 48.0
646.374268 43.0
646.417603 104.0
646.990234 30.0
647.117432 46.0
647.37384 218.0
647.445129 49.0
647.842834 32.0
648.080383 54.0
648.117065 48.0
648.31012 53.0
648.400391 45.0
648.561523 43.0
648.708984 43.0
649.146667 46.0
649.23584 69.0
649.355591 112.0
649.424377 65.0
649.584045 38.0
650.249207 79.0
650.341858 28.0
650.385986 103.0
650.437622 220.0
650.65802 70.0
650.691895 69.0
651.183105 30.0
651.260193 301.0
651.432617 45299.0
651.668457 189.0
651.81543 82.0
651.952942 91.0
651.99707 27.0
652.081543 35.0
652.151978 34.0
652.307678 197.0
652.435608 18462.0
652.622864 62.0
652.682861 137.0
652.734985 144.0
652.85022 42.0
652.944153 39.0
652.972656 48.0
653.300476 107.0
653.435608 3938.0
653.631836 26.0
653.686584 51.0
653.987122 26.0
654.350098 136.0
654.444763 665.0
654.717102 64.0
654.777588 31.0
654.827576 33.0
655.350708 86.0
655.420227 174.0
655.510925 68.0
655.934631 41.0
656.422363 27.0
657.33136 74.0
657.388611 89.0
657.453125 86.0
657.723633 37.0
658.060669 27.0
658.350525 55.0
658.60437 45.0
659.292114 353.0
659.446045 46.0
660.114258 44.0
660.289429 179.0
660.399902 197.0
660.448669 33.0
660.549011 33.0
661.295715 62.0
661.354248 32.0
661.418091 44.0
661.601379 48.0
661.966919 28.0
662.024109 34.0
662.328918 74.0
662.705872 60.0
663.103333 38.0
663.263245 46.0
663.337891 86.0
663.375488 94.0
663.449524 74.0
663.747437 37.0
664.348145 84.0
664.4021 610.0
665.024841 33.0
665.314636 97.0
665.398254 457.0
665.455688 289.0
665.520691 61.0
666.281006 67.0
666.396912 181.0
666.477783 100.0
666.644104 53.0
666.684204 62.0
666.938293 68.0
666.985474 71.0
667.105713 53.0
667.329956 64.0
667.448242 307.0
668.308044 53.0
668.35791 78.0
668.405701 70.0
668.458496 203.0
668.892334 71.0
669.294189 36.0
669.443237 10995.0
669.588623 171.0
669.939758 40.0
670.089355 51.0
670.281677 35.0
670.447571 4255.0
670.55426 62.0
670.632019 62.0
670.74353 51.0
671.14093 40.0
671.387207 92.0
671.445312 939.0
671.558655 59.0
671.868958 76.0
672.078857 30.0
672.159607 33.0
672.382263 103.0
672.439697 429.0
673.429443 91.0
673.473572 94.0
673.862427 52.0
674.339539 30.0
674.421387 38.0
674.992249 33.0
675.253174 32.0
675.410095 57.0
675.53656 35.0
676.018799 51.0
676.242798 37.0
676.357056 91.0
677.353149 111.0
677.417664 48.0
678.417908 214.0
678.490417 64.0
678.70459 30.0
679.353149 47.0
679.426697 139.0
680.306519 40.0
680.366516 186.0
680.380066 249.0
681.349731 291.0
681.403687 120.0
681.449707 160.0
682.411194 1855.0
682.604309 61.0
683.080383 79.0
683.196045 75.0
683.321411 86.0
683.418579 811.0
683.515076 82.0
683.752747 28.0
683.977661 57.0
684.345459 26.0
684.400635 214.0
684.460083 57.0
685.266113 33.0
685.382324 154.0
685.443787 239.0
685.611816 35.0
686.244934 67.0
686.401184 119.0
686.461609 344.0
687.464478 48.0
687.516907 63.0
688.382751 63.0
688.485718 58.0
689.379456 28.0
690.397217 36.0
690.469238 35.0
692.394409 53.0
692.822632 39.0
693.252747 32.0
693.442871 97.0
694.374207 180.0
694.44165 312.0
695.07428 28.0
695.364319 226.0
695.448792 452.0
695.593933 85.0
696.151978 40.0
696.371887 223.0
696.441895 497.0
697.425842 369.0
698.221191 55.0
698.371521 352.0
698.464539 217.0
698.717773 80.0
698.984192 52.0
699.304016 66.0
699.368408 268.0
699.563843 40.0
699.610718 60.0
700.282288 59.0
700.424072 2669.0
700.652954 66.0
700.886353 51.0
701.355103 35.0
701.423584 1282.0
701.542725 49.0
701.576355 79.0
701.711548 68.0
702.285461 42.0
702.421875 100.0
702.560181 56.0
703.170044 40.0
703.422424 66.0
705.069641 51.0
706.329712 87.0
706.398987 127.0
706.471191 98.0
707.046387 64.0
707.291504 51.0
707.474426 50.0
707.539001 52.0
708.4151 204.0
708.473328 188.0
709.324585 90.0
709.469666 87.0
709.976013 60.0
710.035461 39.0
710.444031 129.0
711.011963 67.0
711.390625 72.0
711.445129 129.0
712.072327 51.0
712.210327 40.0
712.388733 592.0
712.45697 1667.0
712.5896 60.0
712.646179 84.0
713.241699 31.0
713.395325 205.0
713.457397 681.0
713.549011 54.0
714.44574 713.0
714.763916 52.0
715.041565 51.0
715.447327 358.0
715.602295 45.0
715.822998 65.0
716.3078 80.0
716.384155 1211.0
716.818787 29.0
717.262939 57.0
717.379272 394.0
718.390259 98.0
718.50946 45.0
719.776123 35.0
720.324707 49.0
720.375061 36.0
720.453613 478.0
720.531677 38.0
720.817078 26.0
721.348511 33.0
721.409119 114.0
721.448486 110.0
721.602356 60.0
722.401855 42.0
722.434021 74.0
722.483948 111.0
723.411682 71.0
723.45459 80.0
723.612366 64.0
724.035217 45.0
724.3349 57.0
724.428162 807.0
724.538208 115.0
725.430908 354.0
725.822876 41.0
726.162537 52.0
726.419617 172.0
726.473694 268.0
726.851501 35.0
727.001831 30.0
727.357361 33.0
727.426392 85.0
727.821411 51.0
728.36499 38.0
728.40387 129.0
728.466858 142.0
729.028564 42.0
729.431396 47.0
729.493591 52.0
730.034546 60.0
730.167664 88.0
730.290894 84.0
730.471558 8615.0
730.64563 61.0
730.7323 72.0
730.849792 74.0
731.399109 314.0
731.4729 3227.0
731.621399 87.0
731.792358 70.0
732.473511 849.0
732.559692 86.0
732.631226 49.0
732.908386 34.0
733.252869 48.0
733.375366 29.0
733.4776 274.0
735.104248 41.0
735.473145 67.0
735.661804 30.0
735.723694 34.0
736.421143 27.0
736.519592 224.0
736.573181 42.0
736.701233 70.0
737.525452 83.0
738.20282 87.0
738.443237 1574.0
738.567444 86.0
738.627502 39.0
738.979736 57.0
739.172852 27.0
739.266357 43.0
739.451782 477.0
739.65918 56.0
739.76532 78.0
740.342285 32.0
740.397583 32.0
740.441467 194.0
740.518372 507.0
740.936096 32.0
741.464844 126.0
741.532104 42.0
741.768372 27.0
742.26062 38.0
742.351501 88.0
742.432068 2491.0
742.518066 99.0
743.434875 640.0
743.855225 28.0
744.343811 77.0
744.430725 184.0
744.503784 83.0
744.783508 27.0
745.250854 46.0
745.476318 63.0
746.110535 31.0
746.267639 57.0
746.40686 125.0
746.506287 557.0
746.728821 42.0
747.503235 89.0
747.543579 88.0
748.266724 27.0
748.412415 158.0
748.492126 53.0
748.581543 71.0
749.390503 69.0
749.473694 45.0
750.074341 58.0
750.300476 46.0
750.475525 279.0
751.489441 62.0
752.11908 29.0
752.385559 85.0
752.464111 250.0
753.482361 130.0
754.479675 80.0
754.527283 171.0
754.760498 53.0
755.188721 36.0
755.505249 65.0
755.540588 51.0
756.323792 87.0
756.470398 2982.0
756.572815 113.0
757.481201 948.0
757.577637 101.0
757.788208 58.0
758.455994 290.0
758.490173 264.0
758.580078 90.0
758.653625 37.0
759.437439 34.0
759.494507 62.0
759.543884 43.0
759.7323 37.0
760.248535 37.0
760.471008 156.0
760.589478 41.0
761.472778 41.0
761.838318 30.0
762.439453 143.0
763.125122 28.0
763.449646 53.0
763.611145 53.0
763.728638 51.0
763.81311 46.0
763.871338 46.0
764.417114 207.0
764.518921 7918.0
764.617249 224.0
764.707214 77.0
764.827942 29.0
764.888611 55.0
764.960999 49.0
765.019958 49.0
765.311401 38.0
765.404602 202.0
765.517761 4757.0
765.611877 80.0
765.739685 55.0
766.095703 45.0
766.374695 62.0
766.443115 146.0
766.521362 975.0
766.658386 66.0
766.744324 32.0
766.782471 37.0
766.888306 36.0
766.987366 30.0
767.100403 46.0
767.149414 31.0
767.417542 145.0
767.524536 440.0
768.509644 1635.0
768.661682 99.0
768.78479 41.0
768.834229 26.0
768.950012 27.0
769.062561 51.0
769.271118 34.0
769.318176 29.0
769.503906 671.0
769.623108 66.0
770.012146 46.0
770.393127 55.0
770.514526 93.0
770.872681 32.0
771.473145 43.0
771.568054 67.0
771.850037 30.0
772.989929 87.0
773.504028 520.0
773.956299 39.0
774.418701 30.0
774.515625 301.0
774.735657 43.0
775.455139 45.0
775.502563 63.0
776.341614 35.0
776.417297 207.0
776.465149 68.0
776.601929 56.0
777.31897 39.0
777.421997 285.0
777.484863 921.0
778.289612 44.0
778.352661 52.0
778.474854 705.0
778.584656 97.0
778.669861 55.0
779.359314 80.0
779.49231 276.0
779.577148 44.0
780.468201 242.0
780.57251 36.0
780.682312 57.0
781.129761 88.0
781.32251 58.0
781.474976 117.0
781.520569 103.0
781.57251 65.0
781.614868 66.0
781.669128 61.0
781.892822 77.0
782.039551 34.0
782.097717 58.0
782.208191 36.0
782.324158 47.0
782.381653 181.0
782.526367 13282.0
782.696655 183.0
782.764587 104.0
782.867188 36.0
783.04303 63.0
783.11969 56.0
783.278564 26.0
783.334167 31.0
783.4151 117.0
783.529114 5123.0
783.695496 54.0
783.762024 34.0
784.300964 60.0
784.426636 126.0
784.532776 1481.0
784.920837 41.0
785.016846 38.0
785.145691 30.0
785.232666 39.0
785.512756 1476.0
786.015015 35.0
786.143127 36.0
786.445374 122.0
786.529785 459.0
786.647827 48.0
786.8703 63.0
787.02002 26.0
787.51416 125.0
788.263245 46.0
788.530396 33.0
788.607544 26.0
788.827148 101.0
789.027771 32.0
789.337646 110.0
789.440186 184.0
789.502014 52.0
789.690491 26.0
789.788086 78.0
789.851257 36.0
790.033386 40.0
790.415771 93.0
790.702087 64.0
791.014709 28.0
791.462341 60.0
791.507568 65.0
791.620667 27.0
792.472778 76.0
792.568665 31.0
793.081909 61.0
793.176636 66.0
793.230408 43.0
793.365112 99.0
793.447144 854.0
793.577332 43.0
793.950806 34.0
794.314819 117.0
794.429382 966.0
794.572388 61.0
794.621338 60.0
795.295776 67.0
795.497192 6198.0
795.609863 314.0
795.7453 47.0
796.220032 40.0
796.326111 46.0
796.499817 3380.0
796.630859 63.0
796.786682 31.0
796.926941 33.0
797.300842 30.0
797.50354 728.0
797.721191 78.0
797.959656 52.0
798.349731 44.0
798.504211 153.0
799.026611 42.0
799.113342 29.0
799.401001 62.0
799.449463 27.0
799.493958 158.0
800.062744 52.0
800.419983 41.0
800.524658 76.0
801.26532 39.0
801.472595 294.0
801.841736 48.0
802.28833 33.0
802.410889 36.0
802.473755 115.0
802.534607 33.0
804.447632 74.0
805.248047 27.0
805.54303 39.0
805.605225 40.0
806.055237 31.0
806.454346 50.0
806.512817 39.0
806.68158 54.0
807.000244 44.0
807.140198 57.0
807.470276 338.0
808.126709 43.0
808.46283 220.0
809.23175 43.0
809.300293 42.0
809.409119 61.0
809.528931 190.0
809.77887 76.0
810.071472 42.0
810.52478 343.0
810.605103 63.0
810.655945 73.0
811.02594 45.0
811.162292 75.0
811.349121 38.0
811.45697 2182.0
811.530945 179.0
811.805664 48.0
812.285461 68.0
812.454346 1090.0
812.532654 93.0
813.094299 48.0
813.219727 99.0
813.302368 118.0
813.50592 24791.0
813.635071 269.0
813.684204 168.0
813.826599 91.0
813.885742 68.0
813.925293 68.0
813.973511 80.0
814.231689 98.0
814.329224 148.0
814.371582 218.0
814.510132 11775.0
814.679321 53.0
814.733276 110.0
814.82196 40.0
814.885803 83.0
815.332642 33.0
815.510193 2797.0
815.655884 81.0
816.108826 34.0
816.359924 29.0
816.517029 504.0
816.795593 37.0
816.939758 28.0
817.034546 40.0
817.514282 119.0
817.789429 29.0
817.979431 32.0
818.258606 67.0
818.430908 50.0
818.479065 40.0
818.880005 26.0
819.046692 77.0
819.497864 153.0
819.561768 123.0
820.358215 29.0
820.518372 151.0
820.767944 28.0
821.391907 81.0
821.512146 57.0
821.913452 36.0
822.679077 50.0
823.538452 255.0
824.445496 40.0
824.527832 427.0
824.575195 362.0
824.88678 59.0
825.470947 938.0
825.618469 50.0
825.669189 27.0
825.872803 31.0
826.069458 71.0
826.311096 48.0
826.468445 440.0
826.526428 215.0
826.87323 49.0
826.949829 85.0
827.464294 187.0
827.548462 843.0
827.686768 43.0
828.462524 61.0
828.555176 253.0
828.771667 105.0
829.305054 109.0
829.461731 2609.0
829.547241 248.0
829.661804 62.0
829.899292 65.0
830.29364 49.0
830.347839 36.0
830.395874 32.0
830.470337 880.0
830.627075 56.0
831.396301 34.0
831.471619 349.0
831.532959 45.0
831.590332 69.0
832.461914 54.0
832.50354 37.0
832.701721 26.0
832.963318 37.0
833.120056 37.0
833.534668 1941.0
833.651306 171.0
834.127625 61.0
834.240417 58.0
834.381592 42.0
834.5401 799.0
835.027832 30.0
835.192322 66.0
835.537842 178.0
836.541016 135.0
836.598022 31.0
836.828308 66.0
837.223572 29.0
837.36084 54.0
837.437012 56.0
837.528625 1016.0
837.878357 31.0
838.260803 44.0
838.529053 785.0
839.23938 36.0
839.422607 33.0
839.540588 357.0
841.397949 40.0
841.48761 215.0
841.539001 173.0
841.570435 175.0
842.429932 77.0
842.512878 301.0
842.549866 193.0
843.49469 547.0
843.565735 93.0
843.623108 42.0
843.79718 82.0
844.476807 273.0
844.527039 124.0
845.348572 28.0
845.514526 53.0
846.853088 36.0
847.436096 44.0
847.496094 88.0
847.566772 51.0
847.866089 26.0
848.540894 40.0
849.301392 35.0
850.411377 31.0
850.562195 101.0
850.941162 64.0
851.367065 110.0
851.5495 7779.0
851.729248 41.0
851.883301 65.0
852.057312 28.0
852.455994 102.0
852.550049 3408.0
852.817566 104.0
853.405029 30.0
853.552002 944.0
853.657898 161.0
853.719788 46.0
854.025391 27.0
854.118591 30.0
854.355408 40.0
854.578491 321.0
855.3078 36.0
855.404053 46.0
855.460144 226.0
855.54248 2673.0
855.752136 28.0
856.21759 39.0
856.319397 40.0
856.540466 1095.0
856.847595 52.0
857.086121 30.0
857.358521 45.0
857.439514 82.0
857.534607 287.0
857.549988 292.0
857.753784 62.0
858.371887 48.0
858.592651 86.0
859.890442 34.0
860.608948 67.0
861.508057 54.0
861.572144 57.0
861.913696 27.0
862.518433 102.0
863.290588 71.0
863.412048 38.0
863.487366 59.0
863.573853 100.0
863.617981 56.0
864.598938 49.0
865.516541 80.0
865.620117 82.0
866.614441 33.0
866.662415 27.0
867.585693 36.0
868.380371 52.0
868.583801 83.0
868.698181 49.0
869.428528 165.0
869.555969 5072.0
869.762085 158.0
870.077148 47.0
870.193054 43.0
870.244812 27.0
870.284424 39.0
870.427856 75.0
870.565613 2934.0
870.812012 64.0
871.477112 111.0
871.570923 891.0
871.726074 69.0
871.826965 39.0
872.192566 60.0
872.553711 303.0
872.764221 35.0
873.568176 79.0
874.25415 74.0
874.576294 55.0
874.77356 39.0
874.928528 35.0
875.121094 90.0
875.452759 36.0
877.582703 180.0
878.21759 34.0
878.623779 181.0
879.445679 48.0
879.513062 360.0
879.642578 53.0
879.842896 46.0
880.481995 29.0
880.539429 167.0
880.596008 129.0
881.251221 65.0
881.343323 55.0
881.462524 77.0
881.595947 1653.0
882.423096 52.0
882.509888 113.0
882.599121 748.0
882.709534 44.0
883.594849 382.0
883.740723 56.0
884.042236 34.0
884.629578 147.0
885.445374 42.0
885.552368 33.0
886.499207 85.0
886.588623 286.0
887.269958 58.0
887.574341 66.0
887.708191 77.0
888.407043 40.0
888.511475 102.0
888.596436 67.0
889.511047 48.0
890.219971 37.0
891.576843 43.0
892.501465 34.0
893.279602 59.0
894.155396 64.0
894.543884 116.0
895.531189 46.0
895.615723 199.0
895.691101 145.0
895.867371 38.0
896.54364 321.0
896.601074 239.0
897.551086 565.0
897.650208 35.0
898.448792 53.0
898.538086 286.0
898.63269 60.0
899.47467 45.0
899.613892 109.0
899.852722 41.0
900.553467 54.0
900.624084 51.0
903.566345 38.0
904.610718 55.0
905.130249 37.0
905.440857 35.0
905.594299 70.0
906.026062 42.0
906.425354 49.0
906.53186 768.0
906.912659 30.0
907.359558 65.0
907.409546 31.0
907.527466 886.0
907.633911 73.0
908.354919 100.0
908.523438 432.0
908.787231 32.0
908.965332 50.0
909.515259 109.0
909.887329 49.0
910.556396 78.0
912.539307 171.0
913.376282 56.0
913.45459 46.0
914.216248 52.0
914.422058 48.0
914.557739 1198.0
914.697815 60.0
914.872437 54.0
915.550964 580.0
915.681274 120.0
915.879395 68.0
916.313354 43.0
916.572693 214.0
917.484436 26.0
917.540894 35.0
918.497742 34.0
918.635681 113.0
918.788086 40.0
919.626282 166.0
919.874329 34.0
920.571655 72.0
921.451111 38.0
921.532715 75.0
921.590576 46.0
922.074341 34.0
922.554199 38.0
922.624207 271.0
922.739807 26.0
923.601807 770.0
923.724182 91.0
924.04834 32.0
924.273682 57.0
924.403198 131.0
924.540039 7513.0
924.870422 107.0
924.928711 42.0
925.087524 36.0
925.140198 35.0
925.264526 57.0
925.543213 4103.0
925.759033 56.0
926.122986 28.0
926.276733 57.0
926.344055 40.0
926.554688 748.0
926.667297 66.0
926.897278 81.0
927.341614 62.0
927.546936 246.0
927.996338 60.0
928.392151 28.0
928.60968 114.0
929.591614 54.0
929.724426 45.0
929.962036 45.0
930.296021 28.0
932.086182 84.0
932.602722 174.0
933.584961 141.0
933.654236 62.0
934.291077 72.0
934.585388 41.0
934.625671 57.0
934.73291 51.0
934.849854 51.0
935.046143 28.0
935.515137 49.0
935.607605 51.0
935.847656 26.0
936.479309 55.0
936.631592 329.0
936.750854 55.0
937.552856 58.0
937.634399 191.0
938.164368 58.0
938.245544 40.0
938.566101 173.0
938.620911 133.0
938.918884 41.0
939.252686 32.0
939.380615 62.0
939.536682 43.0
939.580322 112.0
939.741638 117.0
939.871948 49.0
940.052002 59.0
940.118774 64.0
940.377319 38.0
940.527466 77.0
940.634766 768.0
940.762268 96.0
940.838745 57.0
940.902832 60.0
941.127197 55.0
941.637146 495.0
941.867432 48.0
942.063721 52.0
942.168091 45.0
942.218384 65.0
942.32666 253.0
942.549255 30709.0
942.687073 364.0
942.779297 137.0
942.894287 155.0
943.194824 114.0
943.451355 580.0
943.552734 15822.0
943.687744 235.0
943.740051 138.0
943.8172 52.0
943.899658 61.0
943.999878 70.0
944.110229 27.0
944.203308 104.0
944.384338 100.0
944.465027 221.0
944.553284 4996.0
944.743652 45.0
944.854187 54.0
944.948486 109.0
945.31897 39.0
945.481934 82.0
945.554688 713.0
945.671692 63.0
945.917603 35.0
946.048523 26.0
946.302246 52.0
946.499146 83.0
946.625 2996.0
946.78418 54.0
947.171143 42.0
947.457825 32.0
947.620239 1796.0
947.834351 46.0
947.873535 67.0
947.959717 78.0
948.043396 63.0
948.218628 116.0
948.33429 58.0
948.411865 33.0
948.628906 542.0
948.835754 63.0
948.942993 39.0
949.044312 80.0
949.108154 59.0
949.528442 65.0
949.627441 137.0
950.101379 28.0
950.447083 56.0
950.617493 2595.0
950.831604 33.0
951.106934 28.0
951.369812 96.0
951.617493 1034.0
951.744629 47.0
951.797424 89.0
951.892151 44.0
951.961731 28.0
952.538757 206.0
952.62793 537.0
952.87915 57.0
953.512634 78.0
953.585754 60.0
953.647339 48.0
954.284607 33.0
954.496704 61.0
954.639099 140.0
955.087708 53.0
955.644897 154.0
955.753357 51.0
956.499329 57.0
956.583252 287.0
956.642639 72.0
956.690674 58.0
957.561829 340.0
958.117493 27.0
958.603455 93.0
958.873962 32.0
958.971375 78.0
959.100647 45.0
959.169556 62.0
959.367615 68.0
959.601257 64.0
960.293457 57.0
960.562073 152.0
961.825562 37.0
963.028992 35.0
963.478943 86.0
963.71991 44.0
964.325134 62.0
964.411682 88.0
964.632141 14278.0
964.896545 199.0
964.943176 98.0
965.104248 48.0
965.269531 26.0
965.455872 125.0
965.633667 8132.0
965.802551 42.0
965.877075 163.0
965.942749 46.0
966.196228 31.0
966.496887 64.0
966.635071 2453.0
966.985352 50.0
967.213196 33.0
967.298767 41.0
967.353333 48.0
967.459229 60.0
967.63678 578.0
967.806213 46.0
967.904724 68.0
968.198669 39.0
968.279663 37.0
968.337158 49.0
968.510071 208.0
968.626343 5286.0
968.759216 93.0
968.792419 109.0
968.907471 83.0
969.419189 66.0
969.478882 44.0
969.535828 155.0
969.637695 2655.0
969.794617 36.0
969.944458 67.0
970.095093 70.0
970.436462 38.0
970.561462 317.0
970.629578 777.0
970.889954 57.0
971.56427 162.0
971.650391 180.0
972.276917 52.0
972.488281 84.0
972.544739 38.0
972.612488 38.0
972.664795 56.0
972.736694 28.0
973.596191 56.0
973.921631 34.0
974.281067 45.0
974.511047 27.0
975.572083 83.0
978.213684 30.0
978.617126 118.0
978.730164 27.0
978.77594 32.0
979.192749 36.0
979.622986 49.0
979.72583 84.0
980.666931 50.0
981.497681 50.0
981.666748 106.0
981.822083 37.0
981.898743 31.0
982.033691 58.0
982.475464 63.0
982.640808 3728.0
983.04126 52.0
983.121155 80.0
983.389404 46.0
983.483948 43.0
983.644104 2557.0
984.546753 52.0
984.650574 1326.0
984.773743 32.0
985.538269 43.0
985.657837 580.0
985.797302 40.0
986.44043 45.0
986.645508 122.0
987.635864 95.0
987.706055 35.0
988.37793 28.0
988.45105 61.0
989.614624 35.0
989.843079 41.0
989.997864 44.0
990.210938 26.0
990.279663 34.0
990.563293 31.0
991.222717 37.0
991.362976 40.0
991.666077 100.0
992.0047 40.0
992.626648 192.0
993.590698 44.0
993.955627 29.0
994.687073 34.0
994.771912 39.0
995.161316 46.0
995.656494 82.0
996.644592 63.0
999.975403 36.0
1001.205688 42.0
1001.657288 104.0
1002.6026 137.0
1004.621399 44.0
1005.661438 43.0
1006.628174 43.0
1007.649536 54.0
1008.71521 85.0
1009.564758 50.0
1009.639771 74.0
1009.856995 33.0
1010.508301 73.0
1010.637573 105.0
1010.834717 26.0
1011.090149 45.0
1011.654541 87.0
1011.710205 41.0
1012.668579 95.0
1012.932373 38.0
1013.184021 60.0
1015.318665 27.0
1016.217163 32.0
1016.639343 90.0
1017.697449 105.0
1018.007751 34.0
1018.661987 48.0
1019.196289 48.0
1019.500549 64.0
1019.633728 857.0
1020.551697 41.0
1020.638123 931.0
1021.54834 47.0
1021.630981 225.0
1021.68512 120.0
1022.668396 26.0
1022.774353 27.0
1023.080872 28.0
1023.643677 88.0
1024.658691 77.0
1024.714966 42.0
1026.064453 30.0
1026.442017 33.0
1026.563354 61.0
1026.667725 82.0
1026.950928 40.0
1027.616211 45.0
1027.685791 133.0
1028.238403 49.0
1028.663818 93.0
1028.740845 45.0
1032.177002 51.0
1032.445679 49.0
1032.520142 46.0
1032.853027 31.0
1033.676025 114.0
1034.571167 52.0
1034.621094 69.0
1034.676514 84.0
1034.817505 69.0
1035.538452 71.0
1035.644653 252.0
1035.722046 154.0
1036.203247 48.0
1036.380249 42.0
1036.70166 627.0
1036.894409 63.0
1037.485107 64.0
1037.549561 47.0
1037.657349 1621.0
1038.109497 33.0
1038.458496 29.0
1038.525391 63.0
1038.643921 1000.0
1038.826538 27.0
1038.937134 28.0
1039.03833 38.0
1039.546143 97.0
1039.644897 427.0
1039.803711 35.0
1040.309082 61.0
1040.640015 133.0
1040.88208 39.0
1041.590698 59.0
1042.304321 35.0
1042.703491 47.0
1043.250854 37.0
1043.590088 38.0
1043.665649 63.0
1045.57605 39.0
1045.717163 214.0
1046.687988 164.0
1046.852417 36.0
1047.627197 52.0
1047.703003 113.0
1049.244629 51.0
1049.732422 114.0
1050.674927 38.0
1050.734009 134.0
1051.243286 34.0
1051.682495 283.0
1051.867798 50.0
1052.689453 79.0
1053.003174 28.0
1053.719604 932.0
1054.595581 50.0
1054.712158 486.0
1054.873291 85.0
1054.97876 48.0
1055.660278 1120.0
1055.862915 46.0
1056.198975 48.0
1056.649902 554.0
1057.41687 34.0
1057.657959 433.0
1058.321533 48.0
1058.658325 127.0
1059.702881 277.0
1059.947998 68.0
1060.480103 46.0
1060.63562 27.0
1060.697876 116.0
1061.591309 67.0
1061.686035 87.0
1061.73877 36.0
1062.188721 33.0
1062.300293 47.0
1063.327393 48.0
1063.561523 75.0
1063.703857 1170.0
1063.769287 298.0
1063.981934 52.0
1064.131836 33.0
1064.582153 38.0
1064.69519 631.0
1064.795532 68.0
1065.719971 273.0
1065.931152 42.0
1066.656982 54.0
1066.760986 51.0
1066.881226 48.0
1068.737671 103.0
1069.115234 32.0
1069.687378 170.0
1069.75708 50.0
1069.899902 32.0
1070.677979 308.0
1071.658813 107.0
1072.518433 41.0
1073.065918 34.0
1073.726807 35.0
1074.016479 26.0
1074.469849 38.0
1074.673584 90.0
1074.727173 29.0
1075.985229 29.0
1077.559448 155.0
1077.714355 2991.0
1077.936157 39.0
1078.168701 26.0
1078.531006 45.0
1078.716553 1958.0
1078.974731 38.0
1079.461548 27.0
1079.637573 74.0
1079.713623 474.0
1079.880371 70.0
1079.958984 87.0
1080.12085 64.0
1080.616455 89.0
1080.701538 68.0
1080.786011 76.0
1081.37207 31.0
1081.488647 31.0
1081.560059 73.0
1081.71228 2875.0
1081.803833 285.0
1081.998535 26.0
1082.077271 26.0
1082.550903 26.0
1082.711426 1371.0
1083.037964 67.0
1083.713257 886.0
1083.852783 48.0
1084.462036 37.0
1084.547363 42.0
1084.722778 151.0
1085.308472 32.0
1085.721191 56.0
1086.070435 56.0
1086.506592 45.0
1087.03894 26.0
1087.385864 32.0
1087.732666 111.0
1088.705078 47.0
1088.791138 53.0
1089.638672 37.0
1089.687622 35.0
1089.849243 29.0
1090.918823 33.0
1091.682739 50.0
1091.9552 56.0
1092.967529 33.0
1093.039551 28.0
1093.111206 34.0
1093.183228 59.0
1093.444824 34.0
1093.641113 36.0
1094.411743 38.0
1094.76416 62.0
1094.823608 56.0
1094.937012 27.0
1095.196411 48.0
1095.404541 27.0
1095.467529 39.0
1095.518188 54.0
1095.728516 8703.0
1095.944458 107.0
1095.992798 78.0
1096.143677 28.0
1096.321411 60.0
1096.425171 59.0
1096.518921 80.0
1096.584106 96.0
1096.728638 5683.0
1096.951904 70.0
1097.123169 82.0
1097.415405 43.0
1097.547974 40.0
1097.610352 176.0
1097.734375 1781.0
1098.033691 42.0
1098.191528 35.0
1098.51355 49.0
1098.590332 28.0
1098.659058 181.0
1098.734619 574.0
1098.814819 44.0
1099.311157 43.0
1099.744141 139.0
1100.014038 32.0
1100.240845 58.0
1100.723633 45.0
1100.948486 37.0
1101.269409 34.0
1101.348022 58.0
1101.521729 39.0
1101.740356 58.0
1101.991699 40.0
1103.248047 29.0
1103.590698 38.0
1103.688843 26.0
1104.716919 106.0
1105.707153 516.0
1105.871094 63.0
1106.402954 54.0
1106.703369 414.0
1106.730347 417.0
1107.116821 46.0
1107.735596 73.0
1107.836426 59.0
1108.677979 35.0
1108.745483 51.0
1109.495605 62.0
1110.530762 26.0
1110.78772 27.0
1111.876709 35.0
1112.811279 29.0
1113.794067 35.0
1114.696899 111.0
1115.699951 97.0
1116.718994 195.0
1117.685547 32.0
1118.75415 40.0
1119.480713 43.0
1121.543335 34.0
1122.727661 422.0
1123.732544 735.0
1124.145874 42.0
1124.622192 46.0
1124.743042 488.0
1124.848022 80.0
1125.261719 40.0
1125.662598 46.0
1125.735962 79.0
1126.105591 35.0
1126.376709 27.0
1126.702148 60.0
1126.926147 34.0
1127.353638 69.0
1128.128418 66.0
1128.45813 44.0
1128.710693 88.0
1129.759033 54.0
1130.041138 27.0
1130.885132 33.0
1131.244507 36.0
1131.60498 54.0
1131.651123 34.0
1131.786865 76.0
1132.334106 65.0
1132.546753 44.0
1132.71936 1786.0
1132.86377 99.0
1133.155884 49.0
1133.306152 31.0
1133.525513 105.0
1133.609863 64.0
1133.722778 1253.0
1133.967896 80.0
1134.58252 44.0
1134.724731 612.0
1134.849121 46.0
1135.587402 46.0
1135.734131 155.0
1135.802002 75.0
1136.181763 29.0
1136.405884 40.0
1136.752319 149.0
1137.078857 32.0
1137.647705 42.0
1137.727783 83.0
1138.706299 90.0
1139.722412 29.0
1139.779541 94.0
1140.748535 975.0
1141.258423 42.0
1141.474854 46.0
1141.6875 137.0
1141.763062 829.0
1142.491211 29.0
1142.546509 34.0
1142.74939 148.0
1142.835205 73.0
1143.307861 39.0
1143.360474 57.0
1143.665649 43.0
1143.76001 41.0
1144.746216 39.0
1146.738525 442.0
1146.857544 48.0
1147.6427 80.0
1147.750244 507.0
1148.027588 42.0
1148.347046 33.0
1148.649902 116.0
1148.758057 186.0
1148.89856 49.0
1149.027832 43.0
1149.289795 36.0
1149.776978 473.0
1149.894043 57.0
1150.120361 33.0
1150.278198 52.0
1150.319458 62.0
1150.559448 149.0
1150.736938 4223.0
1150.902954 129.0
1150.964355 107.0
1151.082153 41.0
1151.565796 127.0
1151.735718 3248.0
1151.920532 29.0
1151.969238 90.0
1152.123657 34.0
1152.269409 72.0
1152.331543 31.0
1152.741821 998.0
1153.612671 31.0
1153.743286 266.0
1153.836426 57.0
1153.935547 47.0
1154.016479 34.0
1154.738525 135.0
1154.773438 155.0
1155.164673 88.0
1155.60791 51.0
1156.488525 41.0
1156.778564 38.0
1157.317261 29.0
1157.94519 48.0
1158.773193 42.0
1159.312744 28.0
1160.699341 35.0
1160.79248 55.0
1161.780884 44.0
1162.717163 67.0
1163.035034 36.0
1163.532349 117.0
1163.812866 64.0
1163.987427 47.0
1164.354858 30.0
1164.486938 36.0
1164.593628 39.0
1164.750854 1900.0
1164.896729 68.0
1165.471191 71.0
1165.622437 70.0
1165.752075 1170.0
1166.155518 30.0
1166.440186 65.0
1166.607056 81.0
1166.755737 466.0
1166.870361 58.0
1167.057495 40.0
1167.209473 53.0
1167.685181 52.0
1167.7677 217.0
1167.921753 45.0
1168.487793 45.0
1168.604614 152.0
1168.743042 4717.0
1168.906982 55.0
1169.036377 27.0
1169.175171 75.0
1169.258911 38.0
1169.494141 68.0
1169.751465 2878.0
1169.895264 26.0
1169.984253 52.0
1170.058716 51.0
1170.115112 86.0
1170.752686 1156.0
1171.364014 69.0
1171.772461 182.0
1171.962891 28.0
1172.086792 66.0
1172.739136 75.0
1173.380615 34.0
1174.836182 33.0
1175.233154 47.0
1175.542725 45.0
1175.720947 35.0
1176.340088 33.0
1176.724487 72.0
1176.779297 205.0
1177.457642 27.0
1177.710205 54.0
1177.78833 129.0
1178.700195 69.0
1178.780518 59.0
1178.841309 66.0
1179.251465 59.0
1179.72998 60.0
1180.742554 38.0
1180.838013 38.0
1182.756348 1260.0
1183.766357 1231.0
1183.952271 52.0
1184.543579 52.0
1184.695557 45.0
1184.762573 439.0
1184.886475 71.0
1185.491455 29.0
1185.767578 148.0
1186.770142 41.0
1187.099731 36.0
1188.13916 43.0
1188.942871 28.0
1189.600708 26.0
1191.162964 26.0
1191.779663 35.0
1191.852783 40.0
1191.957764 100.0
1192.140747 48.0
1192.726562 44.0
1194.811401 632.0
1195.793579 566.0
1196.564941 77.0
1196.619385 54.0
1196.73877 99.0
1197.798828 59.0
1198.661621 37.0
1200.747803 34.0
1201.397827 35.0
1201.727783 32.0
1201.803101 55.0
1202.458618 57.0
1202.821777 76.0
1202.89209 68.0
1203.598755 35.0
1204.346436 43.0
1204.817139 33.0
1205.566895 42.0
1208.897827 28.0
1209.813843 42.0
1210.553955 55.0
1210.795532 57.0
1211.474609 73.0
1211.672485 47.0
1211.749512 37.0
1212.755493 40.0
1217.07019 41.0
1217.827393 116.0
1217.900391 86.0
1218.601318 101.0
1218.709229 49.0
1218.806152 622.0
1219.709961 96.0
1219.809692 298.0
1219.975098 52.0
1220.617065 35.0
1220.68335 39.0
1220.802734 206.0
1220.981201 32.0
1221.119141 37.0
1221.258057 57.0
1221.713623 46.0
1221.80481 97.0
1222.144409 55.0
1222.708618 37.0
1222.807495 51.0
1223.842285 32.0
1223.962036 34.0
1224.051025 51.0
1224.276978 39.0
1224.555664 74.0
1224.68689 46.0
1224.841309 35.0
1224.934204 59.0
1225.887451 48.0
1227.030884 81.0
1227.799805 165.0
1227.879883 33.0
1228.029419 52.0
1228.790649 60.0
1229.786987 148.0
1230.052124 71.0
1231.033813 28.0
1231.779053 37.0
1233.101074 39.0
1233.650513 43.0
1233.824829 126.0
1234.597412 27.0
1234.806152 84.0
1234.889526 70.0
1235.151123 31.0
1235.832275 1240.0
1236.049316 95.0
1236.220825 38.0
1236.643677 87.0
1236.684082 77.0
1236.81311 1502.0
1237.036621 44.0
1237.632935 54.0
1237.704834 43.0
1237.813721 904.0
1238.107178 50.0
1238.231323 40.0
1238.521606 41.0
1238.650269 62.0
1238.838867 566.0
1239.723511 34.0
1239.790649 81.0
1239.849365 27.0
1239.904785 43.0
1240.537476 31.0
1240.712158 55.0
1241.151001 30.0
1241.404907 32.0
1242.08252 41.0
1242.596802 34.0
1243.004517 28.0
1243.716431 35.0
1243.872437 47.0
1244.922241 35.0
1245.564209 32.0
1245.806519 2328.0
1246.000122 63.0
1246.248779 102.0
1246.354736 28.0
1246.599976 57.0
1246.802612 1897.0
1247.020508 50.0
1247.062134 37.0
1247.184082 59.0
1247.295166 75.0
1247.579102 32.0
1247.821655 972.0
1247.910034 90.0
1248.200317 27.0
1248.807861 315.0
1249.000977 36.0
1249.601562 47.0
1249.837524 125.0
1250.127686 42.0
1250.399658 72.0
1250.604004 73.0
1250.79541 52.0
1250.859741 34.0
1251.339233 68.0
1251.455322 39.0
1251.520996 45.0
1251.808716 266.0
1252.273193 69.0
1252.383789 45.0
1252.814941 104.0
1252.901001 73.0
1253.084839 36.0
1253.215576 57.0
1253.444214 50.0
1253.583008 39.0
1253.630615 133.0
1253.837769 5405.0
1254.003662 105.0
1254.384766 64.0
1254.66748 107.0
1254.838989 3920.0
1255.043823 41.0
1255.317993 36.0
1255.520386 44.0
1255.590698 49.0
1255.663086 37.0
1255.843872 1407.0
1255.984985 118.0
1256.294434 41.0
1256.366333 86.0
1256.479004 86.0
1256.634277 29.0
1256.845215 596.0
1257.444458 62.0
1257.855835 70.0
1258.289429 43.0
1258.828003 33.0
1259.319092 31.0
1259.386841 29.0
1260.15271 39.0
1260.554321 48.0
1261.027344 46.0
1261.228638 36.0
1261.654175 44.0
1261.937256 48.0
1262.279297 65.0
1262.327271 43.0
1262.546509 67.0
1262.632568 71.0
1262.769531 29.0
1262.900269 32.0
1263.296387 37.0
1263.391113 34.0
1263.533203 78.0
1263.816162 36486.0
1264.041748 186.0
1264.150757 57.0
1264.247314 121.0
1264.359985 123.0
1264.508545 86.0
1264.604004 200.0
1264.680542 540.0
1264.819458 25887.0
1265.079346 92.0
1265.144775 64.0
1265.197632 118.0
1265.309204 116.0
1265.362061 93.0
1265.446777 79.0
1265.511475 66.0
1265.647949 100.0
1265.82373 10046.0
1265.958496 268.0
1266.11377 87.0
1266.189453 30.0
1266.370972 92.0
1266.467773 49.0
1266.547119 30.0
1266.677368 147.0
1266.832764 2854.0
1266.981812 59.0
1267.077393 30.0
1267.16272 52.0
1267.224487 54.0
1267.319336 38.0
1267.391235 34.0
1267.48877 60.0
1267.578735 30.0
1267.676025 68.0
1267.834473 630.0
1268.047974 128.0
1268.228027 41.0
1268.324707 56.0
1268.490967 32.0
1268.563721 50.0
1268.703125 59.0
1268.750977 64.0
1268.809204 87.0
1268.89978 103.0
1268.965698 86.0
1269.091064 55.0
1269.527466 83.0
1269.767212 75.0
1269.890869 49.0
1269.981689 31.0
1270.098755 58.0
1270.151733 75.0
1270.208252 68.0
1270.262939 43.0
1270.349121 70.0
1270.410522 55.0
1270.466797 53.0
1270.518921 74.0
1270.623535 50.0
1270.759888 33.0
1270.840088 65.0
1270.990234 32.0
1271.081177 116.0
1271.153687 29.0
1271.291504 29.0
1271.551025 26.0
1271.795776 92.0
1271.857422 41.0
1272.274536 69.0
1272.368774 45.0
1272.494263 33.0
1272.538818 46.0
1272.713379 54.0
1273.129028 29.0
1273.425537 34.0
1273.473389 40.0
1273.557495 109.0
1273.898804 62.0
1274.201782 54.0
1274.383667 62.0
1274.605957 395.0
1274.713867 37.0
1274.825928 29.0
1274.921997 37.0
1275.244385 72.0
1275.345215 32.0
1275.482056 64.0
1275.599731 137.0
1275.719604 61.0
1275.827148 60.0
1276.13562 32.0
1276.289307 73.0
1276.602173 51.0
1276.790405 38.0
1276.846313 53.0
1277.037354 37.0
1277.206543 46.0
1277.369141 40.0
1277.540161 62.0
1277.600342 36.0
1277.742065 74.0
1277.956421 42.0
1278.137451 50.0
1278.481812 36.0
1278.578369 69.0
1278.701538 89.0
1278.846558 147.0
1278.928589 66.0
1279.130615 77.0
1279.240723 69.0
1279.281738 63.0
1279.361328 100.0
1279.56543 36.0
1279.709229 78.0
1279.791626 32.0
1279.887573 42.0
1279.941284 126.0
1280.277832 81.0
1280.38501 38.0
1280.483276 112.0
1280.677368 142.0
1280.766479 33.0
1280.84082 46.0
1280.9375 130.0
1281.041748 93.0
1281.126465 94.0
1281.197632 132.0
1281.306152 155.0
1281.466675 230.0
1281.538208 344.0
1281.826904 128172.0
1282.014404 497.0
1282.075562 612.0
1282.165283 225.0
1282.276855 156.0
1282.348022 135.0
1282.396118 192.0
1282.489624 222.0
1282.82959 100096.0
1282.992676 508.0
1283.171387 283.0
1283.246338 179.0
1283.380737 161.0
1283.543701 181.0
1283.629395 466.0
1283.83313 37347.0
1284.039429 246.0
1284.080444 211.0
1284.162598 190.0
1284.25354 115.0
1284.407104 51.0
1284.537842 63.0
1284.833374 10289.0
1285.146606 34.0
1285.301758 97.0
1285.402466 140.0
1285.496704 50.0
1285.577881 88.0
1285.626221 144.0
1285.677368 76.0
1285.842041 1654.0
1286.017456 70.0
1286.074219 79.0
1286.149414 32.0
1286.196899 72.0
1286.295532 57.0
1286.394775 64.0
1286.497925 44.0
1286.57605 64.0
1286.668457 57.0
1286.83728 145.0
1286.914795 62.0
1286.960815 66.0
1287.04541 107.0
1287.185425 110.0
1287.327637 87.0
1287.451416 32.0
1287.517212 28.0
1287.572388 59.0
1287.691162 64.0
1287.753662 53.0
1287.956299 180.0
1288.054321 54.0
1288.129883 45.0
1288.213135 65.0
1288.352173 83.0
1288.415283 88.0
1288.514038 117.0
1288.630615 56.0
1288.783081 33.0
1288.838989 42.0
1288.926392 157.0
1289.068359 35.0
1289.194092 42.0
1289.35083 161.0
1289.445923 53.0
1289.499878 37.0
1289.696045 30.0
1289.952026 32.0
1290.026733 72.0
1290.129761 59.0
1290.208618 33.0
1290.357788 95.0
1290.478516 33.0
1290.874146 37.0
1291.118042 59.0
1291.658936 35.0
1291.778076 39.0
1291.875977 35.0
1292.10083 116.0
1292.159546 31.0
1292.323975 26.0
1292.490723 55.0
1293.019287 46.0
1293.743286 82.0
1293.813965 86.0
1293.869019 69.0
1294.146973 42.0
1294.324219 26.0
1294.668823 27.0
1294.911865 46.0
1295.438599 34.0
1295.586548 36.0
1295.80835 71.0
1295.866089 151.0
1295.944946 39.0
1296.20459 30.0
1296.57373 34.0
1296.784058 29.0
1296.893066 52.0
1297.63501 77.0
1297.808472 26.0
1298.004639 54.0
1298.142578 60.0
1298.521851 51.0
1299.509155 26.0
1299.738647 33.0
1300.534058 26.0
1301.118774 47.0
1301.380249 27.0
1301.604736 51.0
1303.150146 83.0
1303.821655 198.0
1303.871826 123.0
1304.140137 55.0
1304.694702 39.0
1304.835571 75.0
1305.481689 73.0
1305.696777 61.0
1306.625488 30.0
1306.73645 43.0
1307.310181 57.0
1309.688599 26.0
1309.797607 43.0
1310.133911 35.0
1310.958618 34.0
1312.09668 92.0
1312.155151 40.0
1312.298462 44.0
1313.571533 35.0
1314.063477 27.0
1314.734863 33.0
1314.895508 34.0
1316.626343 39.0
1317.617554 53.0
1318.078247 53.0
1319.48938 31.0
1319.785156 32.0
1320.238403 35.0
1323.714478 65.0
1324.005005 39.0
1325.648804 37.0
1326.248535 51.0
1327.625 63.0
1330.744019 27.0
1331.062744 51.0
1333.122559 42.0
1334.332031 35.0
1336.374756 28.0
1340.249634 37.0
1342.931519 43.0
1343.966675 32.0
1345.731445 31.0
1350.938843 66.0
1353.38147 31.0
1354.887451 37.0
1356.921509 32.0
1359.531616 50.0
1360.021973 71.0
1367.71875 43.0
1368.875854 50.0
1372.273193 29.0
1389.727905 53.0
1390.075562 26.0
1391.943359 28.0
1392.607178 38.0
1395.977783 44.0
1399.16394 53.0
1407.813843 32.0
1410.003662 39.0
1412.985107 37.0
1417.756348 27.0
1419.100342 33.0
1419.275024 27.0
1419.832886 40.0
1420.570435 33.0
1423.97168 45.0
1426.351196 35.0
1429.87561 26.0
1430.188477 45.0
1431.044678 38.0
1431.325684 27.0
1434.672241 31.0
1436.203369 26.0
1436.698608 36.0
1438.514771 35.0
1443.868286 40.0
1446.361816 52.0
1452.096191 44.0
1454.396606 57.0
1454.77002 43.0
1457.578491 33.0
1461.301758 65.0
1477.795044 35.0
1478.287109 37.0
1478.808228 35.0
1488.039429 28.0
1491.449829 43.0
1492.382812 34.0
1499.21814 42.0
1499.362427 27.0
1499.939941 32.0
1500.212524 60.0
1508.725464 35.0
1512.923218 39.0
1520.260498 41.0
1521.734009 44.0
1522.813232 51.0
1522.890137 41.0
1524.651367 29.0
1526.949951 32.0
1528.543335 34.0
1531.532593 40.0
1531.986206 36.0
1533.32312 53.0
1533.92688 28.0
1538.280396 29.0
1539.447876 26.0
1541.30835 56.0
1541.751221 45.0
1543.997681 60.0
1546.048706 30.0
1555.948364 45.0
1556.101074 39.0
1562.09314 41.0
1563.536133 38.0
1564.265747 34.0
1567.379395 37.0
1567.803711 26.0
1567.878906 34.0
1568.740112 33.0
1569.026001 37.0
1570.877075 33.0
1574.643066 38.0
1577.077271 32.0
1577.401001 41.0
1580.828857 29.0
1583.457275 51.0
1587.075317 48.0
1588.212158 35.0
1589.159302 39.0
1590.755615 27.0
1591.069336 32.0
1594.20105 36.0
1595.8396 58.0
1597.680908 27.0
1598.830444 40.0
1605.230225 49.0
1608.828979 29.0
1612.274658 50.0
1614.316284 42.0
1616.148926 40.0
1618.55249 31.0
1620.45105 35.0
1622.831421 100.0
1629.064453 42.0
1632.327393 26.0
1632.748657 41.0
1641.540649 28.0
1647.439087 34.0
1648.239136 57.0
1650.458618 39.0
1650.610474 51.0
1651.790039 41.0
1654.098877 48.0
1654.498657 31.0
1657.604004 27.0
1658.937622 52.0
1660.635986 54.0
1664.148071 52.0
1666.630859 41.0
1670.882812 50.0
1672.803589 67.0
1673.379883 40.0
1674.955444 47.0
1677.839478 47.0
1678.662964 29.0
1686.960327 39.0
1693.37854 31.0
1696.554565 34.0
1698.623169 33.0
1706.249878 32.0
1706.607544 33.0
1710.821655 28.0
1712.450195 32.0
1713.183716 27.0
1714.986328 45.0
1719.266235 33.0
1720.92749 41.0
1727.31604 39.0
1728.585693 46.0
1732.185791 34.0
1736.902954 40.0
1740.192627 39.0
1740.496704 35.0
1745.261841 41.0
1746.404053 39.0
1746.942383 29.0
1748.421143 39.0
1748.740234 27.0
1749.358765 46.0
1756.68042 71.0
1757.924438 46.0
1763.661255 42.0
1764.527832 52.0
1767.603394 37.0
1767.950317 31.0
1771.677856 64.0
1771.998291 73.0
1772.569824 30.0
1777.16272 43.0
1781.563843 57.0
1782.497437 83.0
1783.392944 41.0
1785.130493 58.0
1792.238403 33.0
1793.736572 26.0
1794.910156 46.0
1799.937134 33.0
1800.711304 37.0
1801.031128 74.0
1802.027954 48.0
1802.866333 27.0
1813.268921 46.0
1823.383911 47.0
1825.68042 28.0
1826.378906 33.0
1826.678467 37.0
1829.065674 26.0
1830.651855 33.0
1831.345825 52.0
1831.814453 52.0
1832.375244 41.0
1832.54895 36.0
1833.086182 28.0
1835.135254 67.0
1836.696655 65.0
1840.967163 49.0
1844.824829 38.0
1845.159912 49.0
1846.918579 33.0
1850.879517 33.0
1851.624878 69.0
1851.994019 37.0
1852.30249 38.0
1852.69043 46.0
1852.99292 37.0
1854.332397 40.0
1855.626587 28.0
1856.911133 59.0
1873.510864 94.0
1875.688354 78.0
1879.826172 33.0
1880.176392 35.0
1881.016968 27.0
1882.227539 60.0
1882.513306 65.0
1883.436279 66.0
1887.789062 26.0
1890.839722 46.0
1893.756348 46.0
1893.853516 28.0
1899.493286 56.0
1903.092407 49.0
1903.87207 28.0
1908.732178 31.0
1915.11084 40.0
1916.459106 67.0
1917.825317 38.0
1923.235229 27.0
1926.442017 99.0
1926.516479 33.0
1929.686646 33.0
1931.341431 28.0
1934.082886 28.0
1935.136353 33.0
1941.338013 38.0
1942.829834 34.0
1943.320679 30.0
1943.662476 45.0
1944.270752 32.0
1944.379761 42.0
1945.129639 40.0
1945.71167 32.0
1946.970215 32.0
1949.415527 26.0
1950.435913 42.0
1951.112427 32.0
1952.091919 67.0
1953.600464 67.0
1954.754395 45.0
1956.622559 36.0
1958.435181 39.0
1967.86377 39.0
1970.978882 54.0
1972.036865 35.0
1973.891724 32.0
1980.657471 32.0
1980.935059 37.0
1982.358276 30.0
1983.867798 30.0
1984.994507 31.0
1987.501709 32.0
1987.723511 36.0
1990.340942 34.0
1990.807251 51.0
1991.658813 35.0
1992.918335 26.0
1993.829468 31.0
1995.4021 26.0
1997.768677 43.0
1997.978882 39.0
1998.333496 37.0
1999.398438 34.0
2001.0896 80.0
2004.190552 91.0
2004.661499 56.0
END IONS
