BEGIN IONS
PEPMASS=905.903
CHARGE=2
MSLEVEL=2
SOURCE_INSTRUMENT=LC-ESI-qTof
FILENAME=f.philipwi/0_WilliamsFreshwaterCyanosStandardsConvertedTo_mzXML_v2/PW-3_P1-A-3_Microviridin_N_1808amu_01_15521_Scan496-539.mzXML;
SEQ=*..*
IONMODE=Positive
ORGANISM=GNPS-LIBRARY
NAME=Microviridin N M+2H
PI=Philip Williams
DATACOLLECTOR=Williams
SMILES=O=C(CCC(NC(C(NC(C(NC(C(NC(C(NC(C1CCCN12)=O)CO)=O)CC(OC(C(NC(C(NC(C3CCCN3C(C4N(C(C(NC(C)=O)C)=O)CCC4)=O)=O)C)=O)C(NC(C(N5)=O)CC(C)C)=O)C)=O)=O)CC6=CNC7=C6C=CC=C7)=O)CCC(OC)=O)=O)C(NC(C(O)=O)CC8=CC=C(O)C=C8)=O)NCCCCC5C(NC(CC9=CNC%10=C9C=CC=C%10)C2=O)=O
INCHI=
INCHIAUX=
PUBMED=60159565
SUBMITUSER=philipwi
TAGS=
LIBRARYQUALITY=3
SPECTRUMID=CCMSLIB00000425010
SCANS=497
64.314728 72.0
75.170486 36.0
133.452133 84.0
135.804047 32.0
137.854507 104.0
141.447571 40.0
142.054703 60.0
146.063614 168.0
146.148361 32.0
149.099121 108.0
151.082672 108.0
157.096008 40.0
158.048187 108.0
158.28067 28.0
158.955032 56.0
159.084961 1428.0
159.228394 48.0
159.365173 48.0
159.51004 28.0
160.07782 148.0
160.178955 48.0
161.067612 124.0
161.480453 28.0
162.080429 64.0
165.047836 436.0
166.846161 24.0
167.101501 448.0
169.0672 408.0
169.125305 60.0
170.053711 224.0
173.246353 32.0
174.050293 88.0
174.347214 32.0
175.054932 84.0
175.738739 24.0
180.066284 136.0
181.090927 84.0
181.652191 80.0
182.076385 372.0
183.089783 76.0
184.097534 112.0
185.087845 180.0
185.564911 52.0
187.074722 96.0
188.093185 112.0
193.098892 84.0
195.100067 472.0
196.104462 112.0
197.12175 228.0
198.109116 80.0
199.088272 84.0
202.076508 108.0
202.149002 72.0
205.132629 28.0
205.836227 40.0
206.097046 104.0
206.220505 44.0
208.138123 80.0
209.147049 120.0
209.381485 28.0
209.873489 52.0
210.036896 40.0
210.434326 44.0
210.55455 48.0
210.948257 44.0
211.104248 1596.0
212.107956 224.0
213.040756 112.0
213.115189 228.0
215.073868 96.0
215.270233 36.0
216.094055 84.0
217.323334 72.0
222.113388 180.0
223.097 148.0
224.07341 88.0
225.09584 312.0
226.639694 48.0
227.09343 140.0
227.927444 64.0
228.084427 108.0
228.890839 72.0
229.778946 36.0
230.10614 628.0
231.104126 136.0
232.103836 184.0
234.108719 100.0
236.122208 60.0
237.124252 104.0
238.145645 344.0
239.099472 192.0
240.100983 32.0
240.125671 76.0
240.157028 124.0
240.894791 40.0
241.093399 124.0
245.779068 40.0
246.088959 96.0
246.799454 80.0
247.099609 196.0
248.077927 100.0
249.108109 148.0
249.661758 88.0
249.853165 36.0
250.781021 52.0
251.184967 64.0
252.121552 1652.0
252.753342 40.0
253.122971 300.0
253.483536 40.0
254.098328 128.0
254.285934 52.0
254.397751 36.0
254.713028 48.0
255.120132 80.0
256.12912 100.0
256.629242 56.0
256.915253 44.0
257.127594 288.0
257.825409 40.0
258.116608 108.0
261.100861 64.0
264.148285 124.0
264.531738 48.0
265.158417 108.0
265.652649 48.0
265.725372 24.0
265.87085 204.0
266.141052 3348.0
266.369995 120.0
266.880035 36.0
267.146118 280.0
268.144745 240.0
269.029541 32.0
269.126404 92.0
270.103027 176.0
270.767975 40.0
271.108307 156.0
273.902771 88.0
274.109863 128.0
275.12793 80.0
275.847382 40.0
277.119293 116.0
278.138947 128.0
278.841034 32.0
280.141907 116.0
280.80304 56.0
281.059479 76.0
281.947174 76.0
282.096405 192.0
282.954193 32.0
283.101746 132.0
284.136322 196.0
284.296112 64.0
285.115997 388.0
285.533508 40.0
285.867523 40.0
286.111145 132.0
287.108276 96.0
287.183899 80.0
288.164368 140.0
288.416718 36.0
290.585907 44.0
291.139862 84.0
291.619141 36.0
292.011139 24.0
292.131775 108.0
292.70871 44.0
293.110565 276.0
293.276093 32.0
294.106323 320.0
297.065369 96.0
298.021973 60.0
298.139771 108.0
298.286163 112.0
299.132477 200.0
299.697021 40.0
300.109161 496.0
300.668915 48.0
301.107697 240.0
301.631317 160.0
302.137543 1032.0
303.143768 204.0
303.994019 56.0
304.583374 36.0
305.529724 32.0
306.144989 84.0
307.148041 76.0
308.158173 388.0
308.388794 32.0
308.735901 52.0
309.175293 172.0
310.154144 96.0
311.112732 160.0
313.116425 420.0
314.124268 92.0
315.119263 72.0
316.111725 120.0
317.14444 252.0
318.147827 32.0
319.15686 148.0
320.164368 104.0
321.141083 160.0
321.522217 28.0
322.232758 124.0
323.176819 84.0
323.61734 24.0
324.122101 76.0
324.213928 72.0
325.212097 96.0
325.960907 40.0
326.128754 96.0
327.181976 100.0
328.121368 248.0
328.428436 48.0
328.682617 164.0
328.844452 20.0
329.191315 164.0
329.596222 56.0
329.735138 52.0
330.127441 580.0
330.476349 32.0
330.91684 40.0
331.137024 352.0
331.717438 36.0
332.216858 84.0
332.577148 32.0
332.832947 136.0
333.177734 192.0
334.078461 44.0
334.404755 24.0
336.190643 96.0
337.208771 168.0
337.711792 72.0
337.793793 48.0
338.173889 272.0
338.544037 44.0
339.142456 96.0
339.717926 84.0
340.093994 52.0
341.093964 100.0
341.176361 148.0
341.600372 32.0
341.977509 24.0
342.107178 80.0
343.157318 124.0
343.287231 28.0
344.113953 92.0
344.753296 40.0
345.144012 72.0
346.210663 88.0
346.720856 32.0
347.168945 236.0
347.548065 96.0
347.992065 36.0
348.158051 184.0
348.289429 64.0
348.491699 32.0
348.848785 36.0
348.932129 36.0
349.174438 5164.0
349.363098 44.0
349.551575 56.0
349.775879 44.0
349.952698 60.0
350.176025 1468.0
350.541473 48.0
350.995148 28.0
351.090668 124.0
351.190033 236.0
352.896576 36.0
353.189728 744.0
353.531525 24.0
353.951141 40.0
354.12265 116.0
354.205688 180.0
354.719086 40.0
355.067322 40.0
355.218658 248.0
355.656158 120.0
355.920685 52.0
356.1492 40.0
356.41391 48.0
357.124298 64.0
358.154144 256.0
359.171661 112.0
360.130127 104.0
361.219666 72.0
362.136566 104.0
362.517151 44.0
363.146698 52.0
363.192322 120.0
364.157501 76.0
364.412994 36.0
365.203949 284.0
366.202698 152.0
367.191193 184.0
367.877075 68.0
368.158356 52.0
368.62326 40.0
369.12915 112.0
370.154694 68.0
371.14978 120.0
372.19046 68.0
373.769135 44.0
375.191254 112.0
375.434723 140.0
376.16983 100.0
376.411102 36.0
376.732727 128.0
377.165894 116.0
379.188507 208.0
379.670746 48.0
380.186951 68.0
381.179871 260.0
381.785217 36.0
382.206238 76.0
382.708832 108.0
383.212677 32.0
383.468536 56.0
384.203522 80.0
385.180573 80.0
386.106903 64.0
388.203522 156.0
389.13147 244.0
389.22525 96.0
390.168304 80.0
390.199493 32.0
390.247681 108.0
390.85611 40.0
391.128052 188.0
391.222809 320.0
392.117371 64.0
393.184448 152.0
394.987946 116.0
395.114655 84.0
395.824554 76.0
396.217804 64.0
397.210236 96.0
397.69104 36.0
397.881744 36.0
398.190796 80.0
398.721375 168.0
399.103333 92.0
399.714813 148.0
400.196167 84.0
400.658478 68.0
401.137085 64.0
401.705414 36.0
402.165497 56.0
403.160034 64.0
403.675354 60.0
404.131287 184.0
405.046906 32.0
405.219421 36.0
406.21521 40.0
406.716431 148.0
407.182556 96.0
407.719757 108.0
408.128174 72.0
408.225372 104.0
408.814575 24.0
409.179626 216.0
409.988281 52.0
410.091553 32.0
410.272278 80.0
411.150757 88.0
412.664429 84.0
412.910492 168.0
413.15744 64.0
414.167908 68.0
414.62207 40.0
415.271332 52.0
416.714478 136.0
416.857605 108.0
417.16745 124.0
418.151855 128.0
418.264404 80.0
419.007843 68.0
419.142395 140.0
419.242737 180.0
419.582153 24.0
419.787994 100.0
420.196075 64.0
420.326752 36.0
420.699341 188.0
421.203186 356.0
421.73938 24.0
422.161346 96.0
422.446564 28.0
423.16748 100.0
423.718414 92.0
424.138397 108.0
424.232086 88.0
425.1922 108.0
425.702057 148.0
426.192474 104.0
426.675873 112.0
427.180542 76.0
428.191467 144.0
429.168121 52.0
429.617218 64.0
429.789001 80.0
430.125488 96.0
430.223511 124.0
431.185822 212.0
432.228271 96.0
432.647064 92.0
433.231812 144.0
433.364502 132.0
433.457397 32.0
433.729492 64.0
433.981262 52.0
434.158203 244.0
434.258667 392.0
434.705811 132.0
435.201996 160.0
435.570129 56.0
435.703186 92.0
436.156555 300.0
436.555145 52.0
437.209991 268.0
437.354645 140.0
438.742157 108.0
439.182892 160.0
440.217468 88.0
441.186066 128.0
441.818512 96.0
442.099945 40.0
442.203247 116.0
442.837433 40.0
443.192444 92.0
443.753143 52.0
444.215088 180.0
444.354523 164.0
444.717407 80.0
445.171417 320.0
445.739624 48.0
446.230591 104.0
446.71051 120.0
447.22757 68.0
448.252594 100.0
449.195007 316.0
449.689117 152.0
449.989044 108.0
450.185699 184.0
451.13916 116.0
451.531891 32.0
452.248993 260.0
453.235168 108.0
453.742462 116.0
454.027649 32.0
455.226685 268.0
455.738342 100.0
456.234131 128.0
456.734619 92.0
457.205383 136.0
457.704346 84.0
458.180298 512.0
458.398163 44.0
459.203735 176.0
459.367676 48.0
459.668304 32.0
459.958771 32.0
460.208435 100.0
460.36557 36.0
460.798309 76.0
461.090729 36.0
461.200256 100.0
461.378235 96.0
461.481781 64.0
462.2453 2188.0
462.666199 68.0
462.954163 44.0
463.246704 644.0
463.530396 112.0
463.695099 32.0
463.919922 32.0
464.232147 316.0
464.574036 32.0
464.719788 184.0
465.225311 196.0
465.357513 40.0
465.646332 36.0
465.783875 48.0
465.949005 28.0
466.21048 128.0
466.719849 84.0
467.064209 24.0
467.229523 88.0
468.170715 196.0
468.484253 40.0
468.732635 120.0
469.077698 64.0
469.217773 596.0
469.720184 264.0
470.217407 80.0
470.3349 44.0
471.258453 88.0
472.191254 108.0
472.743408 88.0
472.882019 32.0
473.192841 168.0
473.755737 132.0
473.852844 144.0
474.2099 132.0
474.733643 72.0
474.90802 28.0
475.213684 132.0
475.602844 28.0
476.200806 72.0
477.236542 220.0
477.467499 28.0
477.578918 36.0
477.927246 44.0
478.233887 360.0
478.490173 84.0
479.028809 52.0
479.236084 112.0
479.419525 52.0
479.634918 56.0
480.261383 440.0
480.726746 64.0
480.836487 40.0
480.970032 32.0
481.233795 176.0
481.739227 44.0
481.837189 36.0
482.172729 164.0
482.355042 68.0
482.719116 128.0
483.195404 76.0
483.484497 140.0
483.64389 68.0
483.737823 120.0
484.078583 96.0
484.249908 164.0
485.193604 188.0
485.411865 36.0
485.69278 48.0
485.945709 84.0
486.190002 192.0
486.479828 44.0
486.749023 164.0
487.181732 128.0
487.464508 36.0
487.619324 44.0
487.746002 64.0
488.199432 140.0
488.714142 136.0
489.042053 92.0
489.200195 96.0
489.717041 120.0
489.916443 52.0
490.184204 168.0
490.735107 96.0
491.201233 104.0
492.218933 56.0
492.77066 136.0
493.17688 132.0
493.269348 120.0
493.719177 124.0
494.030823 68.0
494.239563 220.0
494.470154 32.0
494.640259 36.0
494.739502 28.0
495.293579 124.0
495.618958 144.0
495.725403 128.0
496.05899 68.0
496.241913 68.0
496.701538 100.0
497.281769 440.0
497.735718 88.0
497.920593 68.0
498.226135 168.0
498.717468 84.0
499.199188 48.0
499.429504 132.0
499.753571 272.0
500.056488 32.0
500.216644 120.0
500.327362 48.0
500.42926 144.0
501.05481 40.0
501.21463 100.0
501.654266 148.0
501.754211 100.0
502.19696 140.0
502.882874 48.0
503.237915 120.0
503.884003 152.0
505.215637 200.0
505.717224 72.0
505.90213 40.0
506.263214 140.0
506.477264 36.0
506.720154 112.0
506.864685 28.0
506.965149 100.0
507.217194 100.0
507.769196 128.0
508.200226 56.0
508.750122 264.0
509.244843 112.0
509.738983 24.0
510.185242 44.0
510.329224 40.0
510.738922 140.0
510.862183 44.0
511.208008 108.0
511.741425 116.0
512.233459 140.0
512.741211 184.0
513.736145 272.0
513.925476 68.0
514.236023 116.0
514.745178 72.0
515.161682 136.0
515.2771 52.0
515.743591 48.0
516.267273 160.0
516.699463 240.0
517.259216 112.0
517.756714 116.0
518.20752 80.0
518.309082 32.0
518.77356 92.0
518.947815 40.0
519.220276 84.0
519.270081 64.0
519.315735 96.0
519.741211 108.0
520.207092 112.0
520.764587 144.0
520.997375 48.0
521.220459 72.0
522.200256 64.0
522.467896 112.0
522.744812 220.0
522.992615 144.0
523.253418 192.0
523.794678 92.0
524.259583 272.0
524.612 32.0
524.757996 244.0
525.24762 160.0
525.37146 84.0
525.78064 96.0
526.249756 124.0
526.745789 168.0
526.979919 68.0
527.241638 136.0
527.746765 228.0
528.253723 172.0
528.444214 32.0
528.795959 112.0
529.252197 96.0
529.367798 36.0
530.279114 76.0
530.763184 104.0
531.250122 500.0
531.748596 200.0
532.255981 388.0
532.73175 76.0
532.849426 32.0
533.07019 44.0
533.259521 204.0
533.570679 36.0
533.717957 84.0
534.071411 24.0
534.26886 140.0
534.773499 92.0
535.117859 72.0
535.237183 132.0
535.398071 96.0
535.825928 56.0
536.21051 68.0
536.445801 52.0
536.622986 32.0
536.74115 44.0
536.962708 76.0
537.21814 96.0
537.750488 128.0
538.242126 160.0
538.544373 36.0
539.194763 156.0
539.980225 44.0
540.26416 636.0
540.484009 40.0
540.778442 120.0
541.277039 248.0
541.759216 116.0
541.863098 64.0
542.255676 88.0
542.516174 44.0
542.769592 216.0
542.991394 60.0
543.266541 360.0
543.600586 32.0
543.773682 508.0
544.19519 76.0
544.299316 200.0
544.581909 40.0
544.71582 72.0
545.225769 192.0
545.750977 260.0
545.936401 36.0
546.085388 32.0
546.259888 192.0
546.621765 68.0
546.748291 204.0
547.252441 164.0
547.590942 36.0
547.772888 40.0
548.265625 1680.0
548.462646 48.0
548.768677 468.0
549.264648 296.0
549.591553 84.0
549.785889 144.0
549.950256 40.0
550.260437 172.0
550.524414 100.0
550.765747 248.0
551.042053 40.0
551.23584 156.0
551.730652 68.0
552.000183 52.0
552.254822 224.0
552.989075 36.0
553.255005 76.0
553.558838 60.0
553.788269 216.0
554.253601 204.0
554.579163 32.0
554.796448 44.0
554.909424 40.0
555.239868 36.0
555.780701 36.0
556.251648 256.0
556.541626 104.0
556.77478 100.0
557.275146 696.0
557.537842 48.0
557.774597 740.0
558.127502 28.0
558.274414 196.0
558.473938 36.0
558.768738 68.0
559.114624 52.0
559.293274 108.0
559.77655 332.0
560.102051 56.0
560.279236 112.0
560.615112 24.0
560.75824 124.0
561.052856 36.0
561.249573 148.0
561.433533 136.0
561.687195 40.0
562.043518 48.0
562.263245 2252.0
562.624268 40.0
562.766296 1112.0
563.268616 388.0
563.496216 68.0
563.762207 512.0
563.905579 92.0
564.122131 32.0
564.262451 352.0
564.652161 96.0
564.767273 232.0
565.091492 60.0
565.270203 280.0
565.796753 76.0
566.031372 48.0
566.282043 292.0
566.657532 160.0
566.777405 236.0
567.257446 140.0
567.753357 100.0
568.270386 96.0
568.561523 88.0
568.776672 100.0
569.250671 112.0
569.410767 72.0
569.790527 76.0
570.042236 28.0
570.272217 120.0
570.529358 36.0
570.785828 112.0
571.062378 152.0
571.268921 1368.0
571.546509 36.0
571.772949 1348.0
571.976685 52.0
572.083435 32.0
572.271912 448.0
572.601929 36.0
572.771973 352.0
573.275024 408.0
573.62439 48.0
573.769592 188.0
574.051941 32.0
574.243774 132.0
574.775879 124.0
574.983948 64.0
575.2948 852.0
575.641418 32.0
575.824951 148.0
575.947327 32.0
576.085022 84.0
576.315613 292.0
576.498169 36.0
576.767151 112.0
577.033997 52.0
577.275696 180.0
577.631287 72.0
577.876465 24.0
578.273499 340.0
578.784058 212.0
579.118347 40.0
579.257507 72.0
579.455872 36.0
579.563293 108.0
579.78595 480.0
580.039124 48.0
580.275391 228.0
580.770508 328.0
581.17572 84.0
581.287292 452.0
581.636841 72.0
581.775208 232.0
581.913574 40.0
582.256409 252.0
582.758057 80.0
583.052063 76.0
583.216309 204.0
583.760315 108.0
584.114563 36.0
584.259155 84.0
584.768188 96.0
585.25238 184.0
585.501953 84.0
585.79303 92.0
586.262573 176.0
586.566711 36.0
586.753723 116.0
586.983582 40.0
587.26001 224.0
587.745728 168.0
588.251709 120.0
588.637268 32.0
588.782349 280.0
589.266724 184.0
589.764526 100.0
589.906128 32.0
590.333618 152.0
590.78894 164.0
591.021362 40.0
591.268616 204.0
591.778992 216.0
592.199707 28.0
592.339355 32.0
592.525513 76.0
592.816284 76.0
593.262451 216.0
593.550049 44.0
593.772827 228.0
593.907288 40.0
594.14032 108.0
594.27124 240.0
594.787109 260.0
595.010742 36.0
595.292053 112.0
595.782043 304.0
596.269836 232.0
596.616943 88.0
596.760376 240.0
597.049438 32.0
597.244141 192.0
597.767395 96.0
598.261047 96.0
598.654785 68.0
598.777832 216.0
599.228149 96.0
599.622192 104.0
599.787781 308.0
600.26416 224.0
600.559082 48.0
600.798279 116.0
601.244629 200.0
601.781799 364.0
601.973694 40.0
602.270264 192.0
602.419495 120.0
602.63855 36.0
602.79718 160.0
603.287659 260.0
603.793274 152.0
604.232178 160.0
604.281677 124.0
604.316956 152.0
604.611877 36.0
604.795959 236.0
605.220703 212.0
605.599731 144.0
605.785339 388.0
605.913513 32.0
606.27124 132.0
606.588379 40.0
606.789124 96.0
607.122314 36.0
607.272949 232.0
607.782166 120.0
608.337646 176.0
608.775696 108.0
609.228821 132.0
609.449097 132.0
609.637939 120.0
609.773621 324.0
609.952759 44.0
610.297058 404.0
610.472412 64.0
610.805176 160.0
611.241882 196.0
611.774475 236.0
612.301636 76.0
612.632019 64.0
612.811218 124.0
612.931824 36.0
613.299072 136.0
613.749817 152.0
614.116028 40.0
614.292419 100.0
614.590027 44.0
614.792419 268.0
615.278687 240.0
615.459473 40.0
615.802917 296.0
616.288391 140.0
616.51947 32.0
616.810791 328.0
617.067261 40.0
617.285278 516.0
617.465149 56.0
617.801453 248.0
618.008118 56.0
618.295288 188.0
618.578735 40.0
618.84491 112.0
619.054443 44.0
619.292419 24.0
619.927063 44.0
620.274353 168.0
620.482727 40.0
620.780884 308.0
621.289429 220.0
621.80072 184.0
622.276001 236.0
622.484985 108.0
622.795166 88.0
623.282898 104.0
623.789795 80.0
623.949036 88.0
624.108215 52.0
624.311218 92.0
624.509583 40.0
624.793213 160.0
625.15802 76.0
625.27832 192.0
625.414734 52.0
625.574158 32.0
625.98877 60.0
626.30542 80.0
626.531128 48.0
626.78479 120.0
627.266724 88.0
627.805542 152.0
627.967957 36.0
628.291809 368.0
628.806091 372.0
629.022705 120.0
629.279236 316.0
629.598389 36.0
629.809204 320.0
630.094299 36.0
630.290039 232.0
630.796082 104.0
631.256958 144.0
631.809021 308.0
632.101624 68.0
632.249084 104.0
632.297241 200.0
632.784851 400.0
633.025879 36.0
633.293518 220.0
633.650024 44.0
633.789978 116.0
634.165039 48.0
634.305298 180.0
634.614624 36.0
634.796875 180.0
634.984009 32.0
635.291809 424.0
635.44989 56.0
635.785522 104.0
635.996338 24.0
636.30957 848.0
636.478699 28.0
636.684875 44.0
636.814148 840.0
637.313965 864.0
637.808716 412.0
637.959106 36.0
638.08075 40.0
638.288025 228.0
638.522766 64.0
638.788208 184.0
639.288452 184.0
639.519897 36.0
639.795898 136.0
640.306396 172.0
640.473267 64.0
640.79425 192.0
641.066223 32.0
641.312378 88.0
641.816895 228.0
642.306946 660.0
642.507507 52.0
642.63501 36.0
642.793457 820.0
643.289856 688.0
643.79071 412.0
644.277771 324.0
644.431702 36.0
644.619324 76.0
644.801514 412.0
645.257263 88.0
645.419189 32.0
645.856506 60.0
646.302246 528.0
646.634338 36.0
646.787231 92.0
647.275269 336.0
647.574829 32.0
647.78479 220.0
648.093994 72.0
648.286804 336.0
648.488892 64.0
648.647644 36.0
648.79895 112.0
648.93811 40.0
649.132996 52.0
649.283691 540.0
649.474121 32.0
649.814209 256.0
650.308716 3016.0
650.542664 80.0
650.810669 1600.0
650.978271 52.0
651.312317 2476.0
651.587646 32.0
651.818054 1148.0
652.075928 32.0
652.3078 748.0
652.826355 472.0
653.143127 104.0
653.306091 412.0
653.639465 96.0
653.807007 232.0
653.977051 124.0
654.297363 204.0
654.764465 92.0
654.878662 44.0
655.290161 252.0
655.787048 84.0
656.323975 644.0
656.543579 32.0
656.801941 280.0
657.005676 28.0
657.304749 340.0
657.7995 144.0
658.128845 32.0
658.299255 376.0
658.818726 180.0
659.309753 156.0
659.666931 32.0
659.836304 124.0
660.289246 80.0
660.453003 36.0
660.844299 40.0
661.318481 140.0
661.446838 112.0
661.820129 88.0
662.314514 160.0
662.567993 52.0
662.6828 40.0
662.80365 120.0
663.125977 52.0
663.30365 188.0
663.629089 56.0
663.801758 428.0
663.963379 44.0
664.311035 1868.0
664.515991 44.0
664.645569 120.0
664.808472 1312.0
665.027832 52.0
665.309265 2588.0
665.557556 40.0
665.804932 2216.0
665.986877 40.0
666.308167 1256.0
666.616638 60.0
666.81073 944.0
667.08783 44.0
667.304871 764.0
667.450073 48.0
667.598328 44.0
667.834717 104.0
668.109009 44.0
668.299561 200.0
668.481262 52.0
668.783203 108.0
669.460754 36.0
669.642151 36.0
669.862061 172.0
670.052551 32.0
670.316223 376.0
670.815613 212.0
671.316772 552.0
671.813904 320.0
672.093628 52.0
672.30603 116.0
672.515442 36.0
672.81958 508.0
673.314148 344.0
673.825745 840.0
674.334167 316.0
674.803467 344.0
675.080139 44.0
675.307434 400.0
675.659973 40.0
675.827087 288.0
676.074219 32.0
676.291931 104.0
676.793884 256.0
677.081116 44.0
677.304626 696.0
677.811523 496.0
678.081238 32.0
678.322571 244.0
678.52948 36.0
678.805542 172.0
679.301025 320.0
679.413513 108.0
679.811523 172.0
680.316711 276.0
680.608459 36.0
680.813049 224.0
681.337585 72.0
681.790466 128.0
682.020874 40.0
682.304688 248.0
682.553711 56.0
682.661926 32.0
682.817688 108.0
683.086731 40.0
683.326416 152.0
683.77124 104.0
683.936646 48.0
684.316223 596.0
684.486877 36.0
684.822327 1004.0
684.997131 88.0
685.107422 64.0
685.328674 148.0
685.504578 52.0
685.821716 488.0
685.988647 40.0
686.323547 468.0
686.813965 304.0
687.091003 68.0
687.295166 200.0
687.818542 324.0
688.093872 52.0
688.322449 336.0
688.831482 424.0
689.335388 668.0
689.582886 176.0
689.828735 160.0
690.164551 92.0
690.330139 612.0
690.470337 44.0
690.813171 352.0
690.9729 32.0
691.315674 188.0
691.829895 252.0
692.32135 164.0
692.599182 32.0
692.799988 212.0
693.186462 40.0
693.309021 224.0
693.807739 548.0
693.975464 44.0
694.316467 216.0
694.824829 192.0
695.028198 48.0
695.254944 180.0
695.817322 512.0
696.315125 180.0
696.462952 36.0
696.80658 192.0
697.102356 44.0
697.826965 104.0
698.129395 88.0
698.32959 80.0
698.533691 48.0
698.81488 168.0
699.320435 208.0
699.814941 452.0
700.302917 224.0
700.826294 428.0
701.346985 196.0
701.508118 44.0
701.805664 220.0
702.008545 60.0
702.317444 168.0
702.821289 480.0
703.332397 720.0
703.613953 36.0
703.834229 348.0
704.172058 44.0
704.34082 112.0
704.578064 44.0
704.79718 204.0
705.119629 28.0
705.307007 248.0
705.81958 176.0
706.118652 92.0
706.338867 304.0
706.821777 104.0
707.333984 300.0
707.593079 140.0
707.843018 764.0
708.332764 344.0
708.853333 284.0
709.310913 160.0
709.813782 352.0
709.968933 36.0
710.328125 220.0
710.830078 168.0
711.348877 96.0
711.825684 148.0
712.05957 68.0
712.29364 440.0
712.53595 104.0
712.827454 392.0
713.320557 348.0
713.826233 428.0
714.323669 340.0
714.630371 56.0
714.836182 352.0
715.330139 336.0
715.842529 128.0
716.044373 32.0
716.335632 248.0
716.832886 212.0
717.381714 184.0
717.803406 84.0
718.12793 56.0
718.342285 152.0
718.816833 356.0
719.341248 132.0
719.495117 188.0
719.833557 368.0
720.063965 152.0
720.321472 152.0
720.846558 88.0
721.000549 56.0
721.154602 36.0
721.320801 164.0
721.548401 36.0
721.834229 1984.0
722.079285 28.0
722.33728 2304.0
722.661804 72.0
722.845093 1188.0
723.336426 268.0
723.832214 440.0
724.057007 52.0
724.331055 256.0
725.317749 312.0
725.826843 144.0
726.004883 112.0
726.339905 208.0
726.828857 400.0
727.341553 244.0
727.674133 104.0
727.842407 88.0
728.320129 544.0
728.840637 316.0
729.202271 68.0
729.33551 508.0
729.834717 244.0
730.066223 32.0
730.35083 1308.0
730.634705 40.0
730.847534 1080.0
731.350098 1024.0
731.617188 36.0
731.852112 404.0
731.994019 28.0
732.111938 52.0
732.323792 340.0
732.518188 132.0
732.798706 104.0
732.947205 76.0
733.332825 476.0
733.836304 204.0
734.088379 96.0
734.343201 288.0
734.518494 36.0
734.827148 196.0
735.332886 328.0
735.539734 40.0
735.832947 5420.0
736.337463 4076.0
736.617737 120.0
736.836365 3596.0
737.027222 100.0
737.095764 100.0
737.347595 688.0
737.566101 108.0
737.840942 1072.0
738.334656 688.0
738.83374 460.0
738.969482 100.0
739.330139 280.0
739.493958 80.0
739.83197 292.0
740.112976 136.0
740.342957 324.0
740.629822 32.0
740.836731 356.0
741.020203 32.0
741.349915 264.0
741.572021 224.0
741.833801 228.0
742.328735 924.0
742.606628 44.0
742.838684 620.0
743.127808 68.0
743.343262 504.0
743.659241 76.0
743.84967 324.0
744.086548 56.0
744.350037 8364.0
744.850586 8440.0
745.070312 92.0
745.180237 132.0
745.349915 3904.0
745.619873 136.0
745.848267 1492.0
746.140076 104.0
746.346619 1420.0
746.621338 52.0
746.844421 1636.0
747.118408 96.0
747.342102 868.0
747.578857 68.0
747.833313 256.0
748.152405 64.0
748.356018 416.0
748.667603 152.0
748.832336 468.0
749.340149 748.0
749.542786 96.0
749.833252 636.0
749.990051 44.0
750.154663 28.0
750.339355 696.0
750.846436 236.0
751.015869 68.0
751.332764 740.0
751.545715 56.0
751.820496 900.0
752.037659 56.0
752.167542 56.0
752.339966 356.0
752.5448 36.0
752.809387 240.0
753.100586 32.0
753.342834 284.0
753.605042 48.0
753.637695 40.0
753.726562 36.0
753.868225 164.0
754.330505 172.0
754.54303 80.0
754.845947 440.0
755.01062 112.0
755.357239 432.0
755.674255 36.0
755.840271 2736.0
756.178101 32.0
756.341064 1772.0
756.845886 1204.0
757.168945 84.0
757.341675 408.0
757.551575 108.0
757.843018 548.0
758.00293 132.0
758.179565 84.0
758.346863 18288.0
758.653809 192.0
758.846375 13408.0
759.07428 48.0
759.120605 76.0
759.347534 5124.0
759.848633 2284.0
760.34552 4184.0
760.677551 56.0
760.840088 3404.0
761.344299 1768.0
761.835388 284.0
762.182617 32.0
762.343079 424.0
762.849548 264.0
763.1698 76.0
763.36377 672.0
763.527283 48.0
763.850952 440.0
764.170288 80.0
764.210754 40.0
764.366089 568.0
764.654968 28.0
764.858765 248.0
765.042786 28.0
765.199524 36.0
765.372864 104.0
765.624756 28.0
765.877319 136.0
765.989929 148.0
766.416992 132.0
766.583008 44.0
766.834351 152.0
767.212952 32.0
767.371155 280.0
767.848145 224.0
768.099609 40.0
768.361877 252.0
768.840515 88.0
769.339539 212.0
769.598389 28.0
769.850281 348.0
770.33728 340.0
770.500488 180.0
770.84198 68.0
770.987183 72.0
771.119934 36.0
771.343018 252.0
771.473999 136.0
771.828125 132.0
772.022949 32.0
772.361145 160.0
772.86792 100.0
773.050537 80.0
773.334167 172.0
773.820984 148.0
774.096558 36.0
774.290405 56.0
774.357239 52.0
774.859375 32.0
775.001343 40.0
775.374451 184.0
775.848877 272.0
776.330444 284.0
776.581482 40.0
776.846008 296.0
777.043396 32.0
777.185547 32.0
777.350525 504.0
777.668884 52.0
777.853882 524.0
778.163269 40.0
778.350769 436.0
778.547424 40.0
778.657593 120.0
778.872314 400.0
779.172241 44.0
779.369385 272.0
779.835632 148.0
780.362244 228.0
780.494385 56.0
780.824158 108.0
781.099976 84.0
781.34314 404.0
781.830566 84.0
781.986816 84.0
782.334473 256.0
782.507996 28.0
782.881836 104.0
783.321106 188.0
783.816406 164.0
784.350037 484.0
784.620361 84.0
784.849854 336.0
785.131409 28.0
785.342957 84.0
785.542297 32.0
785.845764 116.0
786.360535 280.0
786.59668 64.0
786.846741 180.0
787.111877 116.0
787.316162 88.0
787.633972 44.0
787.824768 36.0
788.224426 36.0
788.385498 76.0
788.882263 48.0
789.386841 72.0
789.826111 124.0
790.343201 244.0
790.84967 320.0
791.07251 92.0
791.36499 224.0
791.632019 176.0
791.860168 404.0
792.184448 40.0
792.335022 1184.0
792.84967 516.0
793.153564 60.0
793.337891 304.0
793.894714 116.0
794.358643 160.0
794.716187 52.0
794.848022 228.0
795.057617 148.0
795.334167 216.0
795.848267 176.0
796.342285 76.0
796.568115 100.0
796.856018 84.0
797.009949 108.0
797.161926 32.0
797.431946 32.0
797.864014 52.0
798.415771 120.0
798.87262 92.0
799.285767 56.0
799.339417 44.0
799.827759 148.0
799.971985 96.0
800.346863 604.0
800.857666 380.0
801.336914 216.0
801.667664 36.0
801.884216 96.0
802.100891 40.0
802.37085 324.0
802.840515 264.0
803.369019 84.0
803.816833 108.0
804.456238 244.0
804.840515 228.0
805.354675 232.0
805.862122 180.0
806.348938 176.0
806.816528 164.0
807.384827 168.0
807.833923 152.0
808.302307 188.0
808.595032 140.0
808.848816 32.0
808.975708 80.0
809.356506 92.0
809.574097 124.0
809.882446 108.0
810.082031 44.0
810.418701 64.0
810.880493 48.0
811.345398 164.0
811.479614 52.0
811.733826 56.0
811.880005 212.0
812.172058 32.0
812.374573 280.0
812.541077 36.0
812.864746 208.0
813.383118 228.0
813.698975 48.0
814.005554 56.0
814.362671 164.0
814.846375 116.0
815.377991 148.0
815.812317 124.0
816.340698 212.0
816.881592 84.0
817.36731 264.0
817.610474 32.0
817.873962 132.0
818.375366 368.0
818.871216 64.0
819.366882 292.0
819.671448 36.0
819.853943 92.0
820.376465 272.0
820.879333 412.0
821.14801 32.0
821.397339 336.0
821.90625 144.0
822.389587 92.0
822.758545 28.0
822.899353 136.0
823.317688 112.0
823.563232 60.0
823.849487 92.0
824.40564 188.0
824.896301 104.0
825.34375 144.0
825.540039 92.0
825.882935 632.0
826.369873 868.0
826.87915 864.0
827.380554 724.0
827.647583 52.0
827.874268 444.0
828.391357 352.0
828.880859 232.0
829.220154 56.0
829.406128 156.0
829.810913 36.0
830.418152 156.0
830.731323 28.0
830.859924 104.0
831.085754 56.0
831.368408 184.0
831.860596 156.0
832.363953 124.0
832.867615 568.0
833.389526 504.0
833.691895 40.0
833.877563 340.0
834.374329 324.0
834.682312 40.0
834.884033 3044.0
835.196045 104.0
835.38269 4804.0
835.696228 84.0
835.881531 2932.0
836.378906 792.0
836.720154 52.0
836.87915 988.0
837.388794 724.0
837.886658 492.0
838.086731 140.0
838.368164 164.0
838.601929 52.0
838.86499 108.0
839.19635 104.0
839.373474 240.0
839.878662 1808.0
840.182495 64.0
840.375671 3064.0
840.86615 820.0
841.379028 1008.0
841.624878 132.0
841.876282 1164.0
842.142761 52.0
842.381653 1188.0
842.669189 44.0
842.874573 688.0
843.141968 32.0
843.368103 192.0
843.669983 84.0
843.86438 240.0
844.008362 40.0
844.126526 148.0
844.360962 216.0
844.677307 116.0
844.857056 400.0
845.368408 252.0
845.866699 220.0
846.044861 68.0
846.179321 92.0
846.380554 220.0
846.746826 92.0
846.862183 312.0
847.272827 44.0
847.41803 60.0
847.588135 40.0
847.875488 152.0
848.107788 160.0
848.354065 540.0
848.881592 24616.0
849.151917 220.0
849.381165 21348.0
849.882568 12340.0
850.383484 5368.0
850.877502 6160.0
851.382202 4092.0
851.651184 68.0
851.876038 2096.0
852.372498 788.0
852.622009 56.0
852.862488 1404.0
853.370178 1216.0
853.698975 76.0
853.872681 324.0
854.213867 52.0
854.368591 88.0
854.675293 36.0
855.364929 76.0
855.681885 32.0
855.849731 100.0
855.980286 40.0
856.183105 64.0
856.306641 76.0
856.854126 100.0
857.267578 44.0
857.690002 44.0
858.144958 60.0
858.405396 132.0
859.413574 136.0
859.845032 36.0
860.096252 92.0
860.423157 132.0
860.648987 148.0
860.885559 120.0
861.191406 36.0
861.428894 244.0
862.089539 52.0
862.273621 48.0
862.462708 80.0
863.194092 104.0
863.42926 152.0
863.662354 40.0
863.985535 132.0
864.419434 88.0
864.666321 44.0
865.037903 20.0
865.361633 72.0
866.367126 160.0
866.662231 36.0
866.849915 44.0
867.340881 52.0
867.600769 24.0
868.107788 40.0
868.333191 108.0
868.765259 52.0
869.403564 80.0
869.691711 40.0
870.315979 88.0
870.757935 40.0
871.322327 92.0
871.442017 72.0
871.755127 36.0
872.395203 64.0
872.564636 132.0
873.129578 40.0
873.449829 80.0
873.78894 44.0
874.052795 84.0
874.426514 92.0
875.259277 28.0
875.406311 84.0
876.413269 92.0
877.448242 92.0
877.995911 48.0
878.430359 40.0
878.921631 48.0
879.452454 144.0
880.207153 48.0
880.362854 168.0
880.604309 164.0
881.020508 64.0
881.448242 120.0
881.582458 64.0
882.424438 188.0
882.541199 48.0
882.875671 124.0
883.524963 44.0
884.351135 92.0
885.429321 176.0
886.174377 28.0
886.440063 68.0
886.838623 48.0
887.417725 144.0
887.729736 56.0
888.18689 188.0
888.414917 56.0
888.813904 48.0
889.32074 180.0
889.484375 84.0
890.419861 84.0
890.791443 100.0
891.076843 32.0
891.410156 100.0
891.889832 152.0
892.199829 24.0
892.455261 164.0
893.171143 32.0
893.371155 104.0
893.742737 40.0
893.895203 108.0
894.338623 60.0
894.886475 280.0
895.377869 52.0
896.378601 180.0
896.718018 40.0
897.377991 180.0
897.894104 104.0
898.092896 32.0
898.350769 88.0
899.394287 152.0
900.157166 36.0
900.39325 104.0
901.151917 32.0
901.304993 140.0
901.515503 40.0
902.39209 64.0
902.822205 80.0
903.333008 272.0
903.49823 96.0
904.028381 40.0
904.254456 60.0
904.388672 60.0
904.810425 120.0
905.420532 172.0
905.895874 268.0
906.427307 68.0
906.820312 152.0
907.566528 44.0
907.823242 44.0
908.364868 1092.0
908.863525 1192.0
909.367859 436.0
909.866699 96.0
910.403625 124.0
910.591003 32.0
910.841064 92.0
911.369751 84.0
912.448181 76.0
912.556946 108.0
913.395813 108.0
914.411987 92.0
915.213318 128.0
915.435059 48.0
916.409302 40.0
916.891785 32.0
917.412109 84.0
918.428223 84.0
919.420227 128.0
919.769958 136.0
920.519531 236.0
921.339233 68.0
921.839661 132.0
922.355591 128.0
923.059326 80.0
923.412476 68.0
924.418945 68.0
924.861267 84.0
925.434265 116.0
925.888977 80.0
926.379517 192.0
926.723206 44.0
927.454529 100.0
928.353882 56.0
929.451599 88.0
930.460999 100.0
931.42511 68.0
932.417542 52.0
933.485596 56.0
933.543579 48.0
933.595459 96.0
934.520813 52.0
935.44696 64.0
935.723267 128.0
936.432861 144.0
936.919189 108.0
937.398804 60.0
938.21167 116.0
938.415894 188.0
938.9104 184.0
939.49646 76.0
940.395386 88.0
943.398804 92.0
944.289368 40.0
945.347412 68.0
946.151123 100.0
946.464844 80.0
946.837463 56.0
947.429993 148.0
947.572266 132.0
948.424438 128.0
949.422485 88.0
950.430298 84.0
951.438293 72.0
952.239075 96.0
952.464355 44.0
953.419678 88.0
954.461548 60.0
954.856995 44.0
955.053955 76.0
955.310059 72.0
955.467407 228.0
956.479126 68.0
957.462341 204.0
958.425476 84.0
958.839966 36.0
959.254517 40.0
959.479065 64.0
959.787598 36.0
960.123352 140.0
960.480896 76.0
961.111206 136.0
961.289062 36.0
961.427368 76.0
963.088379 96.0
963.444458 20.0
964.097473 28.0
964.236023 48.0
964.427612 48.0
965.449219 44.0
965.681519 108.0
966.471375 72.0
967.484924 116.0
968.476501 88.0
969.607544 124.0
970.451477 172.0
971.403625 36.0
971.931213 120.0
972.434631 164.0
972.92511 136.0
973.431091 108.0
974.058777 64.0
974.465515 80.0
975.437683 220.0
975.595215 100.0
976.404846 84.0
977.065063 124.0
977.464417 76.0
977.722717 64.0
978.041626 32.0
978.432434 156.0
978.619812 76.0
978.938904 88.0
979.393616 132.0
979.776733 36.0
980.477844 88.0
981.293701 112.0
981.47345 48.0
982.427856 64.0
983.452698 64.0
984.131165 120.0
984.471191 76.0
984.851196 108.0
985.111267 28.0
985.374207 56.0
986.405273 140.0
987.472229 64.0
988.074463 32.0
988.334961 36.0
988.675659 72.0
989.539917 36.0
990.422241 80.0
992.005615 48.0
993.428894 60.0
994.443237 184.0
994.858521 112.0
995.43158 24.0
996.024963 32.0
996.586914 60.0
997.393433 36.0
997.957153 36.0
998.489563 64.0
999.105286 44.0
999.472534 88.0
1000.435486 40.0
1001.454895 80.0
1002.472839 80.0
1002.674683 40.0
1003.407288 56.0
1004.390442 80.0
1005.435364 144.0
1006.479248 64.0
1006.958313 44.0
1007.727112 76.0
1008.435425 68.0
1009.462341 200.0
1010.098022 116.0
1010.476196 172.0
1011.48468 84.0
1012.528503 60.0
1013.522644 52.0
1014.478027 112.0
1014.821777 44.0
1016.548523 104.0
1017.686951 88.0
1018.482544 92.0
1019.42218 68.0
1019.802917 176.0
1020.515442 108.0
1022.165527 96.0
1022.410095 52.0
1022.563904 88.0
1023.444763 48.0
1023.776123 36.0
1024.469727 68.0
1025.143066 156.0
1026.04126 32.0
1026.443359 268.0
1027.510376 132.0
1027.818481 40.0
1028.463379 124.0
1029.903931 92.0
1030.428955 72.0
1031.090698 176.0
1031.52063 40.0
1032.440186 44.0
1033.433105 140.0
1034.532227 88.0
1035.126953 72.0
1035.473999 104.0
1035.721802 152.0
1036.460327 84.0
1038.541138 128.0
1039.191528 88.0
1039.450806 84.0
1040.363159 60.0
1040.527588 56.0
1041.400391 64.0
1041.679321 36.0
1042.523071 48.0
1042.708252 112.0
1043.506836 76.0
1044.446045 144.0
1045.484375 96.0
1045.827637 128.0
1046.425537 64.0
1047.200195 80.0
1047.496948 52.0
1048.470703 56.0
1048.747925 36.0
1049.511841 220.0
1050.461914 48.0
1051.453857 68.0
1052.425537 108.0
1053.459717 32.0
1054.450684 336.0
1054.629639 120.0
1055.444702 172.0
1056.151001 72.0
1056.482422 76.0
1057.497925 64.0
1058.38501 212.0
1059.451172 64.0
1059.675537 56.0
1059.966064 36.0
1061.516968 108.0
1062.478638 36.0
1062.790283 32.0
1063.487183 120.0
1063.74646 64.0
1064.703003 36.0
1065.420288 116.0
1066.501831 80.0
1066.804688 180.0
1067.075439 88.0
1067.445679 72.0
1068.467041 64.0
1068.525513 52.0
1069.221191 132.0
1069.468994 108.0
1069.799316 112.0
1070.388672 44.0
1072.412598 84.0
1072.704834 136.0
1073.492676 164.0
1074.521851 68.0
1075.472778 144.0
1076.48999 80.0
1077.500488 80.0
1078.439087 156.0
1079.186523 116.0
1079.408447 80.0
1079.49353 48.0
1079.526733 64.0
1080.539185 120.0
1080.694702 104.0
1081.071899 32.0
1081.512085 88.0
1081.973267 72.0
1082.120117 64.0
1082.602417 32.0
1083.462524 32.0
1083.882202 132.0
1084.469482 128.0
1085.519653 84.0
1085.876709 56.0
1086.170776 36.0
1087.45874 56.0
1088.377686 40.0
1088.567017 76.0
1089.334229 100.0
1089.50354 84.0
1090.495728 104.0
1091.453857 128.0
1092.436035 64.0
1093.508911 148.0
1093.767822 100.0
1094.421387 64.0
1094.569092 72.0
1095.453247 92.0
1096.467896 88.0
1097.476562 108.0
1097.755737 44.0
1098.09375 116.0
1100.481812 32.0
1101.539429 64.0
1102.703247 132.0
1103.168945 92.0
1103.550049 56.0
1104.227783 60.0
1104.482056 88.0
1105.520264 24.0
1106.304565 144.0
1106.474243 216.0
1107.485352 132.0
1108.548096 84.0
1108.85022 36.0
1109.550781 64.0
1111.462524 64.0
1112.436646 80.0
1113.527832 164.0
1114.226929 48.0
1114.528931 184.0
1114.737549 48.0
1115.541504 68.0
1117.452759 96.0
1118.500854 88.0
1119.526733 56.0
1119.575928 44.0
1119.643555 60.0
1120.533813 44.0
1121.024658 56.0
1121.238159 36.0
1121.4729 48.0
1121.842041 56.0
1122.47644 56.0
1123.309448 56.0
1123.48584 92.0
1124.491943 68.0
1125.523315 108.0
1126.32373 32.0
1126.484253 40.0
1126.880005 32.0
1127.522095 76.0
1128.463989 40.0
1129.494751 64.0
1130.512817 56.0
1132.300171 148.0
1132.536133 76.0
1133.501587 144.0
1133.651855 64.0
1134.523438 40.0
1135.461548 140.0
1136.529541 84.0
1137.542847 64.0
1138.528931 80.0
1138.787109 36.0
1139.312256 136.0
1140.44397 60.0
1140.594604 40.0
1140.939087 44.0
1141.529785 668.0
1142.537842 332.0
1143.529663 160.0
1144.559204 68.0
1144.990479 24.0
1145.227783 44.0
1145.510254 84.0
1146.026001 60.0
1146.220215 124.0
1146.500854 148.0
1147.537109 48.0
1148.50354 32.0
1149.570068 36.0
1150.281006 32.0
1151.512939 88.0
1152.52063 88.0
1153.049805 32.0
1153.526123 56.0
1153.980713 116.0
1154.528564 108.0
1155.519409 152.0
1156.378906 92.0
1156.432495 64.0
1156.510254 96.0
1157.480469 64.0
1158.546509 180.0
1158.944702 68.0
1159.484131 160.0
1160.526367 28.0
1160.556641 92.0
1161.224365 100.0
1161.484131 100.0
1162.00647 48.0
1162.549683 56.0
1163.506714 256.0
1164.481934 92.0
1165.529175 44.0
1166.504272 80.0
1167.488525 104.0
1168.512451 60.0
1169.528931 56.0
1170.539673 44.0
1171.084961 36.0
1171.484985 48.0
1172.4823 60.0
1173.485718 112.0
1174.184448 48.0
1174.588135 88.0
1175.560913 32.0
1176.544678 92.0
1177.531616 60.0
1177.681885 108.0
1179.366821 36.0
1180.528198 104.0
1180.965332 100.0
1181.381592 92.0
1181.578735 32.0
1182.521118 72.0
1182.674561 116.0
1183.661255 124.0
1184.456299 76.0
1185.526001 92.0
1186.316284 36.0
1186.589844 164.0
1187.535522 100.0
1188.540771 44.0
1188.754517 24.0
1189.530151 56.0
1190.552612 56.0
1190.610962 100.0
1191.516113 48.0
1192.42749 48.0
1193.021851 96.0
1193.308105 144.0
1194.409302 52.0
1194.960083 88.0
1196.282593 44.0
1196.484131 200.0
1197.51355 44.0
1198.566528 48.0
1200.525146 108.0
1201.5354 172.0
1202.529907 164.0
1203.451416 124.0
1204.489868 132.0
1205.531128 84.0
1206.558228 92.0
1207.499512 168.0
1208.572021 56.0
1209.513062 52.0
1210.571167 108.0
1211.452881 56.0
1212.477295 44.0
1214.516968 192.0
1215.524292 112.0
1216.362549 36.0
1217.518799 132.0
1218.521484 56.0
1218.853638 92.0
1219.408447 60.0
1219.449951 56.0
1220.456421 80.0
1221.534058 72.0
1222.508423 36.0
1226.587891 56.0
1227.190796 88.0
1227.570435 52.0
1228.553223 72.0
1228.754395 108.0
1229.201294 36.0
1229.4729 100.0
1229.827026 52.0
1230.400269 56.0
1231.727905 84.0
1232.588623 96.0
1233.249512 24.0
1233.498901 88.0
1233.728638 40.0
1233.797485 76.0
1234.033203 32.0
1234.557983 128.0
1235.487671 368.0
1235.914795 72.0
1236.495605 528.0
1237.494751 300.0
1238.483032 80.0
1239.255981 112.0
1239.470215 320.0
1239.839478 32.0
1240.485229 120.0
1241.523315 84.0
1242.579224 20.0
1242.799683 84.0
1243.455688 48.0
1243.635498 64.0
1244.512329 24.0
1245.540405 96.0
1246.467773 64.0
1246.919556 64.0
1248.630737 96.0
1248.833496 144.0
1249.126343 32.0
1249.62207 80.0
1251.49292 80.0
1252.530396 64.0
1253.527466 192.0
1254.53894 44.0
1255.532593 80.0
1256.567871 212.0
1257.566162 40.0
1258.560913 52.0
1260.21228 32.0
1260.913818 36.0
1261.602539 160.0
1262.628906 32.0
1262.666992 56.0
1263.314209 44.0
1263.676758 44.0
1265.5354 72.0
1266.079712 96.0
1266.616455 72.0
1266.751343 124.0
1270.529907 52.0
1271.624512 80.0
1271.983643 64.0
1272.711182 36.0
1273.516235 52.0
1274.494751 76.0
1275.565918 60.0
1276.614014 104.0
1277.509155 60.0
1277.567017 48.0
1278.197388 24.0
1278.635742 52.0
1279.552979 144.0
1280.579956 168.0
1281.503906 60.0
1281.663696 44.0
1284.573364 168.0
1285.84314 92.0
1286.646851 80.0
1287.588989 108.0
1288.604004 160.0
1289.525757 36.0
1289.685913 48.0
1290.372803 44.0
1290.578857 92.0
1290.807861 92.0
1291.598633 84.0
1291.930298 72.0
1292.571777 80.0
1293.634644 76.0
1294.612183 24.0
1298.330322 72.0
1298.610596 80.0
1299.578735 168.0
1300.619141 88.0
1301.594482 112.0
1302.478394 112.0
1303.273071 128.0
1303.609497 52.0
1304.631104 80.0
1305.667358 52.0
1306.312378 64.0
1306.542725 48.0
1307.602783 64.0
1309.52478 80.0
1310.693237 76.0
1311.362549 96.0
1312.587158 108.0
1313.651123 40.0
1314.615479 184.0
1315.543945 40.0
1315.728882 52.0
1316.584473 76.0
1317.550659 68.0
1319.569702 96.0
1321.608154 56.0
1323.578613 52.0
1324.625244 32.0
1325.550415 80.0
1326.627075 52.0
1327.105835 180.0
1327.592163 272.0
1328.579956 160.0
1329.01062 32.0
1329.593872 416.0
1330.599487 56.0
1330.900757 116.0
1331.056274 132.0
1331.61438 156.0
1332.607056 64.0
1333.602417 64.0
1334.33728 40.0
1335.641479 24.0
1336.550171 68.0
1339.651245 44.0
1340.748047 32.0
1341.578613 208.0
1342.555298 216.0
1343.565308 56.0
1344.572144 88.0
1345.577515 60.0
1346.613525 68.0
1348.530762 64.0
1349.046509 76.0
1349.59668 64.0
1350.540283 96.0
1351.576172 48.0
1352.560547 52.0
1353.488647 116.0
1354.546509 56.0
1355.562866 32.0
1357.041748 56.0
1360.589722 56.0
1361.577393 52.0
1363.130249 60.0
1364.647095 64.0
1365.484619 48.0
1365.649536 40.0
1367.631958 132.0
1368.59314 264.0
1369.603271 44.0
1370.664917 88.0
1371.969727 128.0
1372.585938 40.0
1373.670166 68.0
1374.621216 48.0
1376.648438 116.0
1377.618286 124.0
1379.795654 40.0
1381.524658 152.0
1382.556274 60.0
1382.89917 108.0
1385.589966 148.0
1385.816284 76.0
1386.593628 100.0
1387.609253 52.0
1388.546387 108.0
1390.647217 68.0
1391.635864 32.0
1392.539673 44.0
1395.573364 120.0
1396.657715 52.0
1398.96936 44.0
1399.636963 44.0
1399.851562 36.0
1401.211304 32.0
1401.627441 56.0
1403.574463 68.0
1403.932739 40.0
1404.673218 120.0
1405.557251 28.0
1406.619507 36.0
1407.565308 56.0
1409.574829 148.0
1412.495972 56.0
1413.578003 244.0
1414.609985 244.0
1415.597168 92.0
1418.059204 48.0
1418.615479 144.0
1419.609985 132.0
1420.556641 104.0
1421.614014 76.0
1422.695679 72.0
1423.609375 108.0
1424.49939 72.0
1426.641357 44.0
1428.640381 52.0
1430.616577 24.0
1431.557007 40.0
1431.72583 92.0
1432.618408 40.0
1433.583618 80.0
1434.235229 168.0
1435.659912 44.0
1436.601929 72.0
1443.519897 20.0
1447.664062 20.0
1451.474243 76.0
1451.887085 44.0
1452.591553 48.0
1454.025269 44.0
1456.602783 32.0
1457.649048 44.0
1458.646973 64.0
1460.643921 36.0
1461.350464 32.0
1462.617798 48.0
1463.129761 92.0
1468.694092 40.0
1469.744629 44.0
1471.860474 72.0
1473.681519 44.0
1479.85437 128.0
1480.589966 36.0
1483.682007 96.0
1484.934448 48.0
1486.777222 32.0
1488.580566 148.0
1489.60498 48.0
1492.61499 88.0
1496.526001 72.0
1497.676758 72.0
1497.956421 40.0
1498.203125 52.0
1499.165527 44.0
1500.696045 52.0
1501.659302 116.0
1502.662109 88.0
1503.604614 104.0
1504.204468 28.0
1504.591309 68.0
1505.589233 64.0
1506.207642 52.0
1506.652954 108.0
1507.618042 48.0
1510.658691 60.0
1511.644409 276.0
1512.646362 36.0
1514.682739 52.0
1515.662842 76.0
1516.666016 136.0
1517.644775 88.0
1518.105225 64.0
1518.731567 52.0
1519.993286 72.0
1521.683594 108.0
1527.681885 36.0
1528.529053 148.0
1529.750366 40.0
1530.588623 52.0
1531.570923 64.0
1533.615356 56.0
1535.115112 36.0
1535.689575 28.0
1537.688599 64.0
1544.594971 64.0
1548.580566 96.0
1549.671143 68.0
1550.648315 108.0
1552.621704 80.0
1553.626465 76.0
1556.265625 64.0
1557.321899 112.0
1558.37854 80.0
1566.617676 48.0
1568.737549 108.0
1569.166748 32.0
1569.671875 40.0
1571.702393 52.0
1572.683594 196.0
1573.622314 48.0
1576.396484 120.0
1580.574951 40.0
1581.664917 32.0
1582.805786 52.0
1583.592041 28.0
1583.972534 36.0
1584.643311 52.0
1586.66272 32.0
1587.627686 52.0
1597.624634 68.0
1597.955811 48.0
1599.689575 256.0
1600.669067 208.0
1601.664551 208.0
1601.920532 48.0
1602.685181 144.0
1603.69397 40.0
1604.686157 120.0
1605.660156 120.0
1606.247681 44.0
1606.733032 72.0
1608.675415 36.0
1610.739136 52.0
1620.046509 32.0
1625.721313 32.0
1628.626709 32.0
1629.60437 40.0
1648.028198 68.0
1650.668579 36.0
1651.678711 68.0
1666.737671 68.0
1677.580688 48.0
1696.731567 112.0
1735.799927 132.0
1756.442017 64.0
1797.848755 52.0
1822.635864 72.0
1905.075195 88.0
1921.888062 64.0
1948.722656 56.0
1954.156982 100.0
END IONS
