BEGIN IONS
PEPMASS=869.35
CHARGE=1
MSLEVEL=2
SOURCE_INSTRUMENT=LC-ESI-qTof
FILENAME=euphodendroidin_T.mgf
SEQ=*..*
IONMODE=Positive
ORGANISM=GNPS-LIBRARY
NAME=euphodendroidin T M+H
PI=LITAUDON/TOUBOUL
DATACOLLECTOR=Esposito
SMILES=C[C@@]1(OC(C2=CN=CC=C2)=O)C[C@](OC(C)=O)(C([C@@H](C)/C=C/C(C)(C)[C@H](OC(C3=CN=CC=C3)=O)[C@H](OC(C)=O)[C@@H](OC(C4=CC=CC=C4)=O)C([C@@H]5OC(C(C)C)=O)=C)=O)[C@]5([H])[C@H]1OC(C)=O
INCHI=
INCHIAUX=
PUBMED=N/A
SUBMITUSER=lfnothias
TAGS=
LIBRARYQUALITY=1
SPECTRUMID=CCMSLIB00000840331
SCANS=1
51.022747 640.24408
55.054008 788.897217
57.033474 875.774292
67.05368 697.562378
69.03299 5398.922852
69.069313 1722.302002
71.049126 3572.870117
77.037865 4564.105957
78.034012 5770.351074
79.053452 675.712402
80.04863 1381.593994
81.033249 413.388611
81.069336 1085.334961
83.048958 3229.710938
83.085381 1105.890991
85.026978 569.217896
85.064156 561.473083
93.069595 1059.82605
95.048798 2051.469971
95.084999 2995.312012
97.063759 581.582397
97.099808 678.563416
99.043434 431.38089
105.032593 197167.90625
106.028763 73610.3125
107.031372 1904.956055
107.046577 1048.938965
107.085411 2761.022949
108.044701 630.045471
109.063751 2178.0
109.100266 7906.212891
110.102875 519.672974
111.043022 758.645813
117.067825 477.963501
119.046967 899.307678
119.084427 2144.894043
121.063812 2795.940918
121.100052 2028.353027
122.060616 748.388611
123.043327 2551.204102
123.079506 12965.110352
123.112617 1222.81604
124.038017 257312.703125
125.041687 6014.629883
125.057487 4885.720215
125.09565 1379.353027
129.068314 951.039001
131.08371 1762.954956
133.063507 1557.411987
133.099838 2740.581055
135.07991 3716.334961
135.113754 594.305298
137.058273 875.818787
137.094849 2273.996094
139.073929 923.419922
139.111328 478.654694
141.064072 754.629028
141.089386 1924.286011
142.078796 666.896118
143.08432 2131.988037
145.063736 4633.643066
145.100861 2000.227051
147.079071 3232.361084
147.115479 838.002014
149.058548 722.045227
149.094727 2338.966064
151.073288 1779.983032
151.110931 921.408508
153.089722 446.177612
155.067596 459.165894
155.083405 819.590515
156.092499 547.804688
157.063507 754.262329
157.099442 4769.103027
158.105957 1251.011963
159.079025 7852.800781
159.115784 4420.829102
160.119171 420.019196
161.058167 1462.432007
161.094391 2657.943115
161.131378 1687.340942
163.073776 1789.899048
163.108856 746.008728
165.088623 1219.832031
166.048691 22355.349609
167.052597 838.044922
167.083206 1121.199951
169.063248 1437.390015
169.099701 5571.960938
170.105087 472.898193
171.079468 5566.456055
171.115677 8523.262695
172.081558 611.515503
172.122284 776.617371
173.05751 753.343201
173.094604 3352.698975
173.130692 919.677673
175.074158 4683.981934
175.110168 3450.988037
176.080017 567.920105
177.089813 2370.516113
177.124527 543.377808
178.085892 719.606812
179.078659 649.036926
179.10434 826.444885
181.098862 3242.944092
183.078476 1362.890991
183.114395 1234.125977
185.058029 884.629578
185.094269 3975.035889
185.130661 3485.552002
186.102173 939.451904
187.073792 5033.562012
187.110016 7235.236816
188.075836 441.003204
188.115997 449.385315
189.052505 463.001587
189.089157 1966.202026
189.125854 5675.667969
190.084549 516.650879
190.128845 692.011902
191.069931 635.09967
191.103928 1020.314026
192.099182 434.251587
193.097366 1813.462036
194.077942 897.062683
194.105179 734.225098
195.077835 1002.411987
195.115189 5427.028809
196.086136 468.636414
197.057968 1104.962036
197.094513 4306.591797
197.130127 2296.379883
198.098999 543.583984
199.075012 979.054871
199.109634 4380.366211
199.146393 1036.787964
201.089142 3211.085938
201.124756 1544.612061
202.124359 474.578888
203.070679 771.635315
203.104996 2836.330078
203.142441 413.481415
205.083435 1643.562988
205.119904 1952.337036
207.115189 13571.959961
208.122528 2057.977051
209.095062 5579.815918
209.130844 11405.790039
210.101089 652.995605
210.135941 1296.609985
211.109833 6256.26709
211.143158 1324.884033
213.089722 2575.387939
213.126099 7464.692871
214.133041 1073.597046
215.068848 1711.474976
215.103607 5222.460938
215.139664 1822.014038
216.064377 586.960571
216.110107 453.761108
217.08757 1723.234985
217.11969 1611.069946
218.095978 461.301208
219.097702 1202.170044
219.114273 1643.400024
220.094696 507.080902
220.121201 824.04248
221.093674 787.8125
221.13237 1625.119019
222.099274 518.446777
222.137772 994.637817
223.109573 9829.870117
223.145477 7462.791016
224.116394 1740.899048
225.091187 1117.817017
225.125336 6040.191895
225.158142 1326.003052
226.131195 491.85141
227.105301 5563.808105
227.140564 5607.040039
227.173645 1426.529053
228.064026 13390.629883
229.060898 2234.351074
229.082733 2028.067017
229.120514 4157.88916
231.100037 1405.218018
231.135696 2156.717041
232.12825 2383.362061
233.082794 721.857605
233.124893 1362.109009
235.110428 4521.539062
235.141983 1055.958984
236.117142 1203.761963
237.089127 1573.532959
237.125824 23863.880859
237.161774 21281.169922
237.228592 529.432373
238.098022 471.160797
238.131073 1832.906006
238.164825 1718.692017
239.103958 2360.268066
239.139999 2421.184082
239.177292 1939.613037
240.109909 456.816315
241.082214 556.25
241.120453 6213.712891
241.157028 5642.678223
242.160812 599.923828
243.100632 2217.37207
243.13472 1130.839966
245.152924 637.251892
246.105301 574.039124
247.09436 1231.447998
247.146729 15440.259766
248.149826 730.745178
249.124695 1983.114014
249.162155 2713.434082
250.133575 3183.155029
250.161346 802.480225
251.105789 2859.572998
251.141052 16922.470703
252.109909 807.674072
252.146713 1278.120972
253.120697 6783.861816
254.121964 1296.001953
255.101212 2852.366943
255.135529 12499.580078
255.172577 10718.099609
256.13913 1457.770996
256.174377 1551.817993
257.117157 2135.797119
257.145081 916.014221
259.130554 1000.408997
260.125397 4484.140137
261.125671 511.231506
261.160034 532.908203
263.141449 2365.665039
264.102325 1724.246948
264.148346 1167.06897
265.15686 149713.90625
266.160095 11802.129883
267.135742 4403.905762
267.171997 5730.207031
268.095978 494.176514
268.140167 492.928894
269.115173 3841.574951
269.151947 9765.105469
270.073456 848.255371
270.112762 439.188507
271.13147 1857.18103
273.147156 1036.142944
274.084106 437.000488
275.14151 19571.310547
276.144226 1677.119995
277.12381 416.176514
278.127747 1856.77002
279.101318 1209.652954
279.133972 1157.561035
279.171448 455.109497
280.098969 924.964417
280.128235 509.489899
281.151917 2376.584961
282.112305 1170.906982
282.15506 465.446594
283.127838 1123.457031
283.167694 73589.390625
284.170746 6047.10498
285.146454 1280.225952
285.182373 510.864685
287.126221 969.366028
287.16214 592.120178
289.156311 637.132996
291.100037 645.065979
291.136536 1317.853027
292.096008 2536.604004
292.132233 1216.000977
293.152222 138087.09375
294.110321 3452.602051
294.154999 10988.860352
295.130798 3787.166992
296.134857 462.728485
297.146576 2531.115967
297.181213 1449.526978
298.106049 983.631287
299.124298 598.880493
299.161896 848.89447
301.178314 6388.814941
307.167511 3014.535889
308.168762 461.043396
309.145416 1114.01001
309.180054 645.751221
310.105255 1314.676025
310.147125 1201.297974
311.162262 171356.296875
312.121033 1091.009033
312.165344 11690.110352
313.139954 884.125671
314.152557 467.746307
315.156372 675.370972
317.14859 590.052429
318.146881 1140.55603
320.09021 2015.82605
320.124695 651.934509
323.164734 663.717529
324.118408 688.422913
324.160248 508.636414
325.177856 19880.849609
326.181793 804.692383
327.159576 753.773682
329.172791 28463.240234
329.272034 416.988312
330.147247 6301.374023
330.171844 3935.573975
331.15036 773.439514
332.126648 584.68689
332.158997 953.186279
335.162659 6712.529785
336.121613 533.883484
336.160156 2351.624023
338.10025 600.737793
340.116211 463.000397
342.14798 578.946777
343.187653 5278.606934
344.14859 416.169586
344.190857 725.000183
345.148499 606.024719
346.140961 581.593079
346.176147 510.698212
348.157837 689.879578
352.11615 567.710815
353.173431 62618.398438
354.176392 4312.351074
356.162384 901.526672
358.144867 613.360291
359.162445 861.448181
359.196991 531.58783
360.156372 2321.066895
360.189453 1228.139038
361.194916 415.647095
363.190918 754.393127
369.184113 1890.779053
370.177643 2227.343018
371.183319 40099.929688
372.186401 3444.260986
373.180298 2255.586914
374.172974 1470.276001
376.152252 1131.972046
378.168213 554.69397
378.203583 655.018921
380.149048 496.480988
381.203827 2837.63208
382.207367 511.363007
385.199463 499.728485
387.192841 7857.812988
388.18866 19648.869141
389.193268 6800.671875
390.20047 776.990112
392.182129 654.698181
397.176849 1303.057007
398.135437 614.77832
398.172668 3825.228027
399.175385 846.765076
399.212463 1273.005981
405.204285 1465.603027
406.199127 28165.929688
407.202118 2345.860107
413.193695 3814.99292
414.13031 410.145691
414.197235 420.164612
415.188446 13543.950195
416.183838 40530.039062
417.188568 3925.177979
420.17923 912.843018
424.207336 1252.927979
431.20401 2275.003906
432.143127 581.419678
433.197632 6067.918945
434.194458 74316.367188
435.197327 7306.986816
436.172882 1652.790039
441.225006 3286.304932
442.125488 915.48053
442.227203 536.781128
446.191528 505.92041
447.212494 1279.031006
448.209229 36631.269531
448.323608 567.271729
449.211365 3817.930908
450.226013 1029.598022
451.21756 621.592102
452.203918 21430.269531
453.206085 2756.149902
457.199249 478.143707
458.193726 3882.471924
459.196655 682.84729
459.235107 2858.008057
466.220245 11148.349609
467.22287 1473.453003
474.151062 496.972412
475.208466 6435.490234
476.204468 84423.90625
477.207275 9208.819336
482.191132 861.204529
492.213867 448.842987
493.219299 3173.343994
494.215149 84939.289062
495.217651 10431.530273
501.244995 526.372925
504.236359 1456.333008
505.237762 571.884277
508.229034 2822.125
510.221985 2149.638916
512.224976 3230.519043
513.227295 572.200806
520.20636 606.080383
521.247803 658.780518
522.245728 1906.453979
528.235779 10669.320312
529.237 1365.802979
535.228271 1103.498047
536.225708 11376.849609
537.229004 1493.057007
538.220032 7964.796875
539.222412 1483.480957
546.244263 634.28363
554.236145 8917.143555
555.237915 1140.166992
556.230225 13337.530273
557.233826 1982.880005
563.258606 1019.929016
564.256409 6215.104004
565.258789 713.61499
570.245544 17885.609375
571.24884 2839.580078
572.262695 610.251404
574.238037 1915.084961
580.230225 3185.225098
582.266663 3682.147949
583.27063 591.102295
588.2547 1185.712036
589.253357 2404.839111
598.241394 75260.726562
599.243042 12304.099609
616.251282 207560.09375
617.254456 30514.089844
618.252258 466.421814
623.280884 5102.875977
624.280518 2692.572998
625.27832 705.503479
634.257446 524.321899
640.24939 1651.661011
644.28479 783.287415
658.265869 28716.519531
658.399902 484.559204
659.265564 5545.833008
676.271362 1515.208984
677.26947 641.669189
686.293579 16404.849609
687.295166 3130.958008
704.303284 8517.023438
705.30658 2191.562988
721.270508 844.539429
728.301086 1360.005005
746.313354 408570.90625
747.317749 66101.273438
781.292725 1382.162964
782.292297 420.117889
799.299744 697.635681
809.322021 431.090912
869.345459 234251.90625
870.349121 43435.800781
END IONS
