BEGIN IONS
PEPMASS=1527.83
CHARGE=1
MSLEVEL=2
SOURCE_INSTRUMENT=DI-ESI-qTof
FILENAME=Plipastatin_1Na_LTQ_1527_8286.mzXML
SEQ=*..*
IONMODE=Positive
ORGANISM=GNPS-LIBRARY
NAME=Plipastatin-C17-Val M+Na
PI=Dorrestein
DATACOLLECTOR=J Watrous
SMILES=CCC(C)[C@H]1CC(=O)[C@@H](NC(=O)[C@H](NC(=O)[C@H]2CCCN2C(=O)[C@@H](NC(=O)[C@H](NC(=O)[C@H](NC(=O)[C@@H](CC3=CC=C(C=C3)OC1=O)NC(=O)[C@H](CCCN)NC(=O)[C@@H](CCC(=O)O)NC(=O)CC(CCCCCCCCCCCC(C)C)O)C(C)O)CCC(=O)O)C(C)C)CCC(=O)N)CC4=CC=C(C=C4)O
INCHI=N/A
INCHIAUX=N/A
PUBMED=N/A
SUBMITUSER=jdwatrou
TAGS=
LIBRARYQUALITY=3
SPECTRUMID=CCMSLIB00000072187
SCANS=1
482.166656 1.183807
484.333344 0.852488
507.25 0.780935
530.25 0.845941
546.083313 0.951186
556.583313 1.558874
595.333313 2.064217
595.666687 1.045245
605.833313 0.888511
611.166687 0.764856
611.583313 1.15114
623.416687 1.218249
639.25 1.145145
692.416687 0.958164
710.0 0.894059
715.916687 0.998552
750.083313 0.822304
795.5 0.921697
811.083374 1.211756
815.416687 0.901452
825.166687 1.0986
826.5 1.180142
836.333374 1.039116
840.583374 0.803698
841.25 0.881387
841.5 0.967278
842.416687 1.176645
843.416687 1.277613
849.5 0.785267
853.5 1.517453
859.416687 1.446369
868.833374 0.983444
869.333374 1.255624
869.666687 1.656956
871.583374 1.19762
875.083374 0.782225
875.416687 1.220466
882.416687 1.625624
892.5 0.842871
894.5 0.844961
899.333374 1.558115
899.5 0.99422
902.416687 1.262946
903.0 1.174277
903.5 1.672972
917.416687 1.917822
919.25 1.298545
921.75 0.848687
923.916687 0.984442
926.583374 1.236439
927.25 1.93427
927.5 2.980853
932.916687 1.099523
939.333374 0.839351
943.583374 0.780693
944.416687 1.560467
945.333374 1.327276
955.25 1.663738
955.583374 1.05012
960.25 1.383238
960.583374 1.367083
963.333374 1.235797
964.166687 1.122645
968.0 0.796442
971.166687 1.453613
971.5 1.038037
972.416687 5.053411
972.75 2.884428
973.583374 3.230699
977.333374 0.939018
980.166687 0.767974
981.333374 1.654956
982.583374 0.940702
983.583374 1.479823
987.166687 1.328677
988.0 2.205731
988.333374 5.20722
988.583374 6.45009
989.25 1.035738
998.083374 1.282845
998.416687 3.313349
999.166687 2.522554
999.583374 4.545908
1004.416687 3.330837
1014.25 1.07336
1014.666687 1.145298
1015.25 2.197028
1015.5 3.678093
1016.5 58.306049
1017.333374 0.980432
1019.25 0.863976
1021.083374 0.946979
1032.416626 60.326744
1033.416626 1.34234
1033.75 1.074231
1044.416626 1.373691
1047.416626 0.8324
1049.416626 1.215697
1050.416626 0.90711
1050.583374 0.981346
1051.166626 1.129249
1051.416626 1.209894
1051.583374 2.320232
1051.75 2.824939
1052.583374 0.900244
1057.416626 1.281911
1058.166626 1.953314
1058.666626 1.62106
1066.666626 1.316372
1067.416626 2.467112
1067.666626 0.874571
1068.0 1.555784
1068.416626 5.061999
1068.833374 3.482703
1074.25 1.313765
1074.5 2.053291
1077.25 1.111652
1080.833374 0.937976
1082.666626 0.968187
1084.25 5.006704
1084.5 6.50962
1085.25 1.347693
1085.666626 1.654178
1086.5 7.831171
1087.166626 0.831991
1088.75 1.25041
1089.0 1.815745
1091.75 0.992685
1093.166748 1.036863
1094.5 2.599251
1095.25 2.131497
1095.5 3.800832
1096.833374 1.048591
1100.166748 0.812735
1100.416748 1.018369
1102.5 13.32091
1105.916748 0.864073
1109.666748 0.965495
1110.333374 1.435548
1111.0 1.677366
1111.416748 3.961352
1111.666748 4.230369
1112.583374 39.494888
1113.5 3.632886
1113.75 1.781334
1114.5 1.127263
1115.666748 1.356851
1116.666748 1.09085
1117.0 1.010646
1118.083374 1.303202
1118.5 6.922753
1123.5 1.241731
1123.666748 0.972787
1125.333374 0.801045
1125.666748 0.98246
1126.083374 0.916062
1127.75 1.777368
1127.916748 4.195719
1128.5 32.438393
1129.5 6.838572
1130.583374 63.29266
1131.666748 0.900792
1135.5 2.215709
1140.833374 0.768304
1141.416748 0.845045
1141.666748 1.141108
1142.416748 2.443291
1142.75 0.986215
1143.25 1.853274
1143.666748 0.967583
1144.333374 0.906618
1146.5 69.731201
1147.666748 0.935414
1151.0 1.011183
1151.333374 1.239436
1151.583374 0.777841
1151.833374 1.044245
1152.416748 0.842661
1153.833374 1.144241
1154.25 0.915917
1155.0 1.31265
1157.25 1.77233
1159.25 1.019878
1160.666748 2.176934
1161.916748 1.179067
1166.833374 0.84098
1167.5 0.842779
1168.0 0.91393
1168.5 1.068703
1169.0 0.856659
1174.666748 0.821294
1175.166748 1.042397
1176.416748 0.964645
1180.0 1.284981
1180.75 1.546716
1184.75 0.815405
1188.166748 1.16331
1188.666748 1.524379
1192.0 1.045897
1197.083374 0.836932
1199.083374 1.276264
1201.166748 0.932642
1203.333374 0.975447
1203.583374 1.335513
1203.75 1.130659
1203.916748 0.91481
1206.75 0.765694
1211.666748 0.848836
1213.416748 1.270501
1215.416748 1.117259
1215.666748 1.19985
1218.666748 1.224468
1221.583374 1.22499
1223.583374 1.833692
1225.666748 1.042963
1228.5 1.803268
1233.583374 1.034624
1233.833374 0.996882
1238.75 0.883302
1239.25 3.607159
1239.583374 10.490406
1241.25 1.178059
1241.666748 1.413669
1245.166748 1.868896
1248.5 0.866158
1250.5 1.471948
1251.333374 2.342007
1251.583374 2.517372
1252.0 1.237049
1252.583374 1.068791
1253.25 1.307079
1255.583374 1.465323
1255.833374 1.328834
1257.333374 1.887766
1257.666748 3.670758
1259.5 1.611534
1259.666748 1.380158
1260.333374 0.912319
1261.416748 0.986248
1261.75 0.868644
1262.0 1.298749
1265.75 2.102878
1267.333374 1.405869
1268.083374 1.34998
1268.25 1.426008
1268.5 2.037597
1268.916748 1.245153
1270.666748 0.946877
1270.833374 0.825292
1271.583374 1.220165
1272.5 0.938132
1273.5 2.725259
1273.833374 1.515729
1274.833374 0.956819
1276.166748 0.933615
1279.416748 2.427143
1279.666748 2.767211
1279.916748 2.31618
1281.666748 0.873091
1282.583374 1.376815
1283.0 1.222564
1283.416748 7.821212
1284.083374 1.276725
1284.25 0.825425
1284.416748 1.440104
1287.25 1.095752
1294.416748 1.144656
1296.333374 0.803539
1297.25 1.256536
1297.666748 1.100764
1298.333374 0.866813
1298.916748 1.701744
1299.666748 0.857113
1300.416748 2.965858
1300.833374 1.270808
1301.5 10.239698
1301.916748 5.79173
1302.166748 2.630252
1302.5 1.28261
1302.833374 1.158087
1303.25 1.291455
1305.916748 1.017766
1308.5 0.890989
1313.583374 1.216705
1314.5 4.362635
1314.666748 3.59594
1315.083374 1.710121
1318.5 0.785043
1319.833374 0.954918
1322.25 1.152902
1325.416748 0.828484
1326.25 2.202008
1326.666748 2.156893
1326.916748 1.2596
1328.666748 0.855356
1329.5 0.94934
1330.833374 1.120035
1331.666748 1.541316
1332.083374 1.216008
1332.833374 1.098336
1334.75 1.164224
1334.916748 1.006335
1335.916748 1.038088
1336.833374 2.083544
1338.666748 1.059493
1342.166748 0.821851
1342.416748 1.800264
1346.75 1.674606
1346.916748 1.442593
1351.0 1.386898
1351.75 1.013037
1352.083374 1.012441
1352.833374 0.900691
1353.083374 0.983959
1354.583374 3.816331
1354.916748 3.215668
1362.583374 1.52279
1362.833374 2.022115
1364.25 1.402819
1365.25 1.688224
1365.583374 1.690616
1366.583374 1.331246
1368.5 1.296792
1368.833374 1.380454
1370.5 2.186918
1370.75 4.25094
1371.0 1.905083
1373.416748 1.28003
1374.416748 0.826379
1378.833374 1.125396
1379.166748 0.764822
1379.583374 0.792914
1379.833374 0.935281
1380.333374 6.483884
1380.666748 10.14115
1380.916748 7.555137
1381.25 1.670419
1381.583374 1.025767
1382.75 1.080674
1384.333374 1.968165
1384.666748 1.385887
1386.0 1.198712
1386.583374 8.995618
1386.833374 3.83675
1387.666748 1.355638
1388.583374 1.114943
1390.583374 1.43387
1391.0 0.986825
1391.166748 0.863952
1391.583374 1.25614
1392.333374 0.985695
1395.666748 0.968166
1396.666748 0.927265
1397.5 0.896404
1397.75 1.73521
1398.0 0.862856
1398.583374 3.764586
1398.833374 2.313521
1399.583374 1.063399
1400.666748 3.401366
1401.0 0.79788
1402.083374 0.943308
1403.166748 1.024642
1407.083374 1.21265
1407.333374 2.99848
1407.75 0.786928
1409.666748 0.764278
1410.583374 1.708012
1411.75 0.963936
1414.5 3.718967
1414.75 3.604235
1415.583374 0.768815
1416.083374 1.080321
1416.916748 1.654668
1419.833374 1.088912
1421.583374 1.761063
1421.833374 0.775211
1422.416748 0.885722
1422.75 1.910179
1424.166748 0.819487
1425.416748 1.090618
1426.666748 0.832203
1426.916748 1.022959
1427.75 1.204637
1428.333374 5.045747
1428.75 10.228455
1432.083374 1.337136
1432.833374 1.374072
1434.75 0.908184
1436.5 1.210557
1437.75 2.189079
1438.583374 0.869636
1438.916748 1.229116
1439.333374 1.693241
1439.583374 1.407435
1440.0 0.963631
1443.416748 0.828451
1446.416748 1.3038
1447.083374 1.763154
1447.5 3.332699
1447.75 4.576256
1448.166748 2.373477
1448.583374 2.104279
1449.0 2.030027
1450.666748 1.272211
1451.25 1.307458
1452.583374 0.792298
1453.0 1.340706
1453.5 2.490231
1453.75 0.862918
1455.833374 5.089258
1457.0 1.183763
1457.416748 0.889276
1458.916748 1.074637
1460.75 1.547724
1462.666748 1.459291
1463.333374 2.295393
1463.5 1.579636
1463.666748 1.659955
1463.916748 1.822182
1464.583374 1.136901
1464.833374 2.999343
1465.75 36.845879
1466.666748 2.395635
1467.083374 1.057523
1467.75 0.941653
1469.25 2.294096
1470.5 1.298616
1472.916748 1.147337
1473.583374 2.167542
1473.833374 1.036408
1474.083374 3.36529
1475.166748 0.830356
1479.0 1.400772
1479.666748 0.815927
1480.583374 0.869626
1481.25 1.834388
1481.833374 11.351675
1482.416748 7.640996
1482.666748 10.029295
1483.833374 97.090515
1484.583374 1.274264
1484.75 0.820411
1486.833374 1.10625
1487.5 1.113419
1488.083374 1.341924
1488.916748 1.194804
1489.083374 1.340191
1489.833374 1.024379
1490.333374 1.17278
1490.666748 2.394007
1491.0 1.935963
1491.75 32.679665
1492.833374 6.952845
1493.666748 1.835327
1494.833374 0.829167
1495.5 0.940827
1496.583374 1.484479
1497.333374 1.451288
1497.583374 1.922434
1498.0 2.032469
1498.666748 2.20329
1499.75 71.415405
1501.25 0.883524
1501.583374 1.169173
1504.833374 0.957948
1505.25 1.028935
1505.416748 1.04079
1505.75 3.629954
1506.083374 1.653424
1506.5 0.812279
1508.0 1.392247
1508.25 2.475517
1508.583374 8.877364
1509.75 339.903778
1510.75 16.586975
1511.75 1.651917
1512.416748 1.373764
1512.75 1.568487
1518.0 1.35679
1518.416748 0.807979
1518.666748 1.053806
1519.25 0.97331
1519.5 0.864171
1527.583374 1.974284
1589.583374 1.640526
1590.916748 0.903891
1612.166748 1.319847
1614.916748 0.867644
1617.166748 1.276722
1704.0 0.784986
1726.666748 1.899034
1729.75 0.812355
1769.25 0.832109
1805.916748 0.87876
1821.083374 0.95965
1848.25 0.950494
1906.083374 0.906371
1941.333374 0.917652
1985.166748 0.930308
END IONS
