BEGIN IONS
PEPMASS=737.315
CHARGE=1
MSLEVEL=2
SOURCE_INSTRUMENT=LC-ESI-Orbitrap
FILENAME=Cpd_9_737.mgf
SEQ=*..*
IONMODE=Positive
ORGANISM=GNPS-LIBRARY
NAME=euphodendroidin B M+Na
PI=LITAUDON/TOUBOUL
DATACOLLECTOR=Esposito
SMILES=C[C@@]1(OC(C)=O)C[C@](O)(C([C@@H](C)/C=C/C(C)(C)[C@H](OC(C)=O)[C@H](OC(C)=O)[C@@H](OC(C2=CC=CC=C2)=O)C([C@@H]3OC(C(CC)C)=O)=C)=O)[C@]3([H])[C@H]1O
INCHI=
INCHIAUX=
PUBMED=N/A
SUBMITUSER=lfnothias
TAGS=
LIBRARYQUALITY=1
SPECTRUMID=CCMSLIB00000840542
SCANS=1
200.559402 26049.388672
224.494644 20849.816406
231.244492 16659.027344
259.370575 16146.789062
261.220764 19933.714844
261.847229 18785.746094
265.1604 17073.578125
277.906982 17708.775391
283.169128 47473.109375
285.181946 16286.734375
293.151794 22168.533203
299.194946 18982.927734
311.165955 72866.28125
329.175873 24237.291016
333.147034 21924.517578
345.61792 20111.830078
348.004608 15791.414062
351.155884 49521.050781
353.173553 23228.023438
365.167297 17529.673828
385.095123 18092.171875
393.169464 145157.125
411.180634 212059.4375
431.723267 28188.232422
433.15036 18150.912109
435.215118 47879.898438
453.187836 346683.21875
453.224304 61133.179688
455.184784 39231.550781
471.197815 181572.765625
473.190613 29571.302734
477.190674 21880.675781
487.379059 21941.560547
495.238098 167199.9375
509.019928 16022.279297
513.211426 174153.0
513.246521 85063.28125
515.20282 181880.65625
520.86969 19836.791016
521.526123 16707.855469
527.261292 56826.808594
527.599976 16494.630859
533.212585 42825.496094
538.782837 15101.330078
555.255554 758360.1875
556.582886 18641.566406
557.218506 58516.820312
564.130859 26479.876953
575.227661 2363343.0
577.245117 20780.576172
615.280212 1737837.125
617.268799 783639.6875
635.244995 5629386.0
635.305481 25124.902344
635.329712 23879.123047
659.282471 28109.029297
670.357788 23723.15625
672.804077 23974.867188
672.896423 27589.314453
673.213135 41033.535156
676.033569 17181.917969
676.060181 26579.025391
676.086731 40714.121094
676.113281 18462.345703
676.139893 37091.210938
676.166443 22655.359375
676.192993 42773.839844
676.246155 42332.0
676.299316 32886.367188
676.325928 38392.140625
676.352478 40697.894531
676.405701 38952.027344
676.432251 44191.511719
676.458862 46779.925781
676.485474 42213.9375
676.512024 49641.242188
676.538635 47412.976562
676.565247 59818.664062
676.591858 49959.027344
676.618408 65298.90625
676.64502 52898.789062
676.671631 70367.085938
676.698242 60138.992188
676.724854 65288.625
676.751465 77138.195312
676.778076 72212.265625
676.804688 80302.195312
676.831299 80645.179688
676.85791 90968.335938
676.884521 86993.234375
676.911133 111167.265625
676.937744 95381.78125
676.964355 131477.703125
676.991028 119728.617188
677.017639 119423.546875
677.04425 181240.234375
677.070862 151136.546875
677.097534 180055.28125
677.124146 205347.265625
677.150757 227418.078125
677.177429 239518.171875
677.204041 225116.078125
677.297302 35566400.0
677.390503 212538.125
677.417175 243072.4375
677.443848 217852.109375
677.470459 193037.03125
677.497131 182829.390625
677.523804 176939.875
677.550415 126646.132812
677.577087 140007.78125
677.60376 143231.90625
677.630432 102129.953125
677.657043 110875.328125
677.683716 89540.796875
677.710388 110247.289062
677.737061 64950.304688
677.763733 89350.84375
677.790405 80535.039062
677.817078 72541.265625
677.84375 69184.265625
677.870422 61749.914062
677.897095 70987.789062
677.923767 54001.101562
677.950439 59803.109375
677.977112 59654.75
678.003784 49212.226562
678.030518 48550.957031
678.05719 44327.0625
678.083862 49271.921875
678.110535 46150.289062
678.137268 41046.054688
678.16394 43817.511719
678.190613 47553.429688
678.217346 33621.320312
678.244019 43436.035156
678.270691 38803.757812
678.297424 53115.46875
678.324097 37682.683594
678.404236 28408.685547
678.430969 37197.238281
678.484375 44039.21875
681.418701 27714.408203
681.727966 36754.726562
730.617188 17954.841797
738.273193 23317.613281
END IONS
