BEGIN IONS
PEPMASS=707.302
CHARGE=1
MSLEVEL=2
SOURCE_INSTRUMENT=LC-ESI-qTof
FILENAME=euphodendroidin_E.mgf
SEQ=*..*
IONMODE=Positive
ORGANISM=GNPS-LIBRARY
NAME=euphodendroidin E M+Na
PI=LITAUDON/TOUBOUL
DATACOLLECTOR=Esposito
SMILES=C[C@H]1C[C@](O)(C([C@@H](C)/C=C/C(C)(C)[C@H](OC(C)=O)[C@H](OC(C)=O)[C@@H](OC(C2=CC=CC=C2)=O)C([C@@H]3OC(C(C)C)=O)=C)=O)[C@]3([H])[C@H]1OC(C)=O
INCHI=
INCHIAUX=
PUBMED=N/A
SUBMITUSER=lfnothias
TAGS=
LIBRARYQUALITY=1
SPECTRUMID=CCMSLIB00000840034
SCANS=1
55.054386 594.014282
67.05394 737.852112
69.069328 793.941284
77.037544 916.202271
83.048378 1193.202026
93.071121 809.416687
95.084587 1215.015991
105.03257 8697.501953
105.068138 1629.817017
107.04818 832.849487
107.084282 958.017395
109.10038 4982.625
119.084595 1500.099976
121.100098 1083.609009
123.07975 877.054321
129.06752 751.688171
133.099762 640.913513
135.079239 840.859009
135.115311 561.000305
137.095062 725.88092
143.084274 1271.600952
145.100098 676.023376
147.078461 1423.343018
155.084381 619.163574
157.09993 1427.592041
159.079132 1820.165039
159.11467 1413.743042
161.09494 2382.977051
163.073257 924.122803
165.089005 598.23053
169.100067 849.159119
171.079651 1348.041992
171.114548 2264.237061
173.094727 575.865295
177.089493 871.455078
183.114975 1722.520996
185.130234 827.166626
187.07489 649.777771
187.110214 985.455627
189.089279 5498.172852
189.123062 1633.442993
195.113983 558.083618
197.130432 1648.233032
199.072769 653.349182
199.108749 819.99231
199.144287 569.569214
201.090897 801.942322
203.104874 597.135376
207.117157 673.571777
209.131058 920.213379
211.110031 1241.510986
211.146011 1471.864014
213.126068 1563.764038
215.104462 527.53833
215.140656 915.87677
217.083618 1464.399048
217.120926 1118.060059
221.130539 781.688416
223.145508 654.637878
225.125214 2062.75708
225.16098 2727.74292
227.107086 571.080627
227.139023 1113.609985
229.120239 1152.072998
231.099884 938.111511
235.144791 1235.024048
237.125443 807.46637
239.103088 536.483582
239.140656 1482.560059
239.177399 1845.135986
243.136124 668.809082
243.171097 864.066223
249.161835 3669.479004
253.12085 780.976807
253.156235 1590.746948
262.130707 608.595276
267.171936 6887.022949
268.176514 585.202271
271.165833 535.326782
277.156403 2164.351074
285.183105 4259.130859
295.167419 9047.946289
296.170532 785.093628
313.177643 7491.23291
317.148956 2041.109985
327.192993 1104.110962
331.187866 798.653992
335.159424 2259.339111
345.200897 633.378296
349.175812 623.58783
355.188782 1734.197021
373.200867 965.023682
377.169739 3871.664062
393.199982 1184.670044
395.180084 5847.355957
405.198792 1020.000977
409.195801 1025.676025
417.203278 736.070496
423.210541 790.842773
437.191528 6212.647949
438.193695 838.453308
439.200195 855.44458
455.201172 11215.5
456.202911 857.190186
457.195953 1451.71106
465.221527 4124.387207
483.232483 7331.289062
484.235107 1113.608032
497.214142 3804.240967
499.205902 3977.904053
517.216553 3883.934082
525.242798 14196.549805
526.245361 1179.001953
543.25238 2536.041992
559.226929 8022.668945
560.230286 1047.755005
585.263428 31225.769531
586.267456 3377.197998
587.258728 5204.913086
605.269958 570.208313
619.247986 9024.341797
620.250854 803.82428
647.279114 73178.46875
648.282043 7100.787109
707.2995 524146.59375
708.304016 56934.550781
708.449524 1410.661987
708.694824 915.880005
END IONS
