BEGIN IONS
PEPMASS=535.252
CHARGE=1
MSLEVEL=2
SOURCE_INSTRUMENT=LC-ESI-qToF
FILENAME=P2_C12_conc_GE12_01_2431.mzXML
SEQ=*..*
IONMODE=Positive
ORGANISM=GNPS-LIBRARY
NAME=1-Alaninechlamydocin_130134 M+Na
PI=Cichewicz
DATACOLLECTOR=Luzzatto
SMILES=O=C(N1[C@H](CCC1)C(N[C@@H](CCCCCC([C@@H]2CO2)=O)C(N[C@H]3C)=O)=O)[C@H](CC4=CC=CC=C4)NC3=O
INCHI=N/A
INCHIAUX=N/A
PUBMED=
SUBMITUSER=tal_lk
TAGS=
LIBRARYQUALITY=2
SPECTRUMID=CCMSLIB00000478540
SCANS=1060
120.083153 432.0
152.105194 444.0
163.020889 284.0
170.117859 1008.0
222.105591 260.0
226.595642 256.0
235.043961 268.0
240.108124 256.0
241.09317 284.0
248.088608 264.0
249.109741 392.0
254.107361 280.0
261.108002 340.0
262.115021 472.0
263.604797 288.0
267.170013 612.0
271.126465 432.0
276.11261 2332.0
276.614471 1200.0
278.111908 428.0
285.122437 516.0
295.108978 276.0
309.135468 256.0
317.148407 324.0
318.172241 408.0
360.186951 1092.0
361.133514 384.0
361.191528 708.0
366.141327 736.0
385.687927 388.0
410.199951 420.0
416.15799 412.0
416.202393 276.0
424.98761 472.0
436.216766 924.0
437.220337 272.0
452.14975 256.0
464.199554 256.0
465.204102 260.0
466.187927 292.0
489.240753 328.0
492.197052 252.0
493.239746 348.0
499.509705 328.0
505.239166 264.0
507.189453 316.0
507.258026 6292.0
508.262665 1828.0
509.208252 276.0
509.255646 268.0
510.193878 304.0
515.274475 508.0
518.232849 388.0
518.755798 564.0
523.21759 408.0
524.220459 364.0
531.386475 256.0
532.243164 7356.0
532.744568 9264.0
533.244934 3576.0
533.74762 968.0
533.871765 464.0
534.237549 692.0
534.740601 376.0
535.073792 364.0
535.25177 93100.0
536.05542 252.0
536.255005 30840.0
536.756348 256.0
536.841187 384.0
537.185547 348.0
537.256653 5760.0
537.613586 296.0
538.260498 1252.0
539.363647 348.0
540.429138 272.0
551.21698 920.0
552.222595 444.0
553.227783 348.0
677.968201 332.0
END IONS
