BEGIN IONS
PEPMASS=679.274
CHARGE=1
MSLEVEL=2
SOURCE_INSTRUMENT=LC-ESI-qTof
FILENAME=3b_7b_15b_17-O-tetracetoxy-5a-O-benzoyloxy-13b-hydroxy-14-oxopremyrsinol.mgf
SEQ=*..*
IONMODE=Positive
ORGANISM=GNPS-LIBRARY
NAME=3,7,15,17-O-tetraacetyl-5-O-benzoyl-14-oxopremyrsinol M+Na
PI=LITAUDON/TOUBOUL
DATACOLLECTOR=Esposito
SMILES=O[C@@]1(C)[C@@]2([H])[C@]([C@H](OC(C)=O)C[C@@]3([H])[C@]2([H])C3(C)C)(COC(C)=O)[C@H](OC(C4=CC=CC=C4)=O)[C@@]5([H])[C@@H](OC(C)=O)[C@@H](C)C[C@]5(OC(C)=O)C1=O
INCHI=
INCHIAUX=
PUBMED=N/A
SUBMITUSER=lfnothias
TAGS=
LIBRARYQUALITY=1
SPECTRUMID=CCMSLIB00000840341
SCANS=1
45.033295 106.222198
55.05534 502.880096
59.049076 143.007401
69.0336 703.777771
69.040268 125.097603
69.070251 1444.61499
69.085686 147.988602
71.050606 157.8405
77.03936 940.668213
77.04744 165.614395
79.05423 197.764206
81.070282 652.911682
81.078735 100.75
83.010529 2995.27002
83.01725 570.63269
83.027809 252.020996
83.050079 486.959198
83.056 203.558197
83.087448 246.372498
83.09304 116.333298
91.053886 272.816711
93.070015 543.35199
93.080788 108.508904
94.072281 204.487793
95.049194 370.12149
95.085464 641.289917
95.09211 133.6866
97.064453 463.114685
99.043617 431.016693
99.051361 120.612503
105.033394 12591.080078
105.04142 2185.020996
105.05249 878.229614
105.069077 539.311523
105.076973 233.0
105.088814 141.355606
105.09597 99.893066
106.036713 1247.244019
106.04496 206.246597
107.04908 877.655701
107.057007 204.0
107.069038 125.184196
107.08551 1614.405029
107.095703 264.651398
107.106155 113.273697
108.088776 125.410004
109.065231 442.911591
109.073608 143.903198
109.100891 189.161697
110.067215 143.107498
117.069756 498.149902
119.085533 1213.005005
120.088112 132.529404
121.064964 451.240204
121.075775 103.688904
121.101967 286.759796
121.110703 104.002701
123.042603 337.693909
123.080009 458.875
123.089462 171.100296
125.020309 330.173004
125.060493 449.281799
125.069427 122.397003
126.063347 317.414886
128.063019 236.088898
129.070633 561.775879
129.077255 120.074997
130.468933 142.662201
131.048462 211.148193
131.085052 666.648926
131.095093 141.380997
132.090164 148.007095
133.063889 263.484985
133.1017 1214.636963
135.079926 572.361328
137.061295 124.111504
137.09761 270.571198
139.075211 118.232101
141.070709 857.662476
141.081207 116.274399
141.092453 126.7929
142.0737 250.469406
142.079544 226.884705
143.060455 122.100601
143.085831 660.63739
143.09668 114.0588
145.024948 352.663208
145.066422 820.667175
145.078476 115.8265
145.101288 1587.781982
145.111618 416.949188
145.124847 177.001602
146.105194 150.362305
147.079819 590.127625
147.11821 345.593811
149.095566 336.173004
151.074081 223.246597
152.115814 97.157051
153.068893 374.904297
153.090393 307.083313
155.04808 185.136093
155.085251 905.042175
155.099457 145.243896
156.090927 368.942505
157.100204 986.233826
157.115753 168.291702
158.103241 218.128998
158.961807 120.230797
159.080505 1638.860962
159.092621 241.8797
159.104752 174.0
159.115646 881.314087
159.13028 183.508896
160.081787 196.444595
160.120255 182.208298
161.059784 458.061188
161.096207 313.777191
163.074905 496.8172
163.112305 258.521698
164.078949 249.235992
165.070145 102.089302
166.093353 102.240402
167.069534 507.324799
167.084778 821.876221
167.097107 262.308105
167.107056 165.267502
168.088806 331.163513
169.100418 2260.169922
169.111298 367.587402
169.124527 195.1604
171.080322 768.890381
171.090042 102.064301
171.117065 2350.636963
171.142761 218.992798
172.119827 303.925293
173.09671 906.132324
173.108597 206.064301
173.131592 208.225006
173.140915 98.314293
174.063385 96.760406
174.10144 144.645599
174.135971 112.002899
175.113022 501.342194
175.125107 97.578583
176.115677 124.223701
177.052307 181.920502
177.091034 324.224487
177.099548 103.666702
178.133072 113.160004
179.085403 568.75
179.108658 133.207504
181.101074 1038.890015
182.10582 340.633087
183.080368 695.824219
183.116745 2776.888916
183.141495 203.403397
184.120605 323.102509
185.095795 815.041382
185.131866 416.001892
186.102951 409.963196
186.116638 141.037003
186.137573 97.222816
187.074661 309.203186
187.111877 1064.524048
187.121887 166.211807
188.114975 427.516113
189.068817 97.003777
189.091064 468.032501
189.125351 445.849091
189.136642 143.620697
190.079514 104.083298
190.131317 165.882401
191.083832 218.329895
191.106781 310.960114
192.09343 432.54599
193.065216 110.764702
193.101166 2618.166992
193.129745 138.734802
194.071091 109.761902
194.107208 555.268677
195.082275 254.3647
195.117447 3772.086914
195.143265 355.537201
195.155029 134.001907
196.087662 420.504211
196.121841 437.909393
197.060715 119.1875
197.096054 1946.421021
197.108124 387.006592
197.132004 1911.723999
197.159348 139.296295
198.100937 529.918518
198.109192 167.551498
198.134171 303.057892
198.157806 103.004997
199.111404 1460.748047
199.123184 253.240097
199.149338 181.408997
200.116318 377.506989
201.091995 261.010712
201.127502 475.204193
202.095612 116.884598
203.105972 454.069794
203.123138 102.480301
204.108948 101.788902
205.099091 327.75351
205.126343 245.162201
206.110184 295.134888
207.078354 252.545502
207.100464 155.121201
207.11676 3896.754883
207.128418 633.299316
207.144684 230.152405
208.122513 921.77832
208.136353 175.0
209.095337 720.085876
209.132568 3198.707031
209.145142 726.569275
209.159225 309.878204
210.102051 377.097595
210.136185 538.752319
210.151657 104.529404
211.073959 461.382996
211.111816 3693.249023
211.147736 779.320129
211.157501 353.657593
211.176285 101.0
212.116119 771.678772
212.150085 213.267502
213.091019 391.427307
213.11499 241.298798
213.127579 996.730225
213.153244 181.024994
214.130676 256.185699
215.108414 289.877899
215.143631 263.969788
216.110031 311.037415
216.146027 285.408203
217.121872 253.038498
218.104004 244.507004
219.11763 665.445984
219.128311 196.012405
220.086426 214.559998
220.123276 278.00061
221.096405 654.291321
221.113983 199.005203
221.133331 878.987183
222.103073 178.543304
222.140045 277.796112
223.111313 1870.970947
223.12619 325.289307
223.146667 1005.987
223.163788 241.648499
224.081818 114.464302
224.119308 473.000702
224.153275 499.570099
225.090332 284.32019
225.104172 205.287292
225.127243 4419.481934
225.140549 895.60498
225.164642 2779.104004
225.19339 250.9608
225.20784 98.83696
226.095993 128.6194
226.13092 406.89389
226.169464 399.058014
227.106644 1006.643005
227.123306 168.067307
227.14212 712.582825
227.153473 144.578598
227.171814 203.141907
229.108566 104.9067
229.12265 262.00351
231.138641 143.440201
233.133621 178.460205
234.104431 751.966919
234.13829 1031.182007
234.151291 145.521698
234.16748 97.022728
235.111374 2879.471924
235.123383 779.045776
235.147522 1601.774048
235.17601 101.367401
236.114243 306.959503
236.125427 191.742401
236.151428 434.973389
236.158157 244.256393
237.127106 987.99292
237.13855 155.160095
237.164337 678.294495
237.177139 215.063004
238.097794 148.107101
238.132492 324.613312
238.167328 220.145401
239.107101 1738.442017
239.122238 241.297806
239.142136 428.047089
239.178452 2099.160889
239.189499 395.249115
239.20752 142.002502
240.112 454.281708
240.125366 96.449997
240.181915 389.052002
240.199249 134.074997
241.120377 380.200012
241.159058 543.204285
241.190903 195.077606
241.204086 108.380997
242.127808 149.656601
243.063263 96.5
243.174622 604.075623
244.124756 757.79248
244.140244 201.625
244.178421 123.8825
245.130447 302.782013
247.108841 168.164505
247.119766 261.236389
247.150467 253.964294
248.120026 102.669403
249.126251 354.421692
249.138107 359.47879
249.163696 5591.290039
249.178177 1019.655029
250.136078 110.635201
250.167053 1790.313965
250.196564 191.445007
251.107559 118.432098
251.141678 774.409729
251.155136 166.432404
251.179031 2530.549072
251.20784 179.375
252.114243 206.008896
252.150345 958.266724
252.182938 574.529114
252.194855 193.817307
252.246613 124.882401
253.122421 2393.485107
253.158829 6212.325195
254.125214 689.623718
254.141144 125.125
254.162537 1879.715942
254.179092 313.30191
254.194962 163.454498
255.139038 180.011795
255.174393 547.817993
256.14328 107.222198
257.119598 214.692093
257.153381 124.266602
257.190002 198.587906
259.147797 463.229187
259.161407 163.016296
260.152679 192.976593
262.133911 1284.791016
262.152405 277.0
262.166382 135.75
263.138123 294.528107
264.145935 100.5
265.124451 179.520096
265.158142 2151.816895
265.188354 174.703903
266.162689 510.023102
267.136566 493.506287
267.174194 15223.959961
267.204987 1092.339966
267.218903 394.432098
267.258148 95.30867
267.272644 116.555801
268.141998 121.0476
268.17807 3452.558105
268.190155 497.446198
268.208801 284.102905
269.117493 231.346207
269.181213 383.75
269.191925 300.122986
270.160309 142.537598
271.131226 282.790405
271.168671 441.406311
271.185333 119.585999
273.161346 269.754395
275.141296 145.573502
276.149139 147.805298
277.15863 8428.232422
277.171783 1629.416992
277.190216 603.314026
277.204193 178.335297
278.162384 2313.381104
278.192993 158.080399
279.164459 207.789505
279.176971 174.889008
280.144196 485.107086
281.155579 106.177597
283.170349 749.554077
283.184937 196.177597
284.170807 313.721191
285.184967 1958.287964
285.199646 321.077515
286.18866 302.910095
287.139343 386.037109
289.120056 196.796204
289.158417 622.20813
289.168701 118.25
290.162079 137.25
293.194092 114.337997
295.129272 316.691895
295.145569 243.020996
295.169312 14612.379883
295.201782 988.85498
295.244019 113.526604
296.172028 4058.656982
296.186554 1000.825989
296.205109 249.896301
297.146637 129.003601
297.173584 574.013489
299.142853 240.952896
303.13504 118.074997
303.197449 118.9263
304.143219 282.421692
305.141754 165.766006
305.152222 298.285706
305.170715 111.333298
306.157074 109.335503
309.185852 331.028687
311.161041 150.049805
311.203552 122.290001
312.160919 128.061295
312.202087 165.862198
313.139771 110.0
313.179413 4020.489014
313.212311 281.5
314.183472 895.004395
314.19873 164.001495
315.184418 183.235306
317.151825 9186.111328
317.713867 106.2258
318.154205 2058.045898
319.132721 138.0
319.157074 196.470596
319.173065 145.668503
325.180664 232.474503
326.181244 118.681702
327.195007 1731.241943
327.21463 237.603607
327.227661 154.120102
328.197327 440.035706
328.215973 119.041702
333.184784 192.754501
335.161163 928.889526
335.176575 226.107498
336.165588 454.675201
337.17981 1484.064941
337.193207 401.1875
338.181854 165.112106
343.121246 100.445
343.189362 123.199997
345.203278 167.166199
346.209229 179.344101
349.17691 1030.110962
349.19043 177.061295
350.178864 343.362305
353.131836 144.844299
355.189148 3565.834961
355.225555 282.308105
356.195038 958.628784
356.209808 212.907303
357.179626 109.571404
358.16925 97.657784
359.163757 165.487793
365.174713 132.960205
367.188873 96.125
377.141418 122.802803
377.171692 15067.339844
377.207947 1157.113037
377.225769 327.59259
377.254639 129.083893
377.272217 110.0
378.174225 3570.000977
378.210358 250.339294
378.226044 101.408798
379.174988 486.033905
379.195831 149.778397
380.182526 101.893097
387.220612 141.889297
389.217834 189.800003
393.202698 110.034103
395.183136 6164.89502
395.218964 398.85199
395.234833 175.265594
396.185394 1920.166016
396.203827 255.3255
396.224365 199.088898
397.197723 246.034103
399.197754 296.25769
409.1987 337.226593
410.200134 165.196793
413.207672 104.032097
415.210388 231.903793
417.206055 508.801697
417.223236 120.0476
418.208557 130.410004
420.182861 101.612503
435.217407 183.020004
436.218231 113.5
436.232605 113.651001
437.193695 16042.360352
437.283569 95.755432
438.196503 5254.77002
438.235748 361.1315
438.253235 131.875
439.194 1210.890015
440.197662 306.799988
455.203796 3159.062988
455.237701 347.880188
456.208893 858.000488
456.230804 243.190201
457.207642 306.779297
459.215332 156.617294
469.219696 1628.956055
469.252869 193.480804
470.224182 711.136108
471.229919 163.166306
477.230042 398.125
481.195404 176.207596
497.21402 14445.290039
497.256897 1007.338989
498.218109 4901.196777
498.260437 341.075592
499.209778 17675.960938
499.251099 1609.187012
499.344055 124.017303
500.016022 128.571396
500.212646 6875.148926
500.287903 102.5
500.333649 111.172897
501.213837 1557.860962
502.216858 149.480606
515.239441 139.053604
517.218628 356.68631
518.222839 238.049805
531.235107 194.183807
532.243591 126.173798
537.246033 1026.365967
537.268616 191.447403
538.249634 331.407715
539.258972 118.259598
557.235779 1076.046997
558.235718 711.352783
558.261292 106.699997
559.199524 421.667297
559.229858 40361.128906
559.520691 111.703598
559.64502 199.370605
559.724304 135.316895
559.754944 103.438904
559.862793 146.409897
560.233521 19850.789062
560.372192 117.532303
560.444946 95.864594
560.557007 141.577698
560.573608 112.344101
560.614197 158.090897
560.636963 135.896103
560.736084 115.360001
560.96521 129.408295
561.23584 4460.631836
561.27948 337.748596
561.316895 95.304169
562.24054 596.055481
562.262024 196.7202
577.239258 367.433685
579.2453 164.380203
591.255066 308.006592
592.262939 176.120407
619.251282 95262.4375
619.934753 125.3022
619.986084 171.318802
620.010803 112.016602
620.047363 144.337906
620.071533 132.118896
620.164673 133.554993
620.254272 50989.25
620.684998 139.287796
620.706299 152.484802
620.763 104.408501
620.844666 150.740799
620.949158 162.291702
621.030273 222.832108
621.066895 123.659698
621.124939 147.001694
621.181885 153.293793
621.257812 13241.370117
621.366516 106.477402
621.38855 147.007706
621.408997 163.160294
621.655884 203.004501
621.681458 101.748901
621.738098 139.966904
621.764099 159.160294
621.811646 163.942093
621.830261 98.292473
621.858643 158.284897
621.8927 99.255402
621.920898 107.061996
622.107788 107.278503
622.26001 1857.17395
622.278259 707.527283
622.3078 168.849594
622.493225 120.556801
623.266113 187.593094
679.271912 28074.630859
679.730164 111.490402
680.098999 97.37458
680.275696 15658.839844
680.579956 142.162598
680.764587 107.395203
680.842285 116.456802
680.944275 95.53846
681.279175 4586.041016
682.283386 700.02771
682.318542 98.102272
END IONS
