BEGIN IONS
PEPMASS=559.32
CHARGE=2
MSLEVEL=2
SOURCE_INSTRUMENT=LC-ESI-Orbitrap
FILENAME=f.Rolandoo1/20190519 Moroidin paper GNPS/[Gln1-Val9]-moroidin-[QLLVWRAH].mzXML;
SEQ=*..*
IONMODE=Positive
ORGANISM=GNPS-LIBRARY
NAME=[Gln1-Val9]-moroidin-[QLLVWRAH] M+2H
PI=Jing-Ke Weng
DATACOLLECTOR=Roland Kersten
SMILES=NC(C(NC(C(NC(CC(C)C)C(NC(C(C)C)C(NC(C(NC(C(NC(C)C(NC(CC1=CN2C=N1)C(NC(C(C)C)C(O)=O)=O)=O)=O)CCCNC(N)=N)=O)CC3=C2NC4=C3C=CC5=C4)=O)=O)=O)C5C(C)C)=O)CCC(N)=O
INCHI=
INCHIAUX=
PUBMED=
SUBMITUSER=Rolandoo1
TAGS=
LIBRARYQUALITY=3
SPECTRUMID=CCMSLIB00005435917
SCANS=1
83.057083 1406.110596
83.0578 1971.703003
83.058525 5613.443848
83.059242 17465.205078
83.059959 31526.90625
83.060677 43662.949219
83.061394 36494.300781
83.062111 21496.748047
83.062828 7512.486816
83.063545 1007.218445
84.040459 1223.394653
84.041191 1845.244629
84.041924 3705.145264
84.042648 10241.852539
84.043381 29165.628906
84.044113 49923.523438
84.044846 65380.34375
84.045578 51300.269531
84.046303 29636.728516
84.047035 9127.416992
84.047768 1008.734558
86.091118 954.160706
86.091881 3690.444824
86.092636 1768.679199
86.094688 2857.179443
86.095444 7603.292969
86.096199 23834.724609
86.096962 46555.964844
86.097717 69836.632812
86.098473 66491.523438
86.099228 41574.847656
86.099991 18311.603516
86.100746 3876.59668
86.101501 416.59964
87.332962 1389.885742
87.333733 2050.043457
87.334511 2214.618652
87.335281 1765.320801
87.336052 966.852234
92.32769 704.067566
92.328529 2495.325195
92.329369 4958.801758
92.330208 7890.644531
92.331055 4260.62793
92.331894 349.870544
92.335258 2723.631592
92.336098 4047.783203
92.336945 2342.055176
92.337784 746.901245
101.066757 1107.463257
101.067726 2816.136719
101.068687 10078.4375
101.069649 25315.599609
101.07061 41851.808594
101.071579 49451.796875
101.07254 35410.253906
101.073502 19329.976562
101.074463 5394.224121
101.075432 749.389099
110.241104 1441.891357
110.242195 2313.465332
110.243294 2514.192627
110.244392 1987.876221
110.245491 1141.859863
112.085793 1386.025879
112.086914 2400.010254
112.088043 2855.693848
112.089165 2457.252441
112.090294 1504.713257
118.083946 767.89209
118.085167 1853.900635
118.08638 2581.087158
118.087601 2458.690918
118.088814 1619.114502
118.090034 681.442932
125.667694 1498.544922
125.669029 2727.763428
125.670364 3426.433105
125.6717 3135.541016
125.673035 2110.02002
125.67437 1103.38855
125.67704 1330.675903
125.678375 2533.020264
125.679718 3899.38623
125.681053 4817.792969
125.682388 4780.554199
125.683723 3745.591553
125.685059 2283.790283
125.686394 1237.291504
125.687729 1148.704834
125.689064 1976.060791
125.690399 3238.576172
125.691742 4313.850586
125.693077 4668.880371
125.694412 4068.792969
125.695747 2758.75708
125.697083 1405.303101
125.699753 913.854797
125.701096 1755.049194
125.702431 2612.100342
125.703766 2909.296631
125.705101 2414.545898
125.706436 1426.256714
125.709114 960.03949
125.710449 2302.266846
125.711784 3981.022949
125.71312 4978.791504
125.714455 4798.63916
125.71579 3719.018066
125.717133 2385.195557
125.718468 1340.24353
125.721138 1227.724731
125.722473 1994.75354
125.723816 2566.264648
125.725151 2522.230469
125.726486 2290.787109
125.727821 2707.137695
125.729156 3602.517822
125.730499 3845.248291
125.739853 1046.008179
125.741188 1832.454468
125.742531 4360.408203
125.743866 10465.554688
125.745201 8534.042969
125.746536 4420.421875
125.747879 470.738251
125.761246 891.57074
125.762581 2217.792969
125.763924 5195.177734
125.765259 8768.886719
125.766594 5086.366699
125.767937 2642.529785
125.769272 389.085602
125.770607 309.068787
125.771942 2598.203125
125.773285 4123.172852
125.77462 2545.878418
125.778633 1757.37793
125.779968 2891.36792
125.781311 3446.099609
125.782646 2922.645752
125.783981 1785.455811
125.785324 961.823364
125.786659 1081.518433
125.787994 2025.243042
125.789337 3118.271729
125.790672 3620.692383
125.792007 3145.810791
125.79335 1893.079102
125.794685 567.735901
125.802711 1209.465576
125.804047 3030.262451
125.805389 5989.909668
125.806725 8318.883789
125.808067 4250.813477
125.809402 2003.592529
125.810738 356.948212
125.842857 1007.876892
125.8442 2060.408936
125.845535 2614.494385
125.846878 2252.35376
125.848213 1243.424438
126.305931 920.952515
126.307281 1622.509766
126.308624 1982.740479
126.309967 1798.721558
126.311317 1194.680176
128.076965 1154.638184
128.078339 2917.671387
128.079712 8521.423828
128.081085 14833.299805
128.082458 19502.851562
128.083832 15460.646484
128.085205 8983.683594
128.086578 2853.866699
128.087952 271.503052
129.063705 1476.394531
129.065094 2528.018311
129.066483 2856.164795
129.067871 2231.966553
129.069275 1144.724487
137.371872 1141.103271
137.373413 1939.254639
137.374939 2177.368652
137.376465 1663.82666
137.377991 787.029236
159.945053 1183.344971
159.94696 2171.425049
159.948883 2450.217773
159.950806 1760.265259
159.952713 689.270569
163.031067 1172.172974
163.033051 1755.41394
163.035019 6352.286133
163.036987 12584.34082
163.038971 18979.695312
163.040939 17942.886719
163.042923 11094.089844
163.044891 4765.192383
163.04686 932.156433
167.389725 874.506226
167.391769 1762.769531
167.393829 2146.049561
167.395889 1704.831543
167.397934 792.42804
185.158707 1231.056152
185.161087 2793.779541
185.163483 4540.583496
185.165863 5381.330078
185.168259 4708.28125
185.170639 2987.076416
185.173035 1299.308228
188.063965 759.056152
188.066406 2099.677246
188.068848 3734.720703
188.071304 4488.584961
188.073746 3758.012451
188.076187 2118.563965
188.078629 693.628662
205.090714 1516.883911
205.093491 2789.632812
205.096283 3650.251465
205.09906 3478.016602
205.101852 2365.402588
205.10463 1069.988525
223.312469 1100.170166
223.315628 1777.365112
223.318802 2031.874512
223.32196 1672.082886
223.325119 921.081604
293.658875 1641.552368
293.663635 2351.923096
293.668427 2383.162354
293.673187 1697.9823
293.677948 743.18042
324.504028 1627.956909
324.509583 2776.129639
324.515106 3037.208984
324.52066 2123.094238
324.526215 954.944458
324.531738 960.692505
324.537292 2520.419922
324.542847 4271.432129
324.54837 4394.933105
324.553925 2729.375488
324.559479 1208.402954
324.565002 979.172791
324.570557 3858.893311
324.576111 6590.694336
324.581635 4568.9375
324.587189 1935.322266
324.592743 1149.474854
324.598267 1816.667358
324.603821 3313.313232
324.609375 3857.884521
324.614929 3013.164795
324.620453 1657.999878
363.677948 985.772339
363.684509 2444.384277
363.691101 3926.303223
363.697662 4403.635742
363.704254 3509.006592
363.710815 1880.984131
363.717407 513.829712
372.420929 825.080139
372.427734 1820.065918
372.43454 2444.366455
372.441376 2252.571533
372.448181 1411.509033
377.675415 774.093506
377.682373 1872.783569
377.689331 2714.796875
377.696289 2440.902588
377.703247 1171.869629
385.197632 1310.96106
385.204803 4904.64502
385.211975 8763.15332
385.219147 10832.427734
385.226318 7963.724609
385.23349 3069.451172
385.240662 1039.778564
385.707092 1656.344849
385.714264 2788.52124
385.721466 3000.422119
385.728638 2079.107666
385.73584 768.557495
386.224762 847.551575
386.231964 2292.929443
386.239136 3832.654541
386.246338 4521.052734
386.25354 3931.813232
386.260742 2536.296143
386.267944 1189.671265
390.191803 603.350525
390.199097 1767.150269
390.206421 2681.361816
390.213715 2611.705078
390.221039 1626.235107
391.708984 934.235168
391.716339 2177.257812
391.723694 3140.626953
391.731049 3065.253662
391.738403 2003.730103
391.745758 739.951599
399.194946 1660.594604
399.202515 4186.902344
399.210083 7802.228027
399.217651 10381.496094
399.225189 8026.543457
399.232758 4620.224609
399.240326 1394.64624
400.225433 1702.782349
400.233032 2898.373779
400.240631 3544.666016
400.24823 3149.485596
400.255829 1958.407227
400.263397 763.776367
406.228973 1549.672119
406.236725 2604.313232
406.244476 2876.050537
406.252258 2087.028809
406.26001 835.079773
407.708008 1450.500488
407.71582 3165.02417
407.723633 4631.55957
407.731445 4805.32666
407.739227 3547.390137
407.74704 1753.064697
408.740326 1565.420288
408.748169 2569.923096
408.756012 2819.779297
408.763824 2087.333984
408.771667 905.278076
411.219696 1601.687378
411.2276 2437.193604
411.235504 2575.241455
411.243408 1955.028198
411.251312 1028.36792
412.217773 1180.394165
412.225708 2077.332031
412.233643 2687.100586
412.241577 2528.011475
412.249512 1643.400269
419.722626 926.259277
419.730774 2246.071289
419.738922 3570.124268
419.74707 3904.239746
419.755249 2912.830078
419.763397 1282.741333
420.220428 1614.212891
420.228577 2593.831055
420.236755 3058.238525
420.244904 2615.158203
420.253082 1500.020142
424.724091 995.802856
424.732391 2774.412842
424.740692 4879.296875
424.748993 8105.979492
424.757294 5739.083984
424.765594 2848.536133
424.773895 1117.366821
427.736267 944.591003
427.744659 2363.265137
427.753021 4260.672363
427.761414 5366.482422
427.769806 4819.204102
427.778198 3012.896729
427.786591 1195.469116
428.736176 1558.655884
428.744598 2841.73584
428.752991 3377.429688
428.761414 2808.546631
428.769836 1609.83667
430.221466 1300.036133
430.229919 2879.885498
430.238403 4223.663086
430.246857 4382.823242
430.25531 3282.986572
430.263763 1716.709106
430.712646 1272.885864
430.7211 2965.253418
430.729584 4596.245117
430.738068 5007.132324
430.746552 3862.790527
430.755005 1998.748291
430.763489 581.740112
433.720184 1437.467285
433.72876 3579.295166
433.737305 8509.586914
433.74588 10197.088867
433.754456 7373.209961
433.763 3953.573975
433.771576 1393.306152
434.217346 896.961243
434.225922 2336.442627
434.234497 3486.255127
434.243103 3488.404053
434.251678 2346.247803
434.260254 929.950684
441.73465 633.683411
441.743439 4054.885254
441.752228 7997.4375
441.761047 11460.053711
441.769836 9551.402344
441.778656 5525.30957
441.787445 1808.154297
442.236847 1665.535034
442.245667 3770.740479
442.254486 8465.512695
442.263275 9438.883789
442.272095 6465.468262
442.280914 3006.472168
442.289734 1283.752075
442.722229 1201.466919
442.731049 5364.233398
442.739899 10079.793945
442.748718 14172.780273
442.757568 11969.500977
442.766388 7164.177246
442.775238 2725.509033
442.784058 1037.224487
444.716248 1729.782837
444.725159 2750.621094
444.734039 3184.605469
444.74295 2754.056152
444.751831 1728.771729
446.732758 1158.195068
446.741699 2654.198242
446.750671 4004.32666
446.759613 4426.642578
446.768555 3673.692139
446.777527 2249.956299
446.786469 954.627869
447.234528 1634.742554
447.2435 2700.053223
447.252472 2960.824951
447.261444 2288.501953
447.270416 1209.569824
455.233398 1561.928833
455.242615 5817.933105
455.251831 12589.592773
455.261047 19898.126953
455.270233 20902.904297
455.279449 13795.273438
455.288666 6765.609863
455.297882 1533.151367
455.728516 1208.031128
455.737732 4886.529297
455.746979 9845.22168
455.756195 14773.726562
455.765411 14314.411133
455.774658 9198.152344
455.783875 4344.884277
455.793091 1045.406128
464.222565 1217.989624
464.232056 3724.060059
464.241547 14886.427734
464.251007 48237.164062
464.260498 86908.257812
464.269989 119810.0
464.27948 100616.078125
464.288971 60639.394531
464.298462 23609.941406
464.307922 6480.657715
464.317413 1811.962646
464.736359 1286.431763
464.74588 4415.482422
464.755371 14112.045898
464.764862 24669.654297
464.774384 31998.246094
464.783875 24282.238281
464.793365 13675.941406
464.802887 3694.981201
464.812378 382.732635
469.22406 1008.605225
469.233704 2079.101318
469.243347 7041.00293
469.252991 13263.105469
469.262634 19087.712891
469.272247 16882.613281
469.281891 10148.889648
469.291534 3973.731934
469.301178 454.282318
469.724335 1261.540527
469.733978 4281.270508
469.743622 8736.392578
469.753296 13528.930664
469.762939 13829.959961
469.772583 8972.161133
469.782257 4325.55957
469.791901 801.03363
472.748718 893.029602
472.758453 5197.455078
472.768219 10342.12207
472.777954 15178.15918
472.78772 13347.952148
472.797455 8105.473633
472.80719 3271.748535
472.816956 729.168701
477.742737 1417.143066
477.752655 5118.258789
477.762543 11323.407227
477.772461 18067.652344
477.782349 19578.242188
477.792236 13107.814453
477.802155 6562.112305
477.812042 1450.176392
478.206085 1732.966675
478.216003 2263.577881
478.225922 3611.706299
478.235809 14705.3125
478.245728 52716.265625
478.255646 102941.515625
478.265564 153177.328125
478.275482 143202.703125
478.2854 90137.6875
478.295319 41076.203125
478.305237 11904.111328
478.315155 3761.216064
478.325073 2169.868408
478.334991 310.488342
478.731262 1694.647705
478.74118 8186.115234
478.751129 24646.652344
478.761047 42084.789062
478.770996 52539.019531
478.780914 39034.558594
478.790863 22023.259766
478.800781 6983.746582
478.81073 1807.120605
479.735291 780.943176
479.74527 4604.222168
479.755219 13397.597656
479.765198 22819.480469
479.775146 27600.791016
479.785126 20067.673828
479.795074 11198.305664
479.805054 3680.327393
479.815002 946.545105
480.235687 595.733154
480.245667 4073.650391
480.255646 8388.55957
480.265625 12642.629883
480.275604 11644.025391
480.285583 7263.768555
480.295563 3217.736084
480.305542 707.861938
486.736847 379.616333
486.747009 3043.356201
486.757202 11821.623047
486.767395 23218.207031
486.777557 34696.378906
486.78775 32464.818359
486.797943 20318.583984
486.808105 9104.426758
486.818298 2391.325195
486.828491 479.215149
487.246674 1670.380371
487.256866 4651.332031
487.267059 8689.700195
487.277252 12195.836914
487.287476 10491.900391
487.297668 6391.76709
487.307861 2534.519287
487.318054 764.940125
488.759491 1313.386475
488.769714 2386.191895
488.779968 2838.788086
488.790222 2291.51001
488.800476 1153.880615
491.735352 1136.170288
491.745667 3330.186768
491.756012 8695.209961
491.766357 14627.804688
491.776703 17575.060547
491.787048 12765.928711
491.797394 6959.086914
491.807739 1901.786621
492.227905 310.063354
492.238281 3277.29248
492.248627 11015.754883
492.258972 18980.273438
492.269348 24389.410156
492.279694 18824.257812
492.290039 10899.402344
492.300415 3714.650391
492.31076 697.113159
492.748718 1140.307373
492.759094 2472.674072
492.76947 3384.216797
492.779846 3172.683838
492.790222 1995.651733
492.800598 698.060425
494.235168 608.67511
494.245575 2097.808838
494.256012 4062.536133
494.266418 5333.689453
494.276825 5019.524902
494.287262 3397.9375
494.297668 1617.365967
495.268158 1864.195923
495.278625 3120.03833
495.289062 3698.26416
495.29953 3185.59082
495.309967 1912.932251
495.770203 1767.925537
495.78067 2603.425537
495.791138 2767.929199
495.801605 2147.260254
495.812073 1139.53125
500.73645 1455.834961
500.74707 4532.363281
500.75769 14002.572266
500.768341 24312.908203
500.778961 32209.068359
500.789581 25875.699219
500.800201 15105.713867
500.810822 5198.37793
500.821472 745.544006
501.235016 546.907532
501.245636 3877.4729
501.256287 9251.130859
501.266937 15134.935547
501.277557 16435.0
501.288208 11045.979492
501.298859 5643.237305
501.309509 1543.839722
501.737213 835.310303
501.747864 2070.5
501.758514 3866.611084
501.769165 7650.073242
501.779846 5295.157227
501.790497 3795.352539
501.801147 1771.443848
502.569427 1589.1521
502.580109 2591.687256
502.59079 2840.37207
502.601471 2393.723389
502.612152 1658.852905
502.644226 1785.845337
502.654907 2459.678467
502.665588 5477.909668
502.67627 5301.55957
502.686951 4303.401367
502.697632 2590.542969
502.708344 1160.189575
502.740387 1187.936401
502.751099 2513.054443
502.76178 3789.353271
502.772461 3957.931885
502.783142 1830.166992
502.804535 1931.967773
502.815216 6836.643555
502.825928 11696.870117
502.836609 15173.814453
502.84729 12734.330078
502.858002 7749.73877
502.868683 3187.154541
502.879364 27.31506
502.911438 579.829773
502.92215 3934.793945
502.932831 5047.430664
502.943542 4013.512695
502.954224 2235.405273
502.964935 713.097351
503.018402 920.178955
503.029114 4960.023438
503.039795 8979.959961
503.050507 13579.732422
503.061188 13200.958008
503.071899 8023.168457
503.082581 3188.520508
503.093292 932.14624
503.168213 2747.543701
503.178894 6130.986816
503.189606 4805.133789
503.200317 2588.63916
503.210999 809.45282
503.232422 1021.44696
503.243134 2104.558594
503.253815 2708.705078
503.264526 2367.759521
503.275238 1330.402954
536.276123 723.402527
536.287903 4581.70459
536.299683 10159.419922
536.311462 16128.256836
536.323242 16743.923828
536.335022 11114.410156
536.346802 5652.984863
536.358582 1496.584595
536.760132 29.11862
536.771912 2172.89624
536.783752 8719.044922
536.795532 16360.610352
536.807312 23142.302734
536.819092 19635.115234
536.830872 11637.4375
536.842712 4303.805176
536.854492 672.628296
541.77124 1288.312012
541.783203 2751.629395
541.795166 4178.736328
541.807068 4748.527832
541.819031 4107.571289
541.830994 2678.562256
541.842957 1269.734741
542.273743 1493.988159
542.285706 2599.59375
542.297729 2990.226807
542.309692 2407.002441
542.321655 1320.265625
545.280029 810.130432
545.292114 3546.680664
545.304199 8821.731445
545.316284 14428.645508
545.328369 15433.935547
545.340393 9976.933594
545.352478 4584.460449
545.364563 541.873474
550.22699 1613.468384
550.239258 5327.847168
550.251465 6885.920898
550.263733 13793.537109
550.27594 47051.480469
550.288208 148868.3125
550.300415 267010.90625
550.312683 367186.8125
550.32489 307041.65625
550.337158 184336.140625
550.349365 70369.742188
550.361633 18809.576172
550.373901 6255.669434
550.386108 5606.663574
550.398376 1752.048706
550.715881 1377.930908
550.728149 3920.09668
550.740417 5808.476074
550.752686 7714.802734
550.764954 27812.421875
550.777161 100635.84375
550.789429 213509.28125
550.801697 334524.0
550.813965 346985.34375
550.826233 230283.734375
550.83844 117197.195312
550.850708 35317.832031
550.862976 10137.018555
550.875244 4897.836914
550.887512 1370.596436
551.207031 435.671448
551.219299 2799.518799
551.231567 2209.111084
551.243469 2370.13916
551.255737 3080.656982
551.268005 10358.038086
551.280273 34968.28125
551.292542 65145.097656
551.30481 92826.789062
551.317139 81466.140625
551.329407 49703.820312
551.341675 20472.986328
551.353943 5469.065918
551.366211 1557.219727
559.232727 1246.065796
559.2453 4147.402344
559.257812 5374.210449
559.270386 16993.234375
559.282898 61119.035156
559.295471 169164.875
559.307983 284833.875
559.320557 355647.15625
559.333069 268406.1875
559.345642 154655.0
559.358154 50683.695312
559.370728 13380.643555
559.38324 3310.317383
559.395813 1003.392578
559.759399 1834.54541
559.771912 6466.960938
559.784485 24561.066406
559.797058 66297.9375
559.809631 111053.953125
559.822144 135784.203125
559.834717 100578.117188
559.84729 56918.023438
559.859863 18278.095703
559.872437 4807.487793
559.884949 1146.612671
799.434326 2045.348022
799.45575 2941.218262
799.477173 3137.060547
799.498596 2448.771973
799.52002 1300.608276
827.409302 1314.653076
827.431885 3047.046875
827.454407 4435.085938
827.47699 4433.029297
827.499573 3020.638184
827.522156 1295.74231
844.458069 1135.87561
844.481323 2127.426025
844.504578 2593.251953
844.527893 2216.667969
844.551147 1273.215454
848.427551 1303.735474
848.450989 3064.549316
848.474426 7195.337891
848.497864 9026.217773
848.521301 7114.96875
848.544739 3175.287842
848.568176 1478.266479
888.403076 1685.099731
888.428162 2621.987061
888.453247 2899.449951
888.478394 2335.587402
888.503479 1313.872681
944.452393 1169.311401
944.479919 3597.628662
944.507446 7100.620117
944.534973 10557.188477
944.5625 9761.836914
944.590027 5948.335449
944.617554 2395.251465
944.645081 794.949585
959.462646 1939.129395
959.490784 3817.798096
959.518982 5012.458496
959.54718 4566.219238
959.575378 2819.898926
959.603516 1081.723511
983.461609 930.356201
983.490845 2509.791504
983.520142 3818.31543
983.549377 3865.412109
983.578613 2686.4646
983.607849 1247.115967
987.450806 1025.923706
987.480225 2180.448975
987.509644 2942.614014
987.539062 2709.471924
987.568481 1644.556885
989.452087 630.277893
989.481567 3976.356934
989.511108 10359.306641
989.540588 17394.25
989.570129 20163.074219
989.599609 14218.058594
989.62915 7653.705566
989.658691 2291.861328
989.688171 1063.325195
990.48822 1187.820312
990.517761 2775.412598
990.547302 4299.25
990.576843 4741.18457
990.606445 3742.818359
990.635986 2034.160645
1000.494629 1879.350342
1000.524597 2899.814697
1000.554626 3109.528809
1000.584595 2317.943115
1000.614624 1070.01001
1001.455505 1173.623901
1001.485535 2448.449951
1001.515564 3466.720459
1001.545654 3499.814941
1001.575684 2470.984131
1001.605774 1111.267578
1002.477966 1470.050781
1002.508057 2395.91333
1002.538147 2824.9646
1002.568237 2438.888672
1002.598328 1473.309692
1017.481384 1721.797607
1017.512146 6269.828125
1017.542908 9965.46582
1017.57373 11064.345703
1017.604492 7582.509766
1017.635254 3821.799805
1017.666077 1055.006104
1018.497681 1640.76709
1018.528503 3296.668701
1018.559326 4415.090332
1018.590149 4133.904297
1018.620972 2660.8125
1018.651794 1084.478394
END IONS
