BEGIN IONS
PEPMASS=712.31
CHARGE=0
MSLEVEL=2
SOURCE_INSTRUMENT=LC-ESI-qTof
FILENAME=20121205_Jenia_Ger_Microcolin_C_MNa712-qb.1.1..mgf
SEQ=*..*
IONMODE=Positive
ORGANISM=GNPS-LIBRARY
NAME=Microcolin C M+Na
PI=Gerwick
DATACOLLECTOR=Jenia
SMILES=CCCC[C@@H](C)C[C@@H](C)C(N(C)[C@@H](CC(C)C)C(N[C@H]([C@H](O)C)C(N(C)[C@H](C(C)C)C(N1[C@@H](C(N2C(C=C[C@@H]2C)=O)=O)CCC1)=O)=O)=O)=O
INCHI=N/A
INCHIAUX=N/A
PUBMED=N/A
SUBMITUSER=mwang87
TAGS=
LIBRARYQUALITY=1
SPECTRUMID=CCMSLIB00000001660
SCANS=1
271.888367 17345.0
289.879761 28408.0
329.993896 100546.0
331.070801 33707.0
342.196045 27877.0
344.312195 26354.0
360.777344 39080.0
362.438721 8543.0
364.084473 103097.0
366.382812 52373.0
369.692078 39771.0
370.658447 8739.0
387.101624 23373.0
397.136108 69875.0
400.970703 4476.0
401.918579 22846.0
405.116211 125563.0
413.066772 28650.0
415.014893 17033.0
431.0979 125184.0
431.834473 4.0
441.155273 34136.0
442.053711 16060.0
445.18512 36837.0
473.973755 54529.0
475.3703 34778.0
496.148926 54980.0
524.287109 11638.0
540.264404 18744.0
543.055664 28107.0
571.217773 58776.0
586.740234 23894.0
587.423828 101595.0
588.116455 8.0
597.124878 8567.0
615.182129 101658.0
616.301636 21595.0
650.498901 42826.0
651.183838 17207.0
668.338867 6434728.0
669.371582 2171794.0
670.269775 4.0
694.331543 163593.0
695.492065 21164.0
712.28894 27323872.0
713.325562 2653570.0
714.161499 1.0
END IONS
