BEGIN IONS
PEPMASS=1131.34
CHARGE=1
MSLEVEL=2
SOURCE_INSTRUMENT=LC-ESI-Orbitrap
FILENAME=f.amelnik/Propimycin_QE.mgf;
SEQ=*..*
IONMODE=Positive
ORGANISM=GNPS-LIBRARY
NAME=Propimycin M+H
PI=MFischbach
DATACOLLECTOR=AMelnik
SMILES=OC(C(NC(C(NC(C1=CC=C(C2=NC(C(N[C@H](C(N/C3=C\C)=O)[C@@H](C)O)=O)=CS2)C(C4=COC(C(NC(C(NC(C5=C(C)OC(C(NC([C@H](C(C)C)NC(C(NC(C6=C(C)OC3=N6)=O)=C)=O)=O)=C)=N5)=O)=C)=O)=C)=N4)=N1)=O)=C)=O)=C)=O
INCHI=
INCHIAUX=
PUBMED=
SUBMITUSER=amelnik
TAGS=
LIBRARYQUALITY=3
SPECTRUMID=CCMSLIB00000839963
SCANS=1
86.512093 720.639587
86.512856 1391.166748
86.513618 1829.529785
86.514381 1724.570435
86.515152 1135.459106
94.027405 641.269287
94.028267 1381.29187
94.029137 1996.409668
94.029999 2144.466553
94.030861 1738.974976
94.031731 1020.013733
96.04319 1354.815918
96.044083 2643.160645
96.044975 3391.362305
96.045868 3035.270996
96.046761 1873.104736
96.047653 701.062195
96.079803 1110.682373
96.080696 1758.459717
96.081589 1933.454224
96.082481 1494.45752
96.083374 747.7005
98.057304 2364.07666
98.05822 12321.832031
98.059143 22191.306641
98.060066 28193.039062
98.060982 21567.710938
98.061905 12912.088867
98.062828 5677.940918
98.063751 2828.905273
98.064667 588.646423
111.052803 911.948486
111.053909 2089.904541
111.055023 3341.57373
111.056129 3709.490967
111.057243 2863.273926
111.05835 1430.307739
111.059464 311.808289
112.074394 3226.88208
112.075516 6705.071289
112.076645 9343.604492
112.077766 7505.318848
112.078896 2924.538818
112.080017 1088.595947
113.069077 1297.339844
113.070221 1986.491455
113.071358 2068.522949
113.072502 1460.254395
113.073639 593.045654
128.030792 15230.858398
128.032166 34176.527344
128.033539 52864.738281
128.034912 49047.191406
128.036285 31854.285156
128.037674 16661.683594
128.039047 8637.270508
128.040421 5404.896973
128.041794 1039.418945
129.02742 615.710327
129.028809 1394.620239
129.030212 1751.151245
129.031601 1405.261475
129.03299 702.618591
129.035767 831.342468
129.037155 1759.311401
129.038544 2347.096191
129.039932 2075.0896
129.041321 1167.891602
133.073959 991.697144
133.075424 1898.013184
133.076874 2373.362061
133.078339 2075.504883
133.079788 1234.65686
140.021149 1063.38562
140.02272 1607.21106
140.024292 2022.61377
140.025879 1991.529907
140.027451 1464.026245
140.029022 910.399475
140.030594 1038.380493
140.032166 2084.648193
140.033737 3420.905762
140.035309 4038.674805
140.03688 3484.071777
140.038452 2215.308594
140.040024 1032.171509
141.097534 1466.728516
141.099121 9371.191406
141.100708 16942.396484
141.102295 21797.222656
141.103882 16559.335938
141.105484 9758.711914
141.107071 4167.631348
141.108658 1042.180664
151.045868 906.255615
151.047623 2261.047607
151.049377 4269.523438
151.051147 6822.729492
151.052902 4395.925293
151.054672 2548.164795
151.056427 880.606873
165.062881 1195.253418
165.064896 2445.377441
165.06691 3386.629883
165.068924 3204.12207
165.070923 2046.602905
165.072937 756.01825
165.097076 637.2453
165.099091 1721.241211
165.101105 3305.137695
165.103119 4513.628418
165.105133 4481.057129
165.107147 3189.979492
165.109161 1499.315308
165.111176 357.388367
166.046875 1020.548096
166.048904 1974.57373
166.050934 2461.21167
166.052963 2049.955078
166.054993 1040.030029
168.062103 594.731812
168.064178 1601.070679
168.066238 2407.756836
168.068298 2254.200195
168.070679 1235.494141
168.072739 7020.086426
168.074814 13296.285156
168.076874 18158.320312
168.078949 15081.209961
168.081009 9361.426758
168.083084 4454.572266
168.085144 670.538574
169.05397 1666.488159
169.056046 18228.802734
169.058136 34716.253906
169.060226 47678.253906
169.062302 38795.949219
169.064392 23971.730469
169.066483 11611.228516
169.068558 6584.630859
169.070648 3836.33374
169.072739 464.177185
170.05954 865.804138
170.061646 1719.053223
170.063751 2364.054443
170.065857 2250.002197
170.067963 1397.524536
179.039566 572.719788
179.04184 1589.979492
179.044113 2778.422852
179.046387 3348.812988
179.04866 2874.140137
179.050934 1706.002197
179.053207 589.769165
182.087067 3578.658203
182.089401 9084.328125
182.091736 14806.604492
182.094055 14160.12793
182.09639 9006.776367
182.098724 4362.466797
182.101059 1047.458374
183.069183 11376.276367
183.071533 73107.976562
183.073883 132257.453125
183.076233 173925.03125
183.078583 136249.453125
183.080933 82987.257812
183.083282 38879.550781
183.085632 22698.359375
183.087982 13272.110352
183.090332 5294.037109
184.074387 1284.031982
184.076752 3474.472656
184.079117 6915.415527
184.081497 10133.234375
184.083862 9497.613281
184.086227 6281.964844
184.088593 2053.108154
184.090973 695.897461
189.06044 742.251404
189.062897 1812.723022
189.065369 3017.16626
189.067825 3475.338135
189.070297 2818.991211
189.072769 1525.991089
192.069275 2103.317383
192.071793 9428.678711
192.074326 16652.707031
192.076843 19882.75
192.079376 14513.195312
192.081894 8309.887695
192.084427 3900.739258
192.086945 634.680908
193.058167 1233.728882
193.060699 2264.905273
193.063248 2764.200928
193.065796 2345.349854
193.068344 1337.73584
195.0737 1282.754761
195.076279 2207.311035
195.078873 2551.76001
195.081451 2100.196777
195.084045 1192.687134
206.083557 3396.383789
206.086365 31018.789062
206.089172 58684.21875
206.09198 80174.46875
206.094788 64970.527344
206.09758 40078.75
206.100388 19380.525391
206.103195 11204.592773
206.106003 6703.935059
206.10881 1248.439209
207.072327 1317.495972
207.075165 2792.041504
207.077988 3955.97583
207.080811 3941.169922
207.083633 2000.483887
207.086472 247.545166
207.089294 725.083496
207.092117 3962.352051
207.09494 7685.502441
207.097778 11132.731445
207.100601 9966.113281
207.103424 6188.787109
207.106247 2106.707031
207.109085 776.278503
209.088028 658.888062
209.090897 1732.454224
209.093765 2692.408203
209.096634 2897.4104
209.099503 2217.79541
209.102371 1140.152222
220.0616 97.464233
220.064697 11758.995117
220.067795 25860.169922
220.070892 39743.570312
220.07399 36325.25
220.077087 23034.314453
220.080185 11317.037109
220.083282 5394.341309
220.08638 3364.129395
220.089478 1302.816772
221.071014 1390.135498
221.074127 2564.944092
221.077255 2851.611572
221.080368 1985.428955
221.083481 1064.298096
221.086609 654.87146
221.089722 3820.494629
221.09285 6931.981445
221.095963 8511.739258
221.099075 6108.759766
221.102203 2225.686523
221.105316 641.84436
228.018051 1494.438354
228.021317 4232.105957
228.024582 6940.788574
228.027847 4501.263184
228.031113 2840.304443
228.034378 1212.654907
234.046249 28.486578
234.049652 2947.940918
234.05304 9412.524414
234.056442 8209.491211
234.063232 12983.46582
234.066635 12718.016602
234.070023 3911.029785
234.077164 16511.722656
234.080566 123797.75
234.083954 230808.953125
234.087357 313104.15625
234.090744 252683.421875
234.094147 155686.25
234.097549 74371.671875
234.100937 42664.140625
234.10434 26319.78125
234.107742 12207.867188
234.11113 412.185455
235.082108 9762.992188
235.085526 21734.244141
235.088943 33670.570312
235.092361 31584.841797
235.095779 20670.404297
235.099197 10848.569336
235.102615 5572.478516
235.106033 1203.613892
243.028595 1041.438232
243.032181 1881.014771
243.035782 2317.116943
243.039368 2074.193604
243.042969 1411.03894
244.009033 938.680298
244.012634 2108.672363
244.016251 3376.733643
244.019867 3808.68335
244.023483 2985.508545
244.0271 1459.647949
244.066879 3000.758545
244.070496 6420.739746
244.074112 9033.820312
244.077728 7282.453125
244.081345 2541.560303
244.084961 765.031494
245.042694 1592.499634
245.046341 3024.464844
245.049973 4008.634277
245.053619 3777.530518
245.057251 2469.433105
245.060898 1003.471619
246.079285 1204.756714
246.082947 1685.089233
246.086609 4536.330566
246.090271 4960.200684
246.093933 4189.416992
246.097595 2518.289307
246.101257 994.216492
248.09816 957.325806
248.101868 1813.718994
248.105576 2220.059082
248.109283 1911.629517
248.112991 1137.964233
253.994797 1438.302124
253.998642 4946.296875
254.002472 8685.988281
254.006317 9051.261719
254.010162 5960.856445
254.013992 1985.451294
254.017838 624.212891
269.042053 1560.399292
269.046234 2913.688965
269.050415 3607.041992
269.054596 3115.344238
269.058807 1839.137207
269.062988 623.154907
271.016571 1817.178955
271.020813 6856.33252
271.025024 11983.382812
271.029266 14254.401367
271.033508 10384.951172
271.03772 5920.061035
271.041962 1584.028076
272.060089 899.740601
272.064331 2127.706787
272.068604 3225.463379
272.072845 3471.28833
272.077118 2724.09668
272.08136 1519.486816
274.071716 710.607971
274.076019 1732.092529
274.080322 2882.644775
274.084625 3417.599609
274.088928 3039.807373
274.093231 2077.111572
274.097534 1123.832764
274.110443 1649.814209
274.114746 2871.54834
274.119049 3759.741455
274.123352 3620.989746
274.127655 2435.82251
274.131958 962.943481
276.127411 985.088745
276.131775 1872.571899
276.136108 2347.294922
276.140472 2051.384277
276.144836 1206.092285
281.040466 909.315308
281.044922 4701.180664
281.049377 8488.588867
281.053864 10130.734375
281.058319 7177.51416
281.062805 2479.619629
281.067261 771.09906
283.0578 774.20105
283.062317 1802.469604
283.066833 2619.183105
283.07135 2560.137207
283.075867 1648.998657
285.037628 1614.479126
285.042175 2409.42627
285.046753 2555.107666
285.0513 1949.449707
285.055878 1032.398682
287.144379 3029.134521
287.148987 6883.992676
287.153625 10519.126953
287.158234 9291.225586
287.162842 5731.407715
287.16745 1613.518188
288.046509 773.671387
288.051117 1953.909424
288.055756 2905.883545
288.060394 2912.437744
288.065033 1960.312622
288.069672 740.827698
290.102386 1181.580933
290.107086 2772.143799
290.111755 4349.81543
290.116455 4710.992188
290.121155 3512.793945
290.125824 1665.3302
295.019501 1638.563599
295.024323 2987.387207
295.029114 5724.396973
295.033936 4940.501465
295.038727 3538.785156
295.043549 1656.322632
296.02179 679.986084
296.026642 1780.509277
296.031464 3386.230957
296.036285 4181.162109
296.041138 3291.165771
296.045959 1397.414429
296.055634 693.030579
296.060455 2048.283203
296.065277 2668.748291
296.070129 2024.742676
296.074951 911.878723
298.041779 869.928162
298.046661 1745.718628
298.051544 2304.047852
298.056427 2173.17627
298.06131 1451.774292
299.04425 3507.714111
299.049164 17944.441406
299.054047 31899.173828
299.05896 40103.226562
299.063873 30243.240234
299.068787 17951.865234
299.073669 8228.484375
299.078583 4807.614258
299.083496 976.753601
300.038147 1738.895264
300.04306 3832.832275
300.048004 2489.546875
300.052917 143.158829
300.057861 549.914612
300.062775 2604.736572
300.067719 4117.461426
300.072662 3935.631104
300.077576 2382.660889
300.08252 796.087158
301.066132 1221.690186
301.071106 2479.060791
301.07605 3079.470215
301.080994 2604.146973
301.085968 1490.963013
302.104431 853.65155
302.109406 1869.909302
302.11438 2602.452637
302.119354 2512.33667
302.124329 1636.803589
303.022949 160.40831
303.027954 3409.220459
303.032959 6731.035156
303.037964 9080.583984
303.042969 7105.177734
303.047974 2622.980469
303.052979 862.07489
305.150513 10.020174
305.155579 3652.959717
305.160645 7282.390137
305.16571 9019.09375
305.170746 6481.845703
305.175812 2050.287842
305.180878 488.571167
309.028839 5719.828613
309.033997 16172.549805
309.039154 27248.480469
309.044281 27747.376953
309.049438 18574.466797
309.054596 9983.052734
309.059753 5087.661621
309.064911 1031.519409
310.042297 1515.509399
310.047455 2603.512695
310.052643 2955.303223
310.057831 2266.655029
310.062988 1059.75
311.049316 1210.354248
311.054504 2796.31665
311.059723 4247.401367
311.064911 4481.445312
311.070129 3363.616455
311.075317 1740.589233
311.080536 522.337646
312.050812 1342.554199
312.05603 2343.793457
312.061249 2554.55127
312.066498 1803.930054
312.071716 669.511658
313.030853 1654.919434
313.036102 2897.439453
313.041382 3368.760742
313.046631 2700.071045
313.05188 1394.782104
314.026093 1681.674072
314.031372 2774.806641
314.036652 3285.699219
314.041931 2753.843994
314.047211 1487.590576
316.041992 1076.918579
316.047333 1882.178345
316.052673 2408.672607
316.057983 2357.600342
316.063324 1746.536133
316.068665 913.519226
317.024872 1523.686157
317.030243 5119.169434
317.035583 8944.75
317.040955 8826.836914
317.046295 5554.36084
317.051666 1413.266357
319.015259 240.786148
319.02066 3854.325195
319.026062 8138.056641
319.031464 12080.104492
319.036865 10573.09668
319.042267 6376.587891
319.047668 2619.632324
319.05307 585.930176
319.128784 490.268799
319.134186 4601.535645
319.139587 8553.436523
319.144989 11092.257812
319.150421 8671.299805
319.155823 3177.221436
319.161224 1169.902832
321.029877 1136.565308
321.035339 2492.651855
321.040771 3965.2854
321.046234 4711.237793
321.051697 3827.653564
321.057159 2065.779785
321.062622 561.09552
322.069031 827.884644
322.074493 1887.929688
322.079987 2470.873535
322.08548 2119.875
322.090942 1143.475464
323.047119 854.06366
323.052612 2052.351074
323.058136 3199.795898
323.063629 3396.701416
323.069153 2409.676758
323.074646 963.586792
324.040741 1009.445312
324.046265 1885.648926
324.051819 5330.489258
324.057343 8776.958984
324.062866 8922.092773
324.06842 5785.219727
324.073944 1855.032471
324.079468 641.116638
325.055634 800.174622
325.061188 2166.05835
325.066772 3335.290039
325.072327 3528.982178
325.077881 2689.653076
325.083435 1460.743164
326.03064 866.586304
326.036224 1928.765137
326.041809 3492.11792
326.047394 4434.351074
326.052979 3912.61377
326.058563 2232.433105
326.064148 570.665894
327.038086 7236.438477
327.043701 29740.986328
327.049316 52375.476562
327.054901 63528.617188
327.060516 46923.453125
327.066132 27512.746094
327.071747 12363.360352
327.077362 7183.312012
327.082977 4211.35498
327.088593 1858.165161
327.094177 537.018372
328.044556 134.055923
328.050171 4252.77832
328.055817 8468.647461
328.061462 12112.195312
328.067078 10628.84668
328.072723 7037.827637
328.078369 1634.143433
333.142029 9872.947266
333.147797 21913.886719
333.153564 33771.566406
333.159332 31112.669922
333.1651 19863.330078
333.170868 9856.008789
333.176636 4623.209473
333.182404 2786.70874
333.188171 1180.458862
334.147369 1459.751221
334.153168 2970.172119
334.158966 5799.905273
334.164764 7983.034668
334.170563 4289.000488
334.176331 2326.418945
334.182129 726.665955
337.027985 584.523926
337.033844 5523.675781
337.039703 10271.766602
337.045593 13040.94043
337.051453 9820.260742
337.057312 5810.299316
337.063202 1161.406494
340.035675 799.126099
340.041626 2044.456909
340.047577 5208.307617
340.053528 7977.554688
340.059479 6365.714355
340.06543 3433.848389
340.071381 1244.693604
340.077332 2414.800293
340.083282 5612.415039
340.089203 8575.605469
340.095154 8560.587891
340.101105 3916.441895
340.107056 1922.729736
340.113007 709.548218
341.025116 1080.746826
341.031097 1997.014282
341.037079 2384.103271
341.04306 1825.9198
341.049011 883.463684
341.060974 1692.678345
341.066956 3557.280762
341.072937 7375.499023
341.078888 4795.135742
341.084869 3497.61377
341.090851 1951.128784
341.096832 841.783081
342.04953 1174.659302
342.055511 6140.998535
342.061523 10977.079102
342.067535 14193.875977
342.073517 11293.69043
342.079529 6933.90918
342.08551 1704.550171
343.041138 1759.881714
343.04715 4521.295898
343.053192 4697.791016
343.059204 3542.581543
343.065247 1808.934204
343.071259 468.201538
343.131561 1087.530884
343.137573 2192.803711
343.143616 2965.540283
343.149628 2925.49707
343.15567 2149.637939
343.161682 1117.924927
344.067963 725.969727
344.074005 2065.991699
344.080048 3655.078613
344.086121 4344.146484
344.092163 3587.294678
344.098206 1993.339844
344.104279 628.315857
345.056824 2427.21167
345.062897 6384.946289
345.06897 10613.720703
345.075073 11207.964844
345.081146 7785.129883
345.087219 4400.286621
345.093292 1017.374512
346.062164 1575.470093
346.068298 2833.079834
346.074402 3265.561035
346.080505 2451.586182
346.086609 1030.698242
347.004547 3128.324463
347.010681 22341.746094
347.016815 41148.847656
347.022949 54882.585938
347.029083 43105.863281
347.035217 25923.544922
347.041351 11519.102539
347.047485 6761.985352
347.053619 4699.755859
347.059753 2105.42627
347.065887 745.41156
348.012207 305.767303
348.018372 4385.943848
348.024536 8300.52832
348.03067 11325.578125
348.036835 9047.913086
348.042999 5399.199707
348.049164 1121.661255
349.030518 2478.204346
349.036713 5620.554199
349.042877 7884.087402
349.049072 5498.045898
349.055267 2746.264648
349.061432 1520.591309
349.067627 3873.591797
349.073822 6798.732422
349.079987 8850.75
349.086182 6855.940918
349.092377 2179.387451
349.098572 482.920074
350.054138 4414.827637
350.060364 16499.332031
350.066559 28656.279297
350.072784 34267.011719
350.07901 25193.943359
350.085205 14670.828125
350.091431 6440.161621
350.097626 3431.959473
350.103851 922.377075
351.061859 841.905884
351.068115 4263.120117
351.074341 8620.416992
351.080597 12948.601562
351.086823 12188.719727
351.093048 7889.885742
351.099304 3993.58374
351.10553 561.685913
352.043457 5713.214844
352.049744 11719.96582
352.056 15364.03125
352.062256 10622.893555
352.068542 6064.331055
352.074799 5092.47998
352.079987 9499.639648
352.086243 13945.166016
352.092529 14450.025391
352.098785 9902.939453
352.105042 5056.58252
352.111328 1311.543823
354.050659 608.037598
354.056976 1814.224609
354.063293 3476.807373
354.069611 4581.973145
354.075928 4283.780762
354.082245 2772.949707
354.088593 1091.34375
355.038483 1041.159668
355.04483 6214.804688
355.051178 11151.455078
355.057526 13756.523438
355.063873 10460.980469
355.070221 6368.881348
355.076569 1305.760986
357.045776 897.098145
357.052185 1923.157349
357.058594 2512.358154
357.065002 2256.557617
357.071381 1415.786133
358.026917 1408.86792
358.033325 2224.480713
358.039764 2447.625
358.046204 1926.098633
358.052612 1195.075195
364.039001 1464.40564
364.045593 3131.600098
364.052185 4358.723145
364.058777 4081.268555
364.065338 2496.601074
364.07193 881.647217
365.06897 1556.045532
365.075592 2423.374756
365.082184 2666.157959
365.088806 2230.61792
365.095428 1393.235962
366.05014 770.297424
366.056793 1952.834229
366.063446 3873.541748
366.070068 4775.437988
366.076721 4113.945801
366.083374 2298.022705
366.089996 624.654114
367.128693 1352.75415
367.135345 2834.61377
367.142029 3888.998047
367.148712 3611.850342
367.155365 2216.915039
367.162048 753.103333
368.058411 335.192993
368.065125 25487.320312
368.071808 58179.851562
368.078522 91374.757812
368.085205 88399.5625
368.091919 58133.589844
368.098602 30477.050781
368.105316 14244.908203
368.112 8231.097656
368.118713 4249.395508
368.125397 2132.773926
368.132111 1002.681458
369.065857 3739.468018
369.072571 15284.302734
369.079315 26963.171875
369.086029 34748.824219
369.092743 27830.203125
369.099487 17222.472656
369.106201 7886.967773
369.112946 3510.398193
369.119659 1281.463623
370.048462 5816.17041
370.055206 21780.898438
370.061951 38269.066406
370.068726 44682.222656
370.07547 33026.101562
370.082214 20041.357422
370.088989 10429.033203
370.095734 6390.338379
370.102478 80.48391
371.049805 1725.634521
371.05658 3390.653809
371.063354 6712.634766
371.070129 4966.650879
371.076935 3793.88501
371.08371 2133.471191
371.090485 915.149414
371.12439 1598.003784
371.131165 2560.029053
371.137939 2746.352783
371.144745 1955.225098
371.15152 777.402039
372.062012 544.957886
372.068817 4508.063965
372.075623 8391.866211
372.082428 11241.720703
372.089233 9138.200195
372.096069 5595.495117
372.102875 1487.078003
373.051056 4376.918945
373.057892 9994.046875
373.064697 15451.737305
373.071533 14672.302734
373.078369 10181.394531
373.085205 6071.894531
373.092041 865.617981
374.050873 711.542297
374.057739 1911.022095
374.064606 3723.366943
374.071472 6864.097656
374.078339 4736.379883
374.085205 3150.458984
374.092041 1361.974854
376.034973 1243.792114
376.041901 2667.616943
376.048828 3967.62793
376.055725 3679.680664
376.062653 1828.320679
376.076477 1074.94397
376.083405 3187.650635
376.090332 4737.615723
376.097229 4430.788086
376.104156 2735.598633
376.111084 1052.444458
377.053802 1816.669556
377.06073 2578.887695
377.067688 2614.437988
377.074615 2041.15271
377.081573 1355.628418
378.048462 7114.303711
378.05542 15401.736328
378.062408 23204.103516
378.069366 20757.591797
378.076355 13286.854492
378.083313 6914.39209
378.090302 1037.465942
382.047516 1670.889893
382.054596 3504.034912
382.061676 6319.034668
382.068756 8045.002441
382.075836 4079.469727
382.082947 2135.18042
382.090027 631.262146
383.048218 1004.57019
383.055328 2521.075928
383.062439 5624.376465
383.06955 8619.210938
383.07666 8225.249023
383.083771 3473.177734
383.090881 1509.950684
384.067108 1707.54895
384.074249 2465.738037
384.08139 2602.51001
384.088531 2066.40625
384.095673 1226.775513
384.117096 1196.179932
384.124237 2257.43335
384.131378 3064.961182
384.138519 3043.916504
384.14566 2187.482422
384.152802 1043.312744
386.067902 200.149994
386.075104 4591.587402
386.082306 9868.577148
386.089478 15125.769531
386.09668 13944.384766
386.103882 8815.354492
386.111084 4234.255371
386.118286 929.058167
392.035187 2703.810791
392.042572 7653.693848
392.049927 8554.475586
392.057281 5150.433594
392.064636 3842.385254
392.069672 9574.135742
392.077057 18684.755859
392.084412 26729.214844
392.091766 22430.226562
392.099121 13732.131836
392.106506 6037.239746
392.113861 2625.990479
392.121216 927.100342
393.053558 480.868622
393.060944 9437.256836
393.068359 19505.339844
393.075745 29036.878906
393.08313 26349.792969
393.090515 17191.742188
393.097931 9227.999023
393.105316 5216.681152
393.112701 471.185242
394.052979 5067.845215
394.060394 10491.498047
394.067841 14793.098633
394.075256 12407.290039
394.082672 3682.44873
394.090088 1317.091675
395.07547 4085.794434
395.082916 10561.334961
395.090363 17524.734375
395.097809 18375.982422
395.105255 12222.912109
395.112732 6458.075684
395.120178 3384.159424
395.127625 1816.140259
395.138489 3111.059814
395.145935 3419.440918
395.153412 2447.514648
395.160858 1163.974731
396.063965 5057.671387
396.071442 14407.8125
396.078918 24268.964844
396.086395 26169.357422
396.093872 18724.445312
396.101349 11204.938477
396.108826 6062.285156
396.116302 550.467651
397.067719 1902.88623
397.075226 5605.335938
397.082733 9426.533203
397.09024 9654.859375
397.097748 3752.255615
397.105255 1845.929077
398.075287 1106.935181
398.082825 2744.561768
398.090363 5700.327148
398.0979 7758.552734
398.105438 4287.521484
398.112976 2435.279053
398.120514 848.874878
401.06131 6501.266602
401.068939 14621.397461
401.076569 22745.916016
401.084167 21049.361328
401.091797 13361.84668
401.099426 6477.421387
401.107025 2868.780762
401.114655 873.223267
402.052429 3856.032959
402.060089 13580.038086
402.067719 23658.984375
402.075378 27457.681641
402.083008 20539.742188
402.090668 12648.452148
402.098328 6557.665039
402.105957 773.032166
403.06369 2796.404785
403.071381 5641.814941
403.079041 4713.090332
403.086731 3584.114502
403.094421 2011.611572
403.102081 775.914185
404.058014 1378.618042
404.065704 6700.689941
404.073425 12205.883789
404.081116 16612.527344
404.088837 13940.780273
404.096527 8731.430664
404.104248 4125.178223
404.111938 734.373535
405.074524 1602.650024
405.082275 2794.897949
405.089996 3316.153809
405.097717 2779.220459
405.105469 1607.066406
406.042908 1048.312256
406.050659 2487.490967
406.058411 3749.334229
406.066193 3798.716553
406.073944 2537.2229
406.081696 921.095886
409.055237 948.306274
409.06311 2178.864502
409.070953 3408.155273
409.078796 3781.045654
409.086639 2943.252441
409.094482 1494.008057
410.045807 3578.23291
410.05368 7147.25293
410.061554 9844.214844
410.069427 7800.267578
410.077332 2932.561523
410.085205 946.947021
411.047882 945.689697
411.055786 2454.223877
411.06369 3989.491943
411.071594 4501.341309
411.079498 3607.679932
411.087402 1961.556396
411.095306 633.153137
413.081268 6090.22168
413.089233 18958.9375
413.097198 32555.695312
413.105164 37588.515625
413.113129 27073.695312
413.121094 15515.919922
413.129059 6478.518066
413.137024 3259.070801
413.144989 1460.341064
414.076233 11047.876953
414.084229 23928.539062
414.092224 36545.828125
414.10022 34989.992188
414.108215 24072.351562
414.116211 13935.959961
414.124207 7527.154297
414.132202 1013.732056
415.077087 1720.149902
415.085114 4435.470215
415.09314 7834.851074
415.101166 9744.037109
415.109192 7213.019043
415.117188 4091.606934
415.125214 1241.173218
416.033264 1585.930176
416.041321 2887.909668
416.049377 3379.314453
416.057434 2523.008057
416.06546 1014.014771
419.069153 3677.150635
419.077301 12784.239258
419.085419 22091.449219
419.093567 25600.603516
419.101715 18403.109375
419.109833 10455.53125
419.117981 4590.662109
419.126129 1012.993958
420.054291 32582.8125
420.062439 85194.085938
420.070618 141484.296875
420.078796 148943.4375
420.086945 102841.921875
420.095123 58208.621094
420.103302 28177.076172
420.11145 16789.626953
420.119629 8769.722656
420.127777 1608.908813
421.06073 3037.501953
421.068939 23821.105469
421.077118 43209.707031
421.085327 56761.90625
421.093536 47571.21875
421.101715 32463.923828
421.109924 19857.765625
421.118103 12762.647461
421.126312 1786.498779
422.062347 3095.24292
422.070587 6900.907227
422.078796 11030.988281
422.087036 11849.433594
422.095245 10617.84375
422.103485 8613.804688
422.111725 2164.869141
422.119934 866.480713
423.075806 1636.71582
423.084076 3020.308105
423.092316 3892.840088
423.100586 3629.663574
423.108826 2414.536621
423.117096 1029.699829
424.043182 500.606476
424.051453 9722.793945
424.059723 19851.179688
424.068024 29120.619141
424.076294 25668.962891
424.084595 16479.90625
424.092865 8421.212891
424.101166 4409.586426
424.109436 1003.982544
425.055511 1756.190552
425.063812 2969.881592
425.072144 5867.516602
425.080444 7852.550781
425.088745 4107.452148
425.097076 2145.689209
425.105377 577.18573
429.065247 1443.699463
429.073669 2512.488281
429.082092 2938.00293
429.090546 2312.243164
429.098969 1094.269409
430.04483 796.414917
430.053284 5167.47998
430.061737 9518.331055
430.07019 11461.379883
430.078644 8156.775879
430.087128 2684.282959
430.095581 754.085938
432.065155 1304.14917
432.0737 2581.912109
432.082214 3352.779541
432.090729 3013.557129
432.099243 1843.790771
434.039734 1415.55896
434.048309 2599.016357
434.056885 3313.662598
434.06546 2999.949707
434.074066 1856.410156
437.077118 3372.59668
437.085785 16421.632812
437.094452 29635.083984
437.103119 39714.339844
437.111786 32260.751953
437.120453 19796.806641
437.12915 8751.033203
437.137817 4209.875
437.146484 2278.035889
437.155151 1485.914062
438.073181 4813.094238
438.081879 14120.113281
438.090576 23787.601562
438.099274 27433.550781
438.107971 21376.349609
438.116669 13741.264648
438.125366 7372.157227
438.134094 3632.530273
438.142792 493.61261
439.075073 1302.772461
439.083801 2098.470459
439.092529 2439.799072
439.101257 2117.936035
439.109985 1369.926636
441.080383 1020.451843
441.089172 1941.760498
441.097961 2817.118896
441.10672 3142.018066
441.115509 2639.157227
441.124298 1565.883179
445.052246 1131.995117
445.061157 2701.44873
445.070068 4187.489746
445.078979 4402.140137
445.08786 3162.046387
445.096771 1431.524658
447.063599 9312.426758
447.072571 23990.970703
447.081512 39571.664062
447.090485 41194.527344
447.099457 28051.117188
447.108429 15482.075195
447.117401 7292.986816
447.126373 4184.531738
447.135345 561.59082
448.059723 7857.82959
448.068726 19232.183594
448.077728 31286.576172
448.0867 33180.265625
448.095703 24160.236328
448.104706 14800.326172
448.113708 7705.600586
448.122711 3904.857666
448.131714 488.645874
449.064423 1279.64856
449.073456 6013.628906
449.082458 9778.754883
449.091492 12890.549805
449.100525 16623.8125
449.109558 19758.429688
449.118591 19820.677734
449.127625 12762.837891
449.136627 6019.996094
449.14566 1764.887939
450.072632 1557.106567
450.081665 2806.212158
450.090729 6651.713379
450.099792 9164.914062
450.108856 9031.15625
450.11792 4466.716797
450.126953 2922.172852
450.136017 1445.710449
452.044403 1138.509399
452.053528 2735.213135
452.062622 5255.910645
452.071747 7427.349609
452.080872 4187.419434
452.089996 2261.741943
452.099091 691.909485
453.049164 4156.122559
453.058319 9297.446289
453.067444 14436.640625
453.076599 13547.228516
453.085754 8798.664062
453.09491 4504.933594
453.104065 1122.415283
454.056702 963.481812
454.065887 2177.387939
454.075073 3410.47583
454.084229 3781.750977
454.093414 3022.536865
454.1026 1670.672363
459.071991 1352.084229
459.081329 2335.038086
459.090668 2889.841797
459.099976 2637.170654
459.109314 1750.639771
461.056335 3279.921875
461.065704 6745.467773
461.075104 8763.640625
461.084503 3854.474854
461.093903 1401.948853
462.053314 1192.410522
462.062744 1948.530151
462.072174 2358.971436
462.081573 2122.429443
462.091003 1316.023926
462.119263 873.282349
462.128693 2094.174316
462.138123 2991.867676
462.147552 2854.064697
462.156952 1768.250122
465.025726 2618.953125
465.035248 5315.504883
465.044769 3082.839844
465.064728 968.299988
465.074249 36826.566406
465.083771 81631.492188
465.093292 127185.53125
465.102783 120880.640625
465.112305 79088.265625
465.121826 41371.300781
465.131348 19889.638672
465.140869 12052.515625
465.15036 6382.813965
465.159882 1663.964844
466.053009 2338.605713
466.062561 23523.265625
466.072113 46122.535156
466.081665 67847.515625
466.091187 64940.0
466.100739 45696.203125
466.110291 27000.515625
466.119843 13832.916992
466.129395 6243.821289
466.138916 1626.127075
467.067993 3121.099854
467.077576 11028.501953
467.087128 19084.044922
467.09671 22735.701172
467.106293 17430.830078
467.115875 10801.185547
467.125427 5358.526855
467.13501 1032.93396
467.690948 1241.703247
467.700562 1977.322388
467.710144 2282.446289
467.719757 2000.424805
467.72934 1306.665283
471.07666 3159.075684
471.086365 6461.269531
471.096039 9047.336914
471.105743 7343.951172
471.115448 2784.408936
471.125153 930.724182
473.051575 2505.108154
473.06134 7766.634766
473.071075 12995.507812
473.080841 12807.755859
473.090607 8678.174805
473.100372 2015.973511
473.110138 374.137787
474.048584 904.593689
474.05838 2028.82605
474.068176 3111.184814
474.077942 3323.400635
474.087738 2448.064697
474.097534 1063.649536
475.048248 678.440247
475.058075 13132.693359
475.067871 26592.480469
475.077698 38482.300781
475.087524 33290.394531
475.097351 21162.777344
475.107178 10793.736328
475.117004 5986.427734
475.126831 1050.981445
476.052094 453.306519
476.061951 5741.373535
476.071777 10917.336914
476.081635 15310.254883
476.091492 13616.733398
476.101349 9123.491211
476.111206 4956.29541
476.121063 951.263306
481.066711 1327.497681
481.076721 2103.162598
481.086731 2630.347656
481.096741 2556.800537
481.10675 1804.095581
483.094788 1087.315674
483.104858 2330.510742
483.114929 3041.200928
483.125 2679.664795
483.135071 1610.162231
489.062622 41.132633
489.072876 8396.716797
489.08313 18179.146484
489.093414 27575.498047
489.103668 24754.292969
489.113922 15535.674805
489.124176 7399.837402
489.13443 3242.050049
489.144714 1814.701904
490.078766 807.572937
490.08905 4071.747314
490.099335 7472.099121
490.109619 8676.270508
490.119934 3819.357666
490.130219 1742.396973
493.057251 0.052159
493.067627 12135.849609
493.078003 27141.326172
493.088379 42132.121094
493.098785 38975.324219
493.109161 24821.978516
493.119537 12284.44043
493.129944 5832.393555
493.14032 3668.268799
493.150726 1333.407593
494.06488 1618.952271
494.075287 3639.250977
494.085724 7013.487305
494.09613 10030.020508
494.106567 9163.648438
494.116974 5977.537109
494.12738 1931.756226
499.051086 2534.072266
499.061676 8623.740234
499.072235 15103.202148
499.082825 17510.753906
499.093414 12700.331055
499.103973 7385.426758
499.114563 3370.905273
499.125122 375.412933
500.066925 1673.771118
500.077545 3320.001465
500.088135 4688.583496
500.098755 4877.810547
500.109344 3742.54834
500.119965 2023.433716
500.130585 694.045166
501.065491 1231.80127
501.076111 3409.398926
501.086761 7016.98584
501.097412 10740.674805
501.108032 11157.012695
501.118683 7706.550781
501.129333 2559.787354
501.139954 815.987549
508.085571 2443.421875
508.096436 7701.601074
508.1073 13085.4375
508.118164 12837.96582
508.129028 8960.686523
508.139893 1841.922974
509.075562 3562.688721
509.086456 7609.174316
509.097351 11264.432617
509.108246 9644.371094
509.119141 3204.946777
509.130035 857.99646
511.086151 1818.183472
511.097107 4941.871582
511.108093 8208.748047
511.119049 8154.434082
511.130005 3397.787598
511.140961 1448.907227
512.095947 1810.652954
512.106934 3051.835693
512.11792 3429.279297
512.128906 2599.85791
512.139893 1182.323853
514.102356 1322.268066
514.113403 3042.30835
514.124451 6772.809082
514.135559 9180.878906
514.146606 7696.323242
514.157654 3074.763916
514.168701 1232.020142
516.087219 1231.334717
516.098389 2599.980713
516.109497 3725.505127
516.120605 3807.004883
516.131714 2843.502441
516.142883 1531.850586
517.05658 7572.770996
517.067688 55199.527344
517.078857 104577.914062
517.090027 145001.4375
517.101135 120639.132812
517.112305 75202.273438
517.123474 36436.726562
517.134644 19395.96875
517.145752 11012.303711
517.156921 4249.04541
517.168091 175.22644
518.059937 3529.98584
518.071106 18688.289062
518.082275 33446.707031
518.093506 43118.796875
518.104675 34242.3125
518.115845 21409.669922
518.127075 10632.06543
518.138245 5879.499512
518.149414 982.56189
518.408203 1460.265137
518.419373 2425.007812
518.430542 2699.092529
518.441772 2062.155029
518.452942 1026.312012
519.069336 1482.765869
519.080566 2819.484863
519.091797 3649.487549
519.103027 3201.589355
519.114258 1722.968506
527.045532 6444.306152
527.057007 17356.916016
527.068481 28977.179688
527.079956 30355.96875
527.091431 20668.857422
527.102905 11381.286133
527.11438 5202.852051
527.125854 2859.391113
527.137329 731.167297
528.057373 1445.509277
528.068848 2965.781738
528.080383 4212.734863
528.091858 4144.792969
528.103394 2721.886963
528.114929 946.877502
534.082397 2915.99585
534.094116 15507.87207
534.105835 27680.232422
534.117554 35803.46875
534.129211 27694.138672
534.14093 16638.208984
534.152649 7458.005859
534.164368 4018.188477
534.176086 1059.294922
535.079712 3450.477295
535.091431 9652.516602
535.10321 16227.910156
535.114929 18381.375
535.126709 13716.104492
535.138428 8378.169922
535.150146 3773.097656
535.161926 881.87207
536.089722 3122.049805
536.101501 7639.38623
536.113281 12469.432617
536.125 13208.993164
536.13678 11715.255859
536.14856 10018.514648
536.160339 2918.872803
536.172119 1288.531982
539.080872 1379.853394
539.092773 4056.608643
539.104614 4770.293457
539.116516 4036.459717
539.128357 2414.959229
539.140259 904.517273
540.091431 1251.611694
540.103333 2092.56958
540.115234 2561.537109
540.127136 2371.403076
540.139038 1628.03418
542.097168 683.814819
542.109131 2056.571533
542.121094 3735.24292
542.133057 4557.353027
542.14502 3895.123047
542.157043 2265.013184
542.169006 732.794617
543.116211 1233.58313
543.128235 2460.2229
543.140198 3425.81958
543.152222 3569.207031
543.164246 2825.221191
543.17627 1662.924194
544.089966 1796.657959
544.102051 2838.425049
544.114075 3467.198486
544.126099 3504.147217
544.138123 3051.486328
544.150208 2261.207764
544.162231 1301.789429
545.055298 7123.70459
545.067383 18099.552734
545.079468 29885.845703
545.091492 30320.773438
545.103577 20295.501953
545.115662 11002.816406
545.127747 5420.507812
545.139832 968.821533
546.069641 1552.009766
546.081726 5300.464355
546.093811 9152.514648
546.105957 9263.466797
546.118042 3387.15332
546.130127 1084.384399
552.088623 1209.229614
552.100952 16694.177734
552.11322 34789.347656
552.125549 51711.175781
552.137878 45877.3125
552.150146 28817.998047
552.162476 13600.773438
552.174744 6331.004883
552.187073 4221.141602
552.199402 3303.432129
552.21167 1915.900146
553.099182 3043.248291
553.111511 9580.37207
553.12384 16489.984375
553.136169 18208.541016
553.148499 12293.492188
553.160828 6347.069824
553.173218 2221.398926
553.185547 1278.74646
560.091675 651.130676
560.104248 5196.188477
560.116821 11440.737305
560.129395 18048.244141
560.141968 20005.095703
560.154541 14810.324219
560.167114 8823.413086
560.179688 3819.184814
560.192261 769.005676
561.10376 1531.191284
561.116394 2262.030762
561.128967 2764.393311
561.141602 2882.268311
561.154175 2552.664062
561.166809 1842.861938
562.077271 3860.290771
562.089905 16176.513672
562.102539 28671.064453
562.115173 34980.5
562.127808 25999.71875
562.140442 15197.859375
562.153137 6707.810059
562.165771 3792.230713
562.178406 1156.10376
563.088318 467.956512
563.101013 4826.407715
563.113647 9086.981445
563.126343 12037.711914
563.139038 9380.067383
563.151733 5523.253906
563.164368 1329.454834
570.098511 1924.937744
570.11145 3366.245117
570.124329 4332.102539
570.137268 4199.860352
570.150146 3067.214111
570.163086 1620.260498
576.097656 1594.59314
576.110779 3586.524414
576.123901 6600.816895
576.137024 8380.84375
576.150085 4272.477539
576.163208 2368.09668
576.176331 782.391663
580.081299 4587.60791
580.094543 35798.914062
580.107788 69837.625
580.121033 99993.023438
580.134277 86130.640625
580.147522 54118.238281
580.160828 26062.535156
580.174072 12708.24707
580.187317 7225.751465
580.200562 3510.435547
580.213806 1087.812622
581.088562 4159.683594
581.101868 15664.655273
581.115112 27278.154297
581.128418 32340.820312
581.141724 23629.792969
581.155029 13641.880859
581.168274 5836.251465
581.18158 3136.805908
581.194885 1298.182617
586.074768 3672.270996
586.088257 11765.301758
586.101685 20221.900391
586.115173 22730.585938
586.128601 16201.489258
586.14209 9350.475586
586.155579 4360.891113
586.169006 598.384155
587.099548 3085.396484
587.113037 7267.260742
587.126526 11447.334961
587.140015 11416.380859
587.153564 8132.263184
587.167053 2401.478271
587.180542 849.41687
588.085815 2754.400146
588.099365 6198.869141
588.112854 9819.775391
588.126404 9288.836914
588.139954 4418.715332
588.153442 3170.893311
588.166992 2119.07373
588.180542 1255.541992
598.114319 1140.206421
598.128174 2283.382568
598.142029 3225.457031
598.155945 3306.938721
598.1698 2406.77417
598.183716 1145.63916
601.136536 1461.704468
601.150513 2578.027588
601.16449 2929.548828
601.178528 2152.031494
601.192505 837.507874
604.085327 17792.037109
604.099426 52372.160156
604.113525 88796.015625
604.127625 100407.507812
604.141663 71551.65625
604.155762 40914.691406
604.169861 18083.742188
604.18396 9729.71875
604.198059 4685.92041
604.212097 1824.128906
605.085938 4441.052734
605.100037 18905.136719
605.114197 33351.925781
605.128296 41464.859375
605.142395 31410.136719
605.156555 18763.402344
605.170654 8206.606445
605.184753 3934.722168
605.198914 1071.431396
606.102112 1529.550537
606.116272 2834.19873
606.130432 3602.969727
606.144531 3286.409668
606.158691 2191.093994
606.172852 1046.322144
611.115112 1393.454224
611.129395 2776.824951
611.143738 3649.819824
611.158081 3364.887451
611.172424 2141.52832
611.186768 818.717224
614.06427 1817.817261
614.078674 12311.979492
614.09314 22865.615234
614.107544 31069.294922
614.122009 25583.314453
614.136414 16016.074219
614.150879 7686.211426
614.165283 3885.423828
614.179749 1039.063843
615.089355 1819.072998
615.103821 5756.916992
615.118286 9904.957031
615.132751 10753.972656
615.147217 7620.04248
615.161743 2315.869873
615.176208 664.28302
632.075195 11355.925781
632.090271 43514.9375
632.105347 75976.40625
632.120422 93065.625
632.135498 69785.710938
632.150574 41443.363281
632.165649 18483.451172
632.180725 9831.950195
632.195801 4734.822754
632.210876 1771.697998
633.072083 303.314423
633.087158 11853.033203
633.102295 25821.193359
633.117371 39430.132812
633.132507 35897.074219
633.147644 22735.615234
633.16272 10994.506836
633.177856 5138.379395
633.192932 3351.558838
633.208069 1674.575806
634.128296 1887.431396
634.143433 2509.125
634.158569 3018.287842
634.173706 3086.256104
634.188843 2476.318604
634.204041 1418.694214
639.110413 1348.002441
639.125732 2884.062988
639.141052 4241.359375
639.156372 4457.467285
639.171692 3328.783691
639.187012 1627.081299
657.138062 1606.844727
657.154053 2719.622559
657.170044 3247.369385
657.186035 2763.023682
657.201965 1555.753174
659.172058 1744.317627
659.18811 2830.846191
659.204163 3160.857666
659.220215 2529.864746
659.236267 1420.691772
685.133606 1136.062012
685.150574 2408.932861
685.167603 3490.205811
685.184631 3628.143555
685.201599 2696.981445
685.218628 1320.666016
686.138306 1129.766846
686.155334 2451.012451
686.172424 3665.710205
686.189453 3885.293213
686.206482 2902.008789
686.223572 1392.718384
687.162292 1838.055298
687.179382 3224.012939
687.196472 3893.227051
687.213562 3404.915771
687.230652 2146.193115
687.247742 906.115356
708.133667 1960.725952
708.15155 3685.051514
708.169434 4664.541016
708.187317 4131.15918
708.2052 2512.847656
708.223022 949.837585
726.129211 1362.772949
726.147766 3115.812988
726.166321 6162.022461
726.184875 7769.154297
726.20343 4144.46875
726.221985 2116.656982
726.24054 602.452454
727.132446 581.172302
727.151062 3820.528564
727.169678 7037.548828
727.188232 9240.75293
727.206848 7440.446289
727.225464 3174.074707
727.24408 1328.187622
744.145142 1298.308228
744.164368 2694.152588
744.183655 3933.909668
744.202881 4243.9375
744.222168 3447.544434
744.241394 2085.661377
744.260681 873.9646
751.145142 2042.60376
751.164673 2941.006836
751.184204 3118.177002
751.203735 2471.78418
751.223267 1492.812378
754.141724 1077.860596
754.161377 2248.540283
754.18103 3040.893066
754.200684 2857.105713
754.220337 1819.706177
768.143494 1217.68335
768.163696 2983.086914
768.183899 6178.183105
768.204102 7619.207031
768.224304 3884.933105
768.244507 2080.075684
771.18158 1795.660889
771.201843 2803.782227
771.222168 2943.890625
771.242493 2155.654785
771.262817 1023.754944
778.134827 1189.423828
778.155457 2247.929199
778.176025 2850.458252
778.196594 2503.672363
778.217224 1436.037476
786.185303 1795.244141
786.206238 2736.348633
786.227112 2877.574463
786.248047 2082.807617
786.268921 876.061829
795.129028 1302.366455
795.15033 8349.143555
795.17157 15193.857422
795.192871 19865.923828
795.214111 15212.242188
795.235413 8917.49707
795.256653 3612.794922
795.277954 767.943542
796.148193 354.135132
796.169495 3955.137939
796.190796 7516.449707
796.212097 9432.116211
796.233459 7095.354492
796.254761 2242.557129
796.276062 558.264221
799.139709 1146.976562
799.161133 2284.918945
799.182556 3334.70166
799.204041 3602.26123
799.225464 2831.900635
799.246887 1513.453491
813.125732 272.675415
813.147705 13181.064453
813.169739 30947.927734
813.191711 49768.414062
813.213684 50125.292969
813.235718 33479.449219
813.25769 17766.945312
813.279724 7633.154785
813.301697 4087.424072
813.32373 2249.084717
813.345703 1096.009277
814.141846 2152.076416
814.163879 10664.519531
814.185913 19375.226562
814.207947 25853.910156
814.22998 20536.673828
814.252014 12282.233398
814.274048 4917.860352
814.296143 2166.068604
815.169495 1102.578247
815.191589 2553.931641
815.213684 3747.256836
815.235779 3831.596191
815.257812 2738.365723
815.279907 1296.565552
847.141479 895.791138
847.164856 4475.520996
847.188232 8268.921875
847.211609 9769.429688
847.234985 6676.701172
847.258423 3421.167969
847.281799 886.310852
848.14801 872.368958
848.171448 2284.446777
848.194885 3823.160156
848.218323 4454.931641
848.24176 3841.615723
848.265198 2502.814697
848.288635 1210.734863
849.179871 811.273682
849.203308 2255.71875
849.226807 3983.97583
849.250244 4701.086426
849.273743 3794.647217
849.297241 1957.665894
850.213562 1183.368042
850.237061 2469.322021
850.26062 3378.636475
850.284119 3328.467773
850.307617 2420.910156
850.331177 1253.171265
865.151428 1245.346802
865.175598 2922.057617
865.199707 4445.016113
865.223877 4787.39209
865.247986 3764.268799
865.272156 2146.643311
866.166138 1259.448608
866.190308 2316.964844
866.214478 3418.005127
866.238647 4226.825684
866.262817 4427.515625
866.287048 3825.554199
866.311218 2565.588867
866.335388 1184.730347
867.186523 3742.000488
867.210754 11077.005859
867.234985 18938.029297
867.259216 20293.960938
867.283447 13933.810547
867.307678 7610.037109
867.331909 3388.683594
867.35614 988.211609
868.206055 5237.033691
868.230347 12820.525391
868.254578 21066.636719
868.27887 22099.675781
868.303101 15127.702148
868.327393 8338.727539
868.351685 3594.741455
868.375916 728.359436
869.220825 1179.816895
869.245117 2641.867432
869.26947 5513.041504
869.293762 8118.459961
869.318054 4739.356445
869.342407 2902.622803
869.366699 1142.517944
884.24054 2666.49707
884.265503 5964.558594
884.290405 8938.046875
884.315369 7713.397461
884.340332 2854.498779
884.365234 850.101196
894.200378 988.372375
894.225769 2542.320312
894.25116 5059.365723
894.276489 7212.806641
894.30188 4211.285645
894.327209 2292.18335
894.3526 729.895386
895.21582 2917.83667
895.241211 6919.905273
895.266602 10659.119141
895.292053 9726.891602
895.317444 6247.30127
895.342834 1591.687012
896.207458 1023.66687
896.23291 2241.945801
896.258362 3015.520508
896.283813 2809.075195
896.309265 1832.146362
912.202576 2671.638184
912.228699 7944.200684
912.254822 13579.958008
912.280945 14179.307617
912.307068 9398.048828
912.333252 4782.791504
912.359375 1050.214722
913.216492 992.096069
913.242676 5006.536621
913.26886 9088.161133
913.295044 11497.761719
913.321228 8840.446289
913.347412 5230.919434
913.373596 1091.087769
END IONS
