BEGIN IONS
PEPMASS=523.223
CHARGE=1
MSLEVEL=2
SOURCE_INSTRUMENT=LC-ESI-qTof
FILENAME=f.zengyi88516/140412_Maxis_Impact_lichen_microb/sample/140412_lichen_microb_L8BNYZA_BA3_01_17776.mzXML;
SEQ=*..*
IONMODE=Positive
ORGANISM=GNPS-LIBRARY
NAME=Asperphenamate analogue phenylalanine to tyrosine substitution M+H
PI=Pieter C Dorrestein
DATACOLLECTOR=negarg
SMILES=O=C(C1=CC=CC=C1)NC(CC2=CC=CC=C2)COC(C(CC3=CC=C(O)C=C3)NC(C4=CC=CC=C4)=O)=O
INCHI=ZUKWGQJERAFPPP-UHFFFAOYSA-N
INCHIAUX=
PUBMED=
SUBMITUSER=negarg
TAGS=
LIBRARYQUALITY=3
SPECTRUMID=CCMSLIB00000531510
SCANS=5585
45.221527 244.0
45.805614 228.0
46.370403 208.0
47.631165 208.0
47.649025 160.0
48.327366 164.0
50.939411 148.0
51.597466 204.0
53.94862 244.0
54.068558 172.0
54.651127 160.0
56.092133 180.0
56.223385 148.0
56.2607 180.0
58.247021 152.0
58.569492 172.0
59.348896 168.0
60.25853 180.0
60.485859 200.0
62.472393 156.0
62.973648 192.0
63.889862 144.0
65.183357 224.0
65.236397 140.0
66.394096 168.0
66.483322 172.0
67.199287 172.0
68.201508 172.0
68.6922 168.0
68.918381 192.0
69.383453 192.0
70.455223 220.0
70.791412 140.0
71.163658 160.0
71.498169 160.0
72.357346 188.0
72.648842 228.0
73.271057 168.0
73.513176 140.0
74.142502 200.0
74.963943 204.0
75.833237 184.0
76.249779 156.0
77.937881 192.0
78.624649 204.0
79.918236 156.0
80.383301 160.0
81.728996 208.0
82.12352 176.0
82.208313 184.0
82.57505 184.0
82.958923 248.0
83.082237 176.0
83.162079 168.0
83.867798 152.0
84.005684 212.0
84.280235 244.0
84.33506 168.0
84.801788 192.0
85.29921 144.0
85.626724 140.0
85.739105 228.0
87.66832 156.0
89.864113 196.0
93.438484 148.0
93.629051 256.0
94.11692 180.0
94.199966 148.0
94.468666 192.0
97.100212 176.0
97.581314 256.0
98.152306 180.0
101.340599 152.0
101.803757 200.0
102.258308 176.0
103.988396 176.0
104.42318 232.0
104.675247 144.0
104.734589 208.0
104.877121 168.0
104.952652 168.0
105.033699 6244.0
105.152565 164.0
105.307732 212.0
105.577507 164.0
106.039345 300.0
106.927437 156.0
109.446793 180.0
110.206024 212.0
111.297287 236.0
112.263145 208.0
112.966476 184.0
114.007523 144.0
114.426559 140.0
115.052795 148.0
115.525635 200.0
115.664726 160.0
116.076584 140.0
117.070999 2600.0
117.090401 148.0
117.107628 160.0
118.073814 324.0
119.821922 164.0
119.863319 220.0
120.085686 164.0
120.284241 224.0
121.852234 156.0
122.059761 976.0
122.171013 168.0
123.063377 320.0
123.755646 208.0
124.068031 168.0
124.093285 132.0
124.44297 152.0
124.47406 164.0
124.742889 148.0
125.687195 192.0
126.680275 216.0
127.386475 200.0
128.241531 144.0
128.568542 176.0
129.926178 176.0
129.973816 140.0
131.338821 220.0
131.838821 184.0
131.900528 232.0
133.544556 148.0
133.671082 156.0
134.096954 712.0
136.014587 156.0
137.312897 204.0
138.245041 164.0
140.290833 140.0
141.74437 160.0
142.358765 144.0
142.843613 140.0
145.277847 152.0
146.056137 172.0
146.097031 220.0
147.278198 176.0
147.899597 148.0
148.575684 144.0
148.684875 160.0
150.894226 188.0
151.126572 196.0
151.312592 172.0
151.824707 180.0
152.276276 232.0
152.612946 188.0
153.087845 204.0
153.578293 168.0
156.13179 164.0
157.829987 180.0
159.429291 172.0
159.728485 176.0
160.700912 140.0
163.02034 140.0
164.316376 160.0
164.576706 220.0
170.140656 160.0
170.616074 208.0
171.986267 164.0
172.406754 184.0
172.440735 172.0
173.107849 152.0
175.456833 164.0
175.820831 156.0
176.592285 156.0
176.669006 188.0
177.490036 188.0
177.62529 196.0
177.84819 200.0
179.529633 156.0
180.349258 164.0
180.485611 144.0
180.704926 240.0
181.441437 168.0
181.610382 140.0
182.206314 160.0
182.346039 144.0
183.002411 200.0
183.102036 192.0
183.765167 152.0
183.962173 176.0
186.073807 232.0
189.1297 200.0
189.387085 168.0
189.615631 144.0
190.215164 140.0
190.94603 156.0
191.141357 144.0
191.37532 192.0
191.827133 208.0
192.472717 180.0
193.440353 180.0
194.985306 200.0
198.08522 216.0
198.553284 160.0
199.716049 212.0
200.386047 184.0
201.232162 164.0
202.694489 156.0
203.074371 140.0
204.176331 148.0
204.850891 184.0
206.700974 160.0
206.96431 196.0
207.24501 156.0
207.396896 176.0
207.818451 184.0
211.066299 372.0
211.209213 236.0
212.782776 176.0
213.198135 156.0
214.32428 152.0
214.939529 164.0
215.310272 160.0
216.017593 152.0
216.248749 216.0
216.398041 156.0
216.491745 180.0
216.535675 188.0
218.164185 148.0
218.634796 176.0
220.040817 212.0
220.401154 176.0
222.210236 204.0
225.718964 248.0
226.299438 216.0
228.526474 172.0
229.011139 156.0
229.137665 152.0
230.47728 164.0
233.107468 200.0
233.271591 164.0
235.885178 188.0
236.061325 252.0
237.127319 196.0
237.368881 156.0
237.433273 200.0
237.555969 140.0
237.73085 272.0
237.973343 144.0
238.057892 180.0
238.122391 42792.0
238.202133 100.0
238.285889 152.0
238.337982 176.0
238.53862 164.0
238.594696 152.0
238.673889 116.0
238.754684 160.0
239.125244 10548.0
239.184586 320.0
239.447327 156.0
239.530289 192.0
239.87767 168.0
240.101685 6740.0
240.166672 160.0
240.692368 176.0
240.849655 168.0
241.104797 1152.0
241.478485 124.0
242.105301 144.0
242.204086 168.0
246.847946 156.0
247.48941 176.0
247.545776 140.0
247.815155 140.0
247.859024 140.0
251.257828 184.0
251.428223 160.0
253.385529 204.0
254.12001 212.0
255.118301 172.0
255.480835 188.0
255.999649 172.0
256.133606 16188.0
256.222626 244.0
256.270966 180.0
256.520691 148.0
256.784851 136.0
257.135864 4012.0
257.340118 120.0
258.139832 352.0
258.249634 220.0
259.140442 188.0
264.796234 152.0
268.097107 5792.0
269.098297 1292.0
270.108215 156.0
271.105103 116.0
272.122162 124.0
286.633545 144.0
286.798676 184.0
298.141754 160.0
312.77951 148.0
324.148987 204.0
341.065552 168.0
342.935364 164.0
347.049835 156.0
356.039368 172.0
364.501373 152.0
383.166718 132.0
389.092621 148.0
396.988098 144.0
444.686523 196.0
445.030762 148.0
459.216034 184.0
465.077759 208.0
468.190125 140.0
469.112579 148.0
479.232269 192.0
481.915588 140.0
483.19223 152.0
490.222015 188.0
502.272614 168.0
505.342255 124.0
506.330933 156.0
520.250549 184.0
521.145264 156.0
521.247009 112.0
521.33136 108.0
522.318909 100.0
523.22467 384.0
523.265686 136.0
523.329651 120.0
524.220215 124.0
524.265259 128.0
525.293152 276.0
525.324585 172.0
526.296692 184.0
545.4021 152.0
640.163513 144.0
681.327454 156.0
706.227722 164.0
825.30658 152.0
1088.010254 248.0
1334.638672 216.0
1336.733643 220.0
1478.942871 144.0
1481.163452 168.0
1510.638184 144.0
1527.673462 184.0
1561.181152 224.0
1619.724976 168.0
1627.134766 192.0
1714.288086 248.0
1732.722168 156.0
1746.635254 224.0
1760.80835 208.0
1761.831909 160.0
1783.821289 240.0
1803.123169 216.0
1806.564575 196.0
1808.688477 160.0
1809.120239 212.0
1813.440186 228.0
1823.293701 200.0
1868.984375 144.0
1901.789429 144.0
1912.776245 164.0
1930.356201 200.0
1932.718018 260.0
1948.491089 168.0
1963.84314 148.0
1980.93811 168.0
1981.009033 188.0
1981.717773 144.0
1997.440063 200.0
1998.667847 200.0
END IONS
