BEGIN IONS
PEPMASS=1113.0
CHARGE=1
MSLEVEL=2
SOURCE_INSTRUMENT=DI-ESI-Hybrid FT
FILENAME=Didemnin_B_FT_1113mz.mzXML
SEQ=*..*
IONMODE=Positive
ORGANISM=GNPS-LIBRARY
NAME=Didemnin B M+H
PI=Dorrestein/Moore
DATACOLLECTOR=Roland Kersten
SMILES=O=C(N1CCC[C@H]1C(=O)N(C)[C@@H](C(=O)N[C@@H]3C(=O)N[C@@H]([C@@H](O)CC(=O)O[C@H](C(=O)[C@@H](C(=O)N[C@H](C(=O)N2CCC[C@H]2C(=O)N(C)[C@H](C(=O)O[C@@H]3C)Cc4ccc(OC)cc4)CC(C)C)C)C(C)C)[C@@H](C)CC)CC(C)C)[C@@H](O)C
INCHI="InChI=1S/C57H89N7O15/c1-15-33(8)46-44(66)29-45(67)79-49(32(6)7)48(68)34(9)50(69)58-39(26-30(2)3)54(73)64-25-17-19-41(64)56(75)62(13)43(28-37-20-22-38(77-14)23-21-37)57(76)78-36(11)47(52(71)59-46)60-51(70)42(27-31(4)5)61(12)55(74)40-18-16-24-63(40)53(72)35(10)65/h20-23,30-36,39-44,46-47,49,65-66H,15-19,24-29H2,1-14H3,(H,58,69)(H,59,71)(H,60,70)/t33-,34-,35-,36+,39-,40-,41?,42+,43-,44-,46+,47-,49-/m0/s1"
INCHIAUX=N/A
PUBMED=22458477
SUBMITUSER=mcruesemann
TAGS=
LIBRARYQUALITY=3
SPECTRUMID=CCMSLIB00000075321
SCANS=46
305.062164 216.918839
306.244934 247.837875
306.517334 222.417923
306.983185 210.999908
307.300049 231.327438
307.451294 222.858185
307.561829 213.876404
307.565643 188.609955
308.37384 210.074875
308.615845 199.600845
309.526337 190.109177
311.097778 224.476608
311.858978 204.19548
312.066437 207.631668
312.19577 285.004211
312.381226 221.224579
312.771088 195.676819
312.997009 256.152252
313.037628 232.664673
314.459229 213.174561
314.971558 192.491486
315.565186 199.256317
317.000946 200.284103
317.084229 208.058624
318.425201 201.11554
318.441223 194.258469
319.071075 245.960907
319.760803 220.29184
320.012787 176.277237
320.150177 270.84552
320.203552 212.180527
321.089142 184.737625
321.475403 241.481445
322.721436 247.15979
322.78064 257.692352
323.134644 261.202026
323.696259 188.836914
323.709198 214.790695
324.300781 246.659134
326.305115 196.68721
326.423615 229.014755
327.629578 218.338379
328.125488 213.869476
328.305634 187.34079
329.312744 202.780853
329.60202 192.030823
330.019226 275.677551
330.47348 200.175873
330.654724 184.290543
330.84729 193.295929
331.452545 224.627869
331.747131 237.729065
332.02478 253.31424
333.280212 230.151413
334.115326 267.315125
334.804352 209.689453
334.853973 199.146179
336.506439 205.532623
338.800995 223.631561
339.375336 209.990387
339.40567 226.456512
339.763611 219.790329
340.170715 193.270538
341.339752 220.329727
341.706726 208.559982
342.085052 251.56308
342.988342 194.283478
344.591339 274.521179
345.157715 216.186249
345.370361 205.126404
345.521423 194.528412
345.631744 219.267548
347.744965 209.676437
347.797028 259.919067
348.465393 234.290054
348.58905 252.210648
349.034241 223.088409
351.667603 242.10614
351.869324 222.223572
353.070435 213.1884
353.555725 188.777466
353.923828 274.272827
354.419189 186.899139
354.715332 245.024231
355.391327 270.212585
356.281708 228.403534
356.298889 206.608719
357.538727 244.152588
358.105988 199.924911
358.221985 236.602112
358.853058 240.186783
358.938507 243.221283
359.109802 200.903732
359.77951 210.756271
359.905121 183.747528
360.707733 289.4086
360.973938 231.629807
361.299072 203.47438
361.717773 207.729782
362.286499 257.716919
362.465729 201.845215
363.722504 212.891861
364.014832 207.392456
364.425598 188.110153
365.085541 206.762619
365.329071 181.303528
365.421722 228.459274
365.662598 218.214645
366.712402 202.826767
366.97876 250.106262
367.769379 206.744263
368.369476 196.385666
368.421875 276.890808
370.149414 253.036301
370.639832 183.937607
370.927155 189.931717
371.045258 175.977158
371.107422 245.968231
371.191559 168.564011
371.19339 169.040298
372.858185 212.447174
372.929321 220.537903
373.571106 210.763901
373.730865 208.866089
373.993378 178.323837
374.28476 210.29274
374.615173 326.548645
374.931213 248.254211
375.621857 208.833679
375.681488 336.666351
376.222473 223.730515
376.292542 228.292633
376.548676 230.456131
377.865479 183.019699
379.47406 303.741943
379.619659 250.238205
379.64032 247.678024
380.299927 200.882294
380.447876 221.390015
381.09259 191.011963
381.188049 206.419205
381.501434 221.178589
382.108063 227.240311
383.072266 170.864853
383.243469 210.670227
383.583435 242.343872
384.154877 210.309921
384.196869 209.392853
386.237488 183.565048
386.545898 240.305054
386.706207 215.543808
387.265778 244.187378
387.615814 228.464081
387.723175 214.007187
389.390564 207.797302
390.028748 268.464355
390.064758 221.572006
390.178894 219.863968
391.440521 194.976791
392.755859 219.471649
393.306763 189.207687
394.279297 239.037399
394.384155 223.808578
394.470734 215.298508
394.597198 200.475388
394.97525 230.781677
396.797302 220.981873
397.286041 180.580627
397.470032 180.40834
398.575623 214.185059
398.844055 269.101624
399.288513 206.526443
399.491119 187.023499
401.024414 192.370834
401.088348 231.525879
401.957031 272.521332
402.436676 251.187866
402.467926 261.477783
402.856903 237.153931
404.469269 184.779419
404.612061 233.179688
404.985748 290.531677
405.529907 215.069107
406.130249 223.081573
406.481567 221.456589
406.93869 204.399124
407.925201 235.98056
408.017151 172.967194
408.02182 201.218109
408.10672 221.329391
408.94809 208.9142
410.616852 231.916779
410.952972 229.351654
411.153992 220.017151
411.41684 179.942902
412.014679 208.838272
412.356628 210.517914
412.423737 223.166901
413.24646 223.893539
413.639099 174.521729
413.86908 197.58226
414.016724 190.276367
414.143616 219.383469
414.55954 289.896667
415.380219 275.668793
416.212891 281.398071
417.473694 216.554977
419.415527 272.48526
419.528839 203.77507
419.644836 233.60051
419.695984 257.514496
420.569977 187.7883
420.7771 250.155884
422.039337 268.639496
422.622589 186.887436
424.022247 193.23616
425.607635 242.120987
426.150391 263.097076
426.3013 192.582291
428.613831 185.758255
429.614532 200.068008
430.289062 185.703796
430.419373 181.298782
430.629669 244.614166
432.642365 288.054077
432.959717 210.873413
433.396759 188.989105
433.98526 201.467331
434.06012 305.311859
435.3508 220.766357
435.774445 198.441345
436.429504 196.545242
439.228668 196.795578
439.960022 192.820374
440.531128 261.352051
440.983521 213.854187
440.99411 273.050934
441.341125 242.084076
441.867279 248.1241
441.909485 243.957748
442.660828 213.140411
443.747223 209.462311
444.50827 226.592545
444.80838 225.649017
445.154022 240.396927
445.756378 243.458893
447.154755 200.234558
447.171814 238.155151
447.188751 245.378876
447.316895 211.86705
447.589172 243.073959
447.629364 208.811295
448.02948 279.494446
448.578705 190.888947
449.080872 200.865616
449.257446 269.835846
449.653198 240.214386
450.786682 257.036591
451.594879 213.459702
453.657928 239.566116
454.687225 186.167999
455.196625 225.395737
455.242401 178.266632
455.245514 176.024811
456.44577 201.356094
456.917664 239.604889
458.535156 220.433151
458.842621 263.488495
463.463165 208.281799
464.666168 279.466522
467.966522 213.014023
468.888214 187.847351
472.95932 190.452103
473.09729 231.609604
473.573273 207.749695
475.498291 195.844772
476.125092 198.160751
476.681183 220.688141
478.318298 270.45752
478.852692 253.172745
479.67746 211.727859
479.873138 224.854294
480.745819 289.281677
481.167999 245.50209
482.12851 244.680313
482.949219 216.973801
483.054718 233.102066
483.144318 257.326721
485.198181 216.518677
485.650818 217.005234
487.124664 213.715469
487.5065 200.255783
487.628937 198.492371
487.795746 193.8535
487.801453 207.308823
487.862488 261.697906
487.927582 218.033401
491.887115 231.357559
492.558014 197.114243
493.477509 251.143631
494.417542 206.286102
495.590057 223.401703
496.457916 204.565781
496.963623 228.688934
498.646729 274.330627
499.233765 209.522293
500.769073 233.73056
501.535217 243.974533
501.985931 262.51709
502.025604 205.662552
502.630249 215.269257
503.098236 208.901688
503.267639 215.007965
504.210114 219.493652
505.218231 206.866196
505.344543 218.535995
507.294983 239.804733
509.142548 210.548355
509.240082 181.243347
510.040222 192.090561
510.316681 641.231689
512.102905 215.79039
512.56366 238.026947
513.306458 190.239563
514.39978 297.583588
516.007385 248.35051
518.024353 189.419205
518.192444 183.993484
518.282837 204.092026
518.291016 235.344543
518.506226 255.51564
519.311096 259.647369
520.447144 270.578278
522.733154 252.004135
523.854187 204.237854
525.566956 241.343597
526.258789 292.311035
526.578613 275.532318
527.103882 238.27124
527.356934 229.160156
527.40979 201.650421
529.495972 294.156586
530.311035 253.468567
531.008789 213.071381
531.500488 208.604599
532.360413 199.454544
532.69043 236.855743
534.461609 230.174423
536.249756 369.633667
536.265137 187.019363
536.273682 498.667389
537.171753 243.382568
537.328552 489.905579
540.238953 236.736343
540.726379 181.001007
541.452881 214.610245
543.254395 190.164352
543.620361 210.513229
543.666809 218.087173
545.981384 231.531891
546.057129 194.237335
546.540955 240.487793
550.914062 222.034775
551.8172 206.669846
551.864075 223.381699
553.479797 321.003967
555.892883 281.19931
556.962341 273.778656
557.011963 237.68364
557.655212 280.483734
558.31665 333.654327
558.333984 204.394272
558.56958 217.645462
560.114258 295.440948
560.569336 292.666565
560.975342 228.031738
565.706604 284.503235
566.355225 223.334442
568.310181 238.461899
569.553162 360.940735
569.796387 410.286469
569.81189 280.468842
569.827881 552.747192
571.242065 238.207092
571.832458 242.397247
571.921936 227.97084
572.319397 190.625885
572.432251 199.599701
572.869385 214.682419
572.883484 548.947632
573.080078 307.690582
573.105042 574.484619
573.118164 549.103149
573.136536 490.119385
573.176636 478.660828
573.1875 1017.465393
573.207397 535.915649
573.218567 297.796051
573.232422 318.270294
573.269775 858.827148
573.301941 486.746338
573.374939 283.720032
573.384338 230.085449
574.459961 329.813263
574.475769 274.163147
574.486389 269.997406
574.512512 256.333496
577.180481 261.944214
577.358215 233.321548
578.708557 239.792145
579.554626 218.239914
579.592529 233.350128
579.80542 222.821274
579.821899 350.356262
579.850891 466.484985
579.882996 270.088104
580.668701 213.999435
581.55896 235.163651
582.644653 191.034607
582.99408 259.502075
583.008728 196.207886
583.602234 269.764008
583.68573 221.601898
583.699463 242.619675
583.967651 228.350632
584.341553 223.758972
584.410889 221.118744
584.51532 224.643555
584.583557 297.327148
584.802307 218.069
585.007141 258.476105
586.433655 200.250107
586.437195 212.834625
586.455688 225.894409
586.473511 375.213959
586.487915 343.46463
586.68042 195.876953
586.739746 213.566681
586.748108 195.37883
587.002686 194.42955
587.127747 183.921417
587.316589 208.900406
588.186218 199.819412
589.452942 215.023376
590.106873 255.626022
590.685242 242.913818
591.742065 280.026978
593.080139 217.405121
593.159729 220.749619
593.232056 323.312775
593.983704 223.821579
594.389282 201.102493
594.411011 375.821594
594.422607 480.864716
594.44519 241.19252
594.452698 259.091644
594.473267 304.68277
594.484375 619.592957
594.527771 443.678772
595.298218 281.770569
596.289917 282.314301
596.33136 267.71524
596.678406 239.972443
596.838074 187.068863
597.041687 285.615967
597.0979 271.050201
597.113403 254.710007
597.966003 260.731689
597.997925 238.0047
598.123657 267.907745
598.530884 280.337646
598.627747 295.966278
599.966614 230.480331
600.455688 299.150818
600.732605 202.207016
600.96521 211.254822
601.468018 246.09642
601.49231 241.13475
602.085815 191.846481
603.531738 226.393814
603.635193 219.253983
603.859131 253.027695
603.933838 250.816162
604.122559 218.959885
604.430481 381.939392
604.52832 195.345078
604.536072 209.593491
604.636719 231.435822
606.651794 214.922058
607.560791 225.682541
608.130066 218.185715
608.161377 242.515503
611.247498 239.016327
611.323853 225.287842
611.341431 380.300171
611.982361 212.302277
612.69104 217.328033
613.402527 249.060699
613.6427 244.164337
614.888306 210.801956
615.087524 233.316376
615.126648 259.134491
617.23761 264.581635
617.270996 668.596558
617.308899 306.211212
617.316895 241.579865
617.375549 338.608459
618.666992 263.46875
618.758423 222.205643
618.983459 224.028046
618.990723 208.37178
619.004395 186.592804
619.010376 292.022156
619.123047 232.924683
620.89624 215.613129
621.499878 227.298721
622.104858 272.546936
622.581604 355.633453
622.59668 230.136566
622.891113 515.388367
622.916382 190.919113
623.173462 198.644913
624.39679 263.055847
626.295044 255.043152
626.540161 266.952393
626.661255 206.568527
627.118958 422.634735
627.134705 530.998779
627.146973 476.096466
627.157349 369.013611
627.181702 461.254883
629.327515 419.783203
629.33551 371.866302
629.378235 1354.476074
629.413574 585.065735
629.439697 503.788177
629.460815 398.729645
629.473145 237.985931
629.496582 388.986725
630.566467 267.302246
630.798096 272.122253
630.822632 399.395782
630.837524 280.091309
631.164795 257.46936
631.174988 367.125671
631.251404 237.742599
631.46228 209.20932
632.102234 228.207413
632.781982 233.579056
633.403442 226.399857
634.434143 229.615662
634.609619 270.115021
635.384155 240.573059
635.694092 288.427063
635.99054 206.006622
636.507751 222.361816
636.649902 208.087128
637.416626 311.366241
637.548645 248.95224
637.599548 283.900848
637.633057 239.997086
637.916016 252.247772
638.13678 213.015152
638.390686 210.620728
639.642761 279.364777
639.723206 224.762695
640.103577 251.099136
640.532593 262.52298
640.957092 261.012207
641.621582 253.864685
642.104797 204.895706
642.227722 237.914047
642.837463 390.163116
642.848633 615.449768
642.884338 269.979187
643.189636 491.14444
643.911804 276.081451
644.184143 212.716187
644.81073 299.594818
645.949036 252.640488
646.705017 228.865402
646.95813 201.266922
647.059509 394.6203
647.166565 222.479462
648.455566 243.658417
650.759827 278.825745
651.680786 487.929077
653.020691 252.675858
654.2146 262.627289
655.847412 200.803009
659.025146 251.080399
659.427551 258.85202
659.43512 286.870514
659.688599 280.510101
659.71106 341.127136
659.72522 331.580475
660.038147 487.108093
660.069458 232.536682
660.07959 198.9879
661.607544 224.473053
663.142273 224.373611
663.490051 214.854187
663.720764 250.42804
663.757385 279.366699
664.481262 354.151459
665.152283 215.918091
666.539124 222.21698
666.750549 260.953552
667.332275 285.391022
668.210388 236.567459
668.223022 181.245087
668.657349 444.929932
671.069153 218.844437
673.149231 320.631317
673.180176 260.379059
673.197144 591.040466
673.632568 235.962921
674.431763 212.773972
674.749146 234.966507
677.256226 255.178925
677.682373 228.501099
678.253174 241.364807
679.356079 188.786301
683.181885 267.636932
684.96637 299.221375
685.246216 284.911316
685.961792 231.624878
686.858093 392.518005
686.893616 305.773346
686.906738 344.119049
687.19519 246.659836
687.21936 234.299408
688.374695 279.20462
688.669128 223.917419
688.691711 262.087433
688.723877 257.768738
689.110474 221.567368
691.236511 202.956924
691.308594 256.261932
694.033752 305.902069
694.507751 339.571045
694.655701 225.203964
696.398499 274.418488
696.523621 319.378296
696.540833 549.180298
696.559326 614.435608
696.575256 511.17215
696.929688 295.720642
696.950378 570.403442
696.963562 426.960144
698.721313 255.050613
700.007202 222.005905
701.527344 215.021561
701.881653 272.372772
701.967529 281.595612
703.478455 195.32103
703.569336 350.29129
705.463928 194.417709
706.740295 208.55217
707.10614 278.334198
708.010376 217.666092
709.978638 241.543198
710.801941 274.771576
710.834839 404.208038
711.207214 276.252136
711.766235 212.737534
712.432556 259.756897
712.597717 217.254074
712.906128 243.713959
712.965576 213.193314
714.231689 300.000641
718.118591 207.187698
718.389099 217.36525
720.113831 270.714752
721.214783 357.987457
721.613281 225.628296
721.95459 255.917038
721.994202 590.456299
722.029968 1514.327881
722.065613 304.234467
726.965393 355.459351
726.988098 234.740112
727.537781 315.670532
729.640198 244.830185
731.279602 232.400803
731.416992 214.842941
732.33313 241.621002
733.230835 186.943649
733.437683 800.342651
733.784546 247.044357
734.425964 215.473602
736.69751 188.713257
737.175415 187.988449
738.681763 204.849106
740.35144 253.306595
741.99115 211.959671
742.461243 450.487488
742.498596 837.950012
742.53009 297.397186
743.35553 353.16687
743.374573 477.424866
745.790588 239.771729
745.955383 206.631332
747.258911 291.957123
747.906677 251.855362
747.989319 202.672485
749.90918 218.872192
751.174683 243.141541
751.8526 244.779358
752.472839 353.0914
753.122803 193.200455
753.563354 240.969559
753.78833 396.116974
753.813293 703.928528
753.836792 663.097473
753.858887 531.202881
754.262207 369.470581
755.071899 216.467163
758.281311 211.026093
759.988159 206.688492
760.067383 289.151337
760.087219 462.690613
760.485168 318.833252
760.68042 207.792465
761.835083 248.423004
764.234253 302.610107
764.331116 255.559357
764.397217 219.948349
764.443542 575.457764
765.491028 280.863129
765.511841 377.67749
765.542908 308.268494
765.997742 218.884918
767.515198 288.614532
767.669922 217.078186
767.727478 209.108505
768.147156 245.172821
769.803894 371.362183
769.927307 201.323425
770.829773 260.39035
771.956909 344.885956
772.205444 296.258026
773.05719 284.255188
776.40863 248.15625
777.092041 323.15863
777.368896 267.360565
778.495544 553.494446
779.25061 210.694321
779.829834 270.920532
780.134644 255.327866
780.453247 895.899902
780.712402 214.54541
782.848083 219.461868
785.227661 210.445129
785.432007 207.761871
785.878357 186.273376
786.412476 201.116119
788.325378 268.888153
788.448425 468.221802
788.480103 3506.323486
789.70636 277.576996
789.93042 262.958435
790.403992 256.615479
791.275818 275.464233
791.717224 250.862183
793.163818 219.088058
793.914124 238.685608
795.154663 203.910034
795.375671 340.023376
795.390686 286.41153
795.411926 388.617371
795.775452 211.276123
797.781067 219.308701
798.432983 2975.258057
798.463867 27250.136719
798.964661 284.740356
799.46759 1562.156006
799.664001 249.226196
800.278198 227.685379
801.809265 464.816956
801.827881 338.98584
801.848694 658.748718
801.875854 877.06897
801.898804 505.026794
802.314941 296.881958
803.474915 216.035049
806.095215 255.886185
806.457947 714.709106
806.489929 5683.612305
807.493286 341.184204
807.800232 215.942307
808.028564 229.447525
810.530884 228.336716
810.895813 318.314667
815.040405 204.969818
816.441895 1357.122559
816.473877 13619.884766
817.478699 736.682129
822.396545 332.329865
824.498779 262.556519
825.476074 380.449677
828.826477 219.178055
829.33252 274.41568
830.157104 228.781799
833.243347 230.212433
835.239624 272.971649
836.122742 195.181259
836.474854 233.797226
837.012146 281.768799
839.409973 246.433975
839.747253 260.065491
840.215332 270.519775
841.199341 218.906067
842.315979 339.512939
842.374756 265.772827
842.655762 189.024216
843.303955 269.703644
843.450562 500.9086
843.485168 3203.727295
843.552795 274.027618
851.734985 244.340683
852.505981 238.147583
854.508118 235.841095
858.531494 204.347488
858.546082 196.47644
859.983948 215.158813
860.863953 293.549774
861.458618 232.881226
861.496643 4142.863281
862.661926 235.765503
865.065613 285.785736
865.692017 351.751038
868.066711 329.397186
869.337158 252.622452
870.331726 242.223679
871.491943 324.541077
871.528381 394.568848
871.5672 388.869476
872.079224 609.688171
872.110657 1023.873108
872.135681 495.708069
872.145081 512.361023
872.727112 202.179413
873.643982 195.312851
874.541504 227.846207
876.639282 247.579514
877.230347 382.296661
879.183533 269.407227
879.245422 499.491486
879.268494 570.398376
879.292236 1091.900391
879.32959 417.54071
880.466064 213.012863
880.531616 256.50827
881.961243 251.753113
882.738892 238.327499
883.46698 271.028839
885.531921 699.346313
885.565552 278.350769
887.409973 189.31456
888.619873 204.374786
889.879517 242.727325
890.235413 236.816711
892.088074 245.325836
895.820374 210.975769
896.286865 221.430435
897.204407 268.247894
899.256042 254.907059
900.019775 288.972534
903.543213 2596.218262
905.513062 213.967667
906.003235 241.462997
911.069946 209.309189
911.124023 390.188293
911.15332 252.971985
911.443481 227.459747
912.603394 263.56601
916.709045 207.378662
916.844482 324.483459
917.507385 291.198914
918.509521 266.066254
919.516479 322.881927
920.440002 252.194229
921.553101 1135.39624
924.747437 310.368683
924.845276 243.014725
926.715027 268.376434
928.218628 240.301941
932.108093 200.389832
933.736511 233.897293
935.57782 216.716751
939.566833 227.65741
939.852844 283.600952
940.734802 215.843201
941.376038 260.503937
943.530457 717.387756
943.573242 8912.795898
944.026245 360.722351
944.575684 920.872253
944.969238 240.768784
945.366211 281.753723
945.645081 242.820847
946.064453 293.598175
946.315796 201.575317
946.41687 231.01506
948.632629 216.403976
949.397522 202.394211
949.873962 186.108505
953.718811 690.854187
955.124084 650.910828
955.173218 1148.246826
955.220886 408.126434
955.82373 405.551849
955.86377 440.451263
955.905273 435.0737
956.035217 288.516479
956.56958 760.778748
957.710815 269.331085
958.130798 221.566696
962.895081 229.107346
964.517639 413.305389
964.538269 233.750839
970.231567 235.427002
971.239502 280.383881
972.091003 285.843506
972.654602 240.70993
973.245605 241.05571
973.392151 233.414612
977.218628 326.795807
977.941406 205.007339
981.654602 319.738373
982.208252 229.597107
982.486328 234.372116
983.571106 375.049896
983.911255 277.700623
985.367065 288.568573
986.029724 257.512115
986.583008 249.988113
987.125366 210.911591
987.597839 442.452087
992.516907 274.487488
993.746277 215.231079
994.376831 246.079208
995.683838 216.155487
998.579163 1347.680054
998.64624 313.15448
999.562195 2056.72583
1002.982971 279.828003
1003.247437 271.020203
1005.625488 220.541962
1007.199524 313.804443
1010.568787 209.709564
1015.594788 3339.577393
1016.40033 291.896027
1020.00647 274.417755
1022.833496 236.24823
1022.903931 324.906403
1022.947754 362.252625
1026.393799 239.531601
1027.944702 257.227997
1027.974976 212.617294
1028.249756 243.445938
1028.296753 273.866364
1028.844116 312.25531
1031.309448 183.32872
1031.496094 270.874084
1031.717773 319.035858
1032.414062 254.372665
1033.879761 248.039612
1038.760986 352.493683
1039.146118 206.387375
1040.624878 888.440186
1041.046631 220.561966
1042.092285 224.153412
1042.912964 237.961304
1045.096313 311.183746
1049.519287 265.112152
1050.611084 692.89447
1051.498169 289.494537
1052.141846 288.356873
1056.577271 241.862732
1059.200195 243.813736
1059.256714 249.460876
1061.037354 239.385788
1062.343262 267.554474
1064.82666 298.57309
1066.654663 270.220062
1068.658203 1867.004883
1068.989258 222.494827
1069.658569 218.28067
1073.375732 243.013336
1074.441284 236.642685
1075.141602 213.055481
1075.216309 251.802261
1076.57019 358.229431
1076.626099 4982.171387
1077.626099 803.286194
1078.087402 273.848663
1080.080322 319.408173
1084.534912 562.757874
1084.595093 5372.269531
1084.651855 59258.824219
1085.604736 507.958466
1085.654907 7006.086914
1090.224365 292.382965
1090.358887 286.799225
1090.612549 239.803085
1094.539185 222.443222
1094.582153 2926.772217
1094.635742 31128.804688
1095.639404 2831.958252
1096.621216 218.351013
1097.2771 295.079041
1098.590332 208.80986
1099.333984 243.073563
1101.08728 222.978745
1102.489136 345.06546
1106.047974 280.692902
1106.689087 214.802811
1107.515625 226.151306
1110.370483 282.882843
1110.699219 231.654877
1111.959717 216.738525
1112.678711 219.092453
1112.89978 233.814514
1113.860474 257.478363
1115.28833 252.245255
1115.341919 241.36972
1116.743774 241.663666
1116.824341 213.757278
1120.719849 255.732559
1126.099243 290.032379
1129.28418 294.642181
1130.765869 234.105011
1133.299927 203.859207
1133.335693 247.369644
1133.775635 280.182556
1140.858765 262.859161
1144.778198 220.924698
1149.376221 200.525085
1149.729004 278.099335
1150.442749 269.623535
1151.203857 256.244781
1152.84314 222.278198
1159.718262 289.553345
1160.150513 228.743652
1163.654663 214.39209
1165.414429 258.86795
1166.600464 240.70755
1167.256104 220.153656
1169.525635 230.148819
1172.668701 266.777039
1174.803833 240.8535
1180.228149 335.986145
1183.26416 337.598297
1184.252686 290.817932
1186.373779 253.422745
1187.283691 251.212311
1188.042969 278.026001
1188.708984 291.995239
1189.354248 224.54834
1190.0896 262.095886
1192.997192 361.935913
1193.077271 462.276978
1193.288574 278.723175
1194.140625 263.054871
1194.181885 208.883179
1194.824463 241.968079
1208.682861 297.100586
1211.459717 254.03772
1213.720581 198.899216
1213.853394 250.574265
1214.389893 224.162155
1217.683105 238.303085
1218.621948 232.511536
1220.683594 241.525909
1222.089355 247.753372
1222.598145 245.573166
1223.823853 290.415771
1224.804565 293.238342
1225.730713 233.054199
1228.845459 207.693726
1229.874023 251.500443
1229.973267 250.341751
1230.403687 223.591599
1233.022095 265.215057
1233.716064 241.238052
1239.062134 650.50177
1239.124878 431.39093
1239.188477 487.496277
1240.173462 269.399078
1246.572632 237.712723
1247.224243 352.357605
1249.471191 247.569016
1254.37085 313.495697
1254.986084 209.558884
1257.765015 291.021484
1257.858887 252.609436
1259.304321 218.519913
1260.232422 245.452255
1260.371704 229.408447
1261.360962 239.548767
1263.141602 218.960205
1263.462402 233.262054
1267.421753 275.465057
1267.540649 496.404724
1272.262085 220.896698
1274.132446 234.967575
1279.692139 315.852386
1283.776733 251.806824
1286.318604 313.161682
1290.031372 262.403442
1290.162598 249.636353
1292.901001 279.941498
1294.080688 282.439819
1294.28418 238.220703
1295.267456 263.824493
1295.727905 252.028763
1297.229614 281.679169
1298.171875 210.054459
1298.369385 260.49823
1301.521973 232.041855
1308.331055 273.399658
1314.087158 296.6492
1315.687866 285.91922
1317.415283 278.076843
1319.54248 403.100525
1319.591675 755.123047
1323.508667 300.088043
1331.558716 238.207581
1334.047363 202.02449
1334.219482 354.308319
1340.486816 254.119293
1340.924072 290.766205
1341.337402 271.851288
1342.612061 259.839508
1344.267456 225.882355
1345.044434 320.273682
1345.156006 263.187439
1347.170044 232.205429
1347.204956 253.826202
1348.333862 292.130554
1351.014893 243.308701
1355.407715 315.021149
1361.57312 303.257446
1361.731812 263.418427
1364.206177 243.078949
1367.351074 240.517014
1368.248169 343.354248
1368.345459 263.019501
1369.588135 231.718582
1369.642578 248.176254
1370.542847 251.900345
1371.412231 283.184662
1372.088623 385.903809
1372.746216 366.428833
1372.933716 264.878662
1374.463135 332.707855
1377.27832 226.755371
1378.161133 275.132874
1379.166504 392.032349
1379.880493 252.05574
1382.070068 236.074524
1382.563477 206.438522
1383.326538 291.670654
1396.832031 272.406799
1398.585938 222.210953
1398.707642 257.882904
1398.742554 236.320541
1404.803833 226.790192
1408.058594 206.645508
1408.1073 213.204346
1410.555298 252.429626
1411.724243 247.792709
1412.162842 385.63266
1412.229004 1133.761719
1412.310913 626.713989
1412.36792 344.835876
1412.579102 325.304077
1412.699463 313.003021
1415.755981 225.758316
1415.86377 219.115967
1416.678711 302.320557
1417.388306 292.294647
1422.973633 294.185364
1433.483032 337.475525
1433.904785 252.71669
1435.101074 205.216675
1436.721558 276.460632
1437.277954 262.02829
1443.761475 346.671356
1448.430786 321.000183
1451.076294 280.067444
1451.475342 301.654083
1451.554932 267.6745
1452.139038 294.7276
1452.626465 480.214264
1453.814575 365.023743
1457.427246 290.024109
1459.656128 274.85498
1460.531128 250.739792
1462.350952 340.307678
1463.135742 253.702942
1473.877563 285.840942
1476.043091 299.930298
1476.127197 558.730652
1476.599121 232.793411
1483.573853 230.90593
1488.975586 211.684174
1492.261963 284.19812
1493.254639 336.230225
1493.601196 266.816254
1493.688599 249.647446
1495.512817 232.613846
1500.899414 300.270172
1502.32959 213.416595
1502.869385 267.204865
1503.530273 286.190887
1503.803467 239.983536
1503.965698 289.954926
1504.741943 279.39267
1508.523438 270.559113
1509.387817 297.353027
1514.078613 276.024567
1514.32959 219.866592
1515.612671 247.37616
1517.256592 248.248047
1518.038696 220.654572
1519.145508 241.926117
1519.181519 244.687775
1519.257446 318.637665
1520.911865 351.250916
1520.989502 651.455505
1521.084717 373.554321
1521.575806 252.091095
1524.263062 288.358154
1525.627563 266.076202
1528.45105 503.16275
1534.858154 235.456238
1535.240112 235.500092
1537.611816 318.283081
1538.211426 267.254852
1539.440796 252.228775
1540.157104 234.60025
1553.955322 257.497253
1556.442627 385.627808
1559.163696 241.457336
1561.204468 293.843231
1563.382935 325.980133
1563.612671 260.125458
1565.473877 220.032043
1568.400757 224.591583
1568.579468 266.816711
1570.517578 273.145172
1571.907837 245.254745
1576.479736 212.516113
1578.062256 228.83934
1581.94812 213.525742
1583.636841 247.7612
1584.798218 259.730957
1587.821289 270.47699
1588.807373 218.45134
1589.484009 428.901215
1589.557373 219.409332
1590.749634 415.692108
1591.044678 290.893127
1591.344971 417.87262
1592.466675 2115.226562
1592.608154 302.837982
1596.248657 249.801208
1598.891357 252.499084
1599.30188 252.931732
1600.794922 237.673569
1602.070312 276.600677
1603.954712 248.423767
1604.720459 292.980591
1604.837646 391.994904
1604.975342 364.051483
1605.017822 453.833282
1606.05542 290.548706
1606.243652 211.124832
1609.525635 329.228088
1611.974976 413.015198
1616.673462 250.304184
1616.781128 314.434143
1618.781372 457.956543
1626.589966 276.989319
1633.651489 231.281174
1635.896851 269.232361
1639.40918 310.420837
1642.772949 250.499786
1645.026489 264.9599
1648.659302 212.572174
1652.295166 356.550659
1656.227417 314.606171
1656.942505 245.591553
1660.664551 252.042709
1673.046143 375.345673
1674.829224 283.661255
1675.624146 232.470352
1679.128906 228.855042
1679.707031 264.630157
1681.793335 390.743988
1682.586304 257.790039
1683.001831 316.218048
1685.10498 242.251602
1692.638184 286.366852
1696.081055 324.949982
1702.264282 344.084229
1702.487427 324.907623
1703.442017 252.298218
1704.941895 313.271545
1713.087524 294.7659
1719.484619 228.596786
1727.585571 353.530426
1727.707397 691.398682
1727.831787 383.226379
1735.765869 291.584564
1740.266968 240.484421
1745.452759 203.921463
1745.502075 203.041382
1750.216431 244.855026
1752.660156 227.771774
1753.525269 405.729431
1754.036987 279.120178
1758.452515 853.672974
1758.574829 359.376007
1760.133911 215.82843
1762.766357 304.896973
1763.925415 320.608459
1765.416382 254.32634
1768.155029 435.888519
1769.882935 294.883301
1771.260864 269.70816
1776.328857 239.801819
1779.697876 203.672745
1779.768555 240.66864
1780.047729 251.676712
1787.207764 248.982895
1787.58252 305.793457
1789.853271 250.962677
1795.009766 370.044922
1795.833496 318.416534
1798.509399 265.446808
1798.930298 527.191833
1800.334839 253.396027
1802.687988 201.761337
1804.030396 267.032471
1815.911011 277.852234
1817.173218 298.97937
1817.509155 243.998871
1818.616821 373.90506
1818.769653 258.004211
1822.748291 437.630707
1823.148071 272.476685
1826.866333 607.174438
1827.620972 285.759674
1827.869873 252.439911
1828.088501 288.067841
1832.318115 435.059448
1834.837158 383.431152
1836.357544 287.497498
1840.063843 292.010651
1841.359375 259.191559
1852.217285 244.52948
1853.064087 332.899536
1856.716797 310.385742
1861.727417 285.432037
1862.385498 299.160858
1862.87439 316.502686
1866.304077 245.166153
1874.995605 267.671814
1877.601929 240.167679
1890.577026 280.3414
1891.127319 260.337372
1891.535645 232.04071
1894.504028 256.213806
1895.778076 230.693573
1897.470947 269.721649
1902.70874 281.265778
1903.954956 231.676773
1904.20105 229.414459
1906.407715 309.100067
1906.974609 276.408783
1912.289429 210.723434
1917.796631 330.87326
1920.546265 301.881439
1922.836548 229.928528
1926.110718 263.150421
1926.354736 265.111145
1926.508057 228.20993
1927.097412 260.840454
1927.230469 284.486115
1927.638916 323.129181
1931.677246 209.384262
1932.12085 255.272659
1934.121704 245.512543
1934.793701 257.811584
1939.294312 297.605438
1944.397217 276.199768
1955.179199 313.467468
1956.876953 240.565918
1956.952026 247.290695
1966.289673 262.801605
1966.604614 314.266113
1973.297974 265.629059
1974.981934 333.870239
1976.336792 256.596008
1979.508057 295.33194
1982.218994 273.140594
1988.832886 262.161072
1990.990356 231.648422
1997.549683 266.361389
1998.247559 225.306213
END IONS
