BEGIN IONS
PEPMASS=831.432
CHARGE=0
MSLEVEL=2
SOURCE_INSTRUMENT=LC-ESI-qTof
FILENAME=f.mice/SC_-Fe_Anionenaustauscher_Masterarbeit/140121_Probe_12.mzXML;
SEQ=*..*
IONMODE=Positive
ORGANISM=GNPS-LIBRARY
NAME=Tunicamycin A M+H
PI=Bandow
DATACOLLECTOR=Senges
SMILES=CC(C)CCCCCCCCCC=CC(=O)NC1C(C(C(OC1OC2C(C(C(C(O2)CO)O)O)NC(=O)C)CC(C3C(C(C(O3)N4C=CC(=O)NC4=O)O)O)O)O)O
INCHI=1S/C38H62N4O16/c1-19(2)13-11-9-7-5-4-6-8-10-12-14-24(46)40-27-31(51)28(48)22(55-37(27)58-36-26(39-20(3)44)30(50)29(49)23(18-43)56-36)17-21(45)34-32(52)33(53)35(57-34)42-16-15-25(47)41-38(42)54/h12,14-16,19,21-23,26-37,43,45,48-53H,4-11,13,17-18H2,1-3H3,(H,39,44)(H,40,46)(H,41,47,54)/b14-12+/t21-,22-,23-,26-,27-,28+,29-,30-,31-,32+,33-,34-,35-,36-,37+/m1/s1
INCHIAUX=
PUBMED=
SUBMITUSER=mice
TAGS=
LIBRARYQUALITY=3
SPECTRUMID=CCMSLIB00003739964
SCANS=2485
34.482494 17.0
40.418892 15.0
40.471642 17.0
61.045933 46.0
63.34557 10.0
71.061539 22.0
83.062546 30.0
84.056183 32.0
85.035591 20.0
92.738503 24.0
96.050903 92.0
97.03746 36.0
98.04203 26.0
98.06797 71.0
105.873688 7.0
108.049858 17.0
110.573853 13.0
111.130013 34.0
113.043434 27.0
114.057549 25.0
115.676407 17.0
121.033302 25.0
123.87867 21.0
126.06012 558.0
126.388725 36.0
127.04232 19.0
130.05661 35.0
138.057129 1526.0
138.098175 12.0
138.231583 7.0
138.873917 20.0
139.043747 56.0
139.064331 102.0
139.564148 6.0
140.064865 13.0
140.080353 29.0
141.04306 56.0
141.577576 9.0
143.579254 12.0
143.950897 30.0
144.071411 394.0
145.07399 68.0
150.556549 9.0
156.06987 58.0
157.16803 5.0
157.173492 5.0
162.694244 14.0
163.145584 36.0
163.245987 6.0
163.285019 39.0
165.613922 7.0
165.804977 10.0
167.552185 10.0
168.044174 37.0
168.066818 2014.0
168.10643 34.0
168.140396 31.0
168.185684 69.0
168.332932 8.0
168.757996 28.0
169.070053 199.0
169.177917 10.0
170.064896 27.0
172.217972 27.0
172.774139 11.0
177.052383 28.0
178.764313 17.0
180.074158 32.0
185.980072 12.0
186.075348 3150.0
186.11705 93.0
186.218292 25.0
186.289795 15.0
187.047287 23.0
187.083115 302.0
187.10701 16.0
188.081635 35.0
188.72879 18.0
188.794785 32.0
202.812164 11.0
203.776962 7.0
204.088669 6885.0
204.13858 21.0
204.207184 10.0
204.400635 10.0
204.800278 6.0
205.087769 537.0
206.089294 84.0
207.891891 9.0
211.558731 7.0
214.272385 11.0
216.335037 6.0
222.074524 67.0
222.094025 72.0
223.194901 33.0
238.575806 8.0
240.061584 74.0
240.075119 136.0
240.223953 76.0
241.084045 62.0
242.244537 26.0
243.060593 12.0
245.045212 7.0
253.189407 12.0
253.29361 23.0
258.068268 26.0
261.043365 37.0
265.925751 54.0
269.074524 20.0
287.075287 16.0
294.235046 23.0
296.69635 13.0
306.109283 11.0
306.231506 713.0
307.233093 152.0
308.251678 427.0
308.366638 11.0
308.443298 53.0
308.512329 25.0
308.612 34.0
309.095337 24.0
309.22583 12.0
309.241211 31.0
310.255371 38.0
312.234772 26.0
315.614899 14.0
319.231567 13.0
332.239227 34.0
334.263458 17.0
336.109741 16.0
342.211853 17.0
343.926117 24.0
347.937195 8.0
349.845276 10.0
349.853455 10.0
351.38205 11.0
351.815918 14.0
352.09436 2964.0
352.41391 15.0
353.102661 517.0
353.20932 9.0
354.104187 23.0
359.356445 8.0
360.234222 114.0
361.237488 16.0
362.250488 77.0
362.366791 25.0
363.24823 54.0
365.932343 19.0
371.086243 13.0
372.736359 8.0
377.047211 8.0
377.055695 8.0
378.243408 224.0
379.237427 65.0
380.241272 74.0
380.258301 60.0
381.254974 33.0
381.954254 38.0
387.245178 10.0
388.061737 8.0
394.330322 13.0
398.267151 86.0
399.950378 31.0
401.226074 22.0
404.257355 19.0
409.88562 11.0
410.637238 19.0
411.672913 14.0
419.459808 17.0
421.249878 13.0
426.246399 16.0
427.247437 17.0
428.231598 13.0
428.240601 13.0
436.282196 11.0
443.920166 20.0
444.150146 17.0
444.251373 75.0
444.39859 11.0
444.472229 13.0
444.527435 16.0
445.245667 26.0
446.259552 28.0
446.296448 19.0
451.123596 13.0
453.993256 27.0
455.389587 9.0
462.215698 34.0
462.253235 671.0
462.30957 7.0
462.337738 16.0
462.347107 16.0
463.258087 204.0
463.615204 6.0
463.624603 6.0
464.179382 11.0
464.264008 183.0
464.461609 9.0
465.271057 77.0
468.421509 8.0
469.527618 92.0
471.184509 15.0
475.068237 34.0
475.639343 32.0
475.944031 11.0
478.394836 11.0
480.239471 34.0
480.268188 78.0
481.263702 42.0
482.241028 15.0
482.279358 25.0
482.308136 12.0
483.28656 37.0
490.134186 17.0
490.965759 13.0
491.875458 22.0
492.146576 23.0
493.842865 9.0
494.06601 8.0
495.396301 11.0
497.633636 14.0
498.159668 14.0
498.198669 16.0
498.23761 44.0
498.257111 106.0
498.276581 125.0
498.432556 19.0
499.115021 14.0
499.22229 39.0
499.271088 94.0
499.934601 11.0
500.286041 500.0
501.282532 127.0
503.219696 13.0
512.892334 26.0
513.752808 15.0
518.274841 51.0
518.980713 34.0
518.990662 34.0
519.010559 5.0
521.48999 8.0
529.2146 19.0
531.55719 7.0
537.917053 8.0
538.241089 8.0
538.271484 10.0
540.258545 9.0
541.161987 8.0
541.253357 27.0
541.294006 18.0
542.483032 18.0
547.824097 11.0
548.202209 26.0
549.265747 15.0
555.46283 7.0
555.473145 7.0
556.265686 93.0
557.223633 25.0
557.264832 51.0
558.275269 75.0
559.286621 22.0
559.544739 19.0
560.267761 7.0
561.084473 21.0
561.156799 17.0
563.589722 15.0
569.523071 8.0
572.673645 26.0
573.812988 12.0
573.948975 11.0
574.210449 31.0
574.262756 2123.0
574.45105 29.0
574.534729 7.0
574.618469 13.0
574.953369 14.0
575.131409 24.0
575.267517 758.0
575.382629 13.0
575.613098 19.0
575.717834 35.0
575.791138 13.0
575.969238 8.0
576.011169 43.0
576.210205 18.0
576.283569 2469.0
576.335999 36.0
576.37793 29.0
576.430298 22.0
576.524658 15.0
576.545654 7.0
576.577087 8.0
576.618958 8.0
576.650452 28.0
576.692383 8.0
576.839172 17.0
576.891602 7.0
576.912598 8.0
577.279602 937.0
577.374023 13.0
577.499878 7.0
577.825195 21.0
577.846191 47.0
578.045532 7.0
578.255493 20.0
578.286987 165.0
578.507446 16.0
578.812012 16.0
578.843506 19.0
579.915344 18.0
581.524902 30.0
584.613586 8.0
584.983093 36.0
588.790405 11.0
589.500366 14.0
590.019836 42.0
590.889709 26.0
591.261169 33.0
592.227539 42.0
592.270081 45.0
592.291321 29.0
592.695129 10.0
592.812012 25.0
593.301086 41.0
594.141418 15.0
594.290405 66.0
594.311646 28.0
594.545837 25.0
595.30188 25.0
595.504272 12.0
595.951782 8.0
598.683167 25.0
600.008423 10.0
600.286499 14.0
602.89917 7.0
603.317261 12.0
603.789185 11.0
603.853577 16.0
604.314941 14.0
604.980469 10.0
605.334839 8.0
605.614197 10.0
606.000977 18.0
606.194397 11.0
606.764221 8.0
607.065369 8.0
607.355835 13.0
607.732422 6.0
607.786255 18.0
607.85083 11.0
607.958435 24.0
608.335327 7.0
608.63678 18.0
608.841431 10.0
608.949158 11.0
609.089233 10.0
609.164673 32.0
609.369385 11.0
609.380127 11.0
609.423279 9.0
609.434021 9.0
609.660339 21.0
609.692688 13.0
609.908325 12.0
609.973022 21.0
610.005371 16.0
610.026978 29.0
610.091675 54.0
610.156311 36.0
610.285706 23386.0
610.350464 135.0
610.404419 56.0
610.425964 45.0
610.469116 71.0
610.512268 71.0
610.555359 91.0
610.598511 10.0
610.641663 43.0
610.695618 30.0
610.760376 11.0
610.900635 12.0
610.95459 30.0
610.986938 8.0
611.019287 11.0
611.073242 73.0
611.148804 25.0
611.192017 13.0
611.289124 7978.0
611.397095 66.0
611.429443 10.0
611.450989 13.0
611.515808 35.0
611.55896 32.0
611.645386 45.0
611.666992 40.0
611.742554 16.0
611.79657 7.0
611.828979 7.0
611.90448 27.0
611.969299 15.0
612.066528 17.0
612.142151 79.0
612.185364 30.0
612.304138 35766.0
612.368958 115.0
612.401367 85.0
612.433777 80.0
612.531006 75.0
612.574219 62.0
612.639099 54.0
612.671509 14.0
612.693115 16.0
612.74707 68.0
612.822754 29.0
612.887634 12.0
612.920044 28.0
612.97406 55.0
613.006531 9.0
613.060547 50.0
613.147034 8.0
613.29834 10641.0
613.36322 165.0
613.417297 60.0
613.438965 37.0
613.460571 18.0
613.492981 42.0
613.557922 13.0
613.579529 15.0
613.612 40.0
613.666016 26.0
613.720093 20.0
613.784973 48.0
613.80658 18.0
614.05542 20.0
614.1203 8.0
614.141907 11.0
614.217651 20.0
614.30426 1325.0
614.444946 16.0
614.477417 17.0
614.499023 15.0
614.542297 11.0
614.661377 6.0
614.726318 12.0
614.986084 8.0
615.040222 8.0
615.051025 8.0
615.116028 9.0
615.170166 12.0
615.278442 7.0
615.592529 21.0
615.646667 7.0
615.71167 9.0
615.744202 12.0
615.809204 12.0
615.928345 18.0
616.23175 8.0
616.535217 8.0
616.643616 10.0
616.925476 9.0
616.947205 11.0
616.979736 23.0
617.09906 5.0
617.109863 5.0
617.131592 12.0
617.739014 7.0
617.83667 9.0
618.118835 9.0
618.205688 8.0
618.281677 8.0
618.55304 9.0
618.650757 10.0
618.661621 10.0
618.759399 7.0
618.878845 14.0
619.052612 9.0
619.074341 7.0
619.421936 10.0
620.008789 7.0
620.1828 7.0
620.563354 7.0
620.574219 7.0
620.595947 10.0
621.477173 8.0
621.585999 7.0
622.555054 14.0
622.576843 7.0
623.121643 7.0
623.339539 10.0
623.361389 10.0
623.80835 10.0
624.200928 8.0
624.593689 7.0
625.34668 7.0
625.848999 9.0
625.903625 15.0
626.875977 7.0
627.302307 8.0
627.477295 7.0
627.838196 14.0
627.958557 10.0
628.002319 7.0
628.286804 5605.0
628.352478 33.0
628.407166 17.0
628.472839 14.0
628.505676 15.0
628.560425 14.0
628.582336 13.0
628.593201 13.0
628.647949 26.0
628.910706 6.0
629.206299 11.0
629.217285 11.0
629.293945 1767.0
629.458252 19.0
629.502014 66.0
629.523926 26.0
629.589661 6.0
629.622498 9.0
629.753967 16.0
629.8526 7.0
629.973083 7.0
630.082642 6.0
630.236084 76.0
630.30188 5434.0
630.367615 100.0
630.411438 14.0
630.499146 9.0
630.553955 51.0
630.641663 12.0
630.663574 10.0
630.696472 8.0
630.718445 6.0
630.773254 33.0
630.817078 9.0
630.849976 27.0
631.003479 7.0
631.135132 11.0
631.146057 11.0
631.211914 9.0
631.310547 1708.0
631.365417 17.0
631.398315 20.0
631.606812 8.0
631.661682 6.0
631.716492 8.0
631.782349 12.0
631.793274 12.0
632.001831 9.0
632.03479 13.0
632.166443 9.0
632.2323 7.0
632.265259 6.0
632.320129 189.0
632.407959 7.0
632.649475 7.0
633.022888 7.0
633.121765 11.0
633.901855 20.0
634.209717 7.0
634.528564 21.0
634.704529 9.0
635.045532 9.0
635.287537 9.0
635.298584 9.0
638.129639 14.0
639.133606 36.0
639.343262 6.0
639.762817 8.0
643.633362 7.0
643.965698 8.0
646.161072 10.0
646.327515 10.0
647.260132 7.0
662.576843 39.0
664.578613 54.0
672.695007 7.0
674.519226 13.0
679.858643 14.0
685.333435 14.0
685.676331 28.0
692.058472 8.0
694.978577 13.0
699.797546 15.0
701.322815 8.0
703.208496 16.0
711.149353 16.0
720.200378 9.0
720.341003 21.0
720.587036 16.0
721.372498 32.0
726.328979 21.0
726.964478 43.0
728.024231 14.0
729.214417 29.0
739.518677 6.0
742.941711 12.0
743.513 10.0
743.524902 10.0
749.237793 9.0
751.222778 18.0
752.300049 7.0
752.312012 7.0
752.922852 8.0
753.138428 26.0
767.608093 22.0
774.287048 7.0
776.511658 20.0
779.324402 47.0
780.860718 11.0
783.70575 20.0
783.766846 6.0
783.779053 6.0
786.262085 14.0
787.327454 18.0
790.159668 32.0
791.301331 17.0
792.984619 17.0
795.371399 47.0
796.332031 37.0
797.3302 12.0
798.353638 21.0
799.340759 16.0
801.650574 13.0
802.676819 74.0
804.941833 26.0
810.351135 17.0
810.562439 16.0
813.124878 32.0
813.199524 13.0
813.26178 13.0
813.336487 312.0
813.386292 46.0
813.411194 46.0
814.332825 162.0
815.080444 31.0
815.354675 818.0
815.65387 17.0
815.678833 21.0
816.002991 27.0
816.277405 48.0
816.352234 561.0
816.414612 25.0
817.013489 7.0
817.263062 20.0
817.325439 18.0
817.350403 22.0
817.962097 23.0
818.511597 8.0
819.58606 8.0
820.223572 11.0
830.394775 22.0
830.772217 9.0
831.124634 11.0
831.187561 27.0
831.250427 28.0
831.338562 2932.0
831.414124 48.0
831.43927 15.0
831.477051 27.0
831.590393 16.0
831.716248 27.0
832.04364 8.0
832.207336 19.0
832.25769 77.0
832.345886 1073.0
832.484436 8.0
832.547424 110.0
832.711182 12.0
832.736328 23.0
832.837158 40.0
832.874939 66.0
832.975769 12.0
833.063904 13.0
833.215149 32.0
833.265564 53.0
833.35376 4633.0
833.442017 86.0
833.479797 21.0
833.593201 29.0
833.681458 13.0
833.769714 7.0
833.870605 70.0
833.946167 12.0
834.173157 32.0
834.362244 2111.0
834.437927 101.0
834.475769 64.0
834.500977 11.0
834.816284 27.0
835.371399 424.0
835.573303 8.0
835.68689 31.0
835.977173 8.0
836.280151 18.0
837.239868 18.0
838.351929 21.0
838.794373 53.0
840.590759 11.0
844.36676 7.0
844.468262 12.0
848.838013 10.0
849.830383 11.0
853.703735 6.0
853.79303 26.0
863.553772 7.0
863.771912 7.0
869.799866 9.0
870.366455 9.0
873.21521 8.0
883.773682 10.0
911.844543 14.0
915.47345 25.0
917.521973 9.0
926.257141 11.0
935.514282 8.0
940.729126 20.0
975.333313 13.0
975.878723 16.0
980.548462 14.0
981.847595 30.0
986.353271 11.0
990.044861 11.0
991.226624 14.0
1000.594971 14.0
1009.882568 25.0
1016.664124 7.0
1035.711304 6.0
1056.226074 32.0
1061.283081 16.0
1066.594604 32.0
1068.705688 9.0
1071.704834 16.0
1109.330566 24.0
1110.625122 8.0
1110.726929 28.0
1111.643677 35.0
1125.455811 18.0
1125.602295 7.0
1129.34021 28.0
1140.591431 15.0
1173.123657 8.0
1173.13855 8.0
1178.67749 18.0
1207.751099 15.0
1209.511475 23.0
1237.362915 36.0
1254.900024 22.0
1262.597656 26.0
1273.339111 8.0
1303.849609 7.0
1307.872314 15.0
1344.899658 29.0
1344.995605 11.0
1355.518555 7.0
1356.274048 11.0
1377.869873 12.0
1379.40979 12.0
1420.848877 8.0
1430.65625 16.0
1442.353516 20.0
1442.900635 14.0
1463.267944 49.0
1485.829956 19.0
1496.415527 17.0
1557.408203 12.0
1558.958984 8.0
1576.119995 14.0
1596.634644 6.0
1596.6521 6.0
1610.653198 22.0
1722.12207 6.0
1774.51416 6.0
END IONS
