BEGIN IONS
PEPMASS=886.271
CHARGE=1
MSLEVEL=2
SOURCE_INSTRUMENT=LC-ESI-Orbitrap
FILENAME=f.daniel/Albis/XA_Frac_4.mzXML;
SEQ=*..*
IONMODE=Positive
ORGANISM=GNPS-LIBRARY
NAME=Carbamoyl-Albicidn M+H
PI=Roderich Suessmuth
DATACOLLECTOR=Daniel Petras
SMILES=C/C(C(NC1=CC=C(C(NC(CC#N)C(NC2=CC=C(C(NC3=CC=C(C(NC4=CC=C(C(O)=O)C(O)=C4OC)=O)C(O)=C3OC)=O)C=C2)=O)=O)C=C1)=O)=C\C5=CC=C(OC(N)=O)C=C5
INCHI=
INCHIAUX=
PUBMED=28876492
SUBMITUSER=daniel
TAGS=
LIBRARYQUALITY=3
SPECTRUMID=CCMSLIB00004681474
SCANS=755
261.833344 1.488628
262.333344 0.000118
279.833344 1.135891
280.166656 4.234728
280.75 0.000262
284.166656 1.211827
285.166656 87.031525
286.083344 0.000352
305.0 0.912885
305.25 0.903837
305.833344 6.5e-05
313.0 1.19322
313.416656 1.664743
314.0 0.000118
317.0 1.395096
317.583344 0.0001
320.166656 0.889879
320.75 5e-05
323.166656 13.127687
323.916656 0.000414
324.166656 1.061942
324.666656 9.1e-05
328.083344 123.532532
328.916656 0.000834
330.166656 0.652216
331.083344 219.816635
331.916656 0.001616
334.916656 3.473279
335.25 4.681708
335.833344 0.000246
339.916656 2.489529
340.25 1.141855
340.75 8.8e-05
349.083344 54.770992
349.833344 0.00073
356.833344 2.008389
357.416656 2.675143
358.0 0.000195
364.083344 2.042666
364.5 0.958299
365.083344 5.8e-05
369.0 4.47727
369.333344 8.235853
370.0 0.000159
374.583344 0.785966
375.0 2.840523
375.333344 1.387027
375.75 3.396893
376.333344 8.49848
377.0 0.000406
381.416656 4.984178
382.0 0.000242
398.833344 1.970256
399.083344 0.646343
399.666656 4.6e-05
401.166687 0.940547
401.5 1.37269
402.083344 0.000102
408.833344 0.313422
409.416687 2.9e-05
419.0 5.562257
419.25 3.055032
419.916687 0.000146
420.25 2.533469
420.833344 0.00015
421.25 1.10484
421.833344 7.5e-05
445.083344 1.094762
445.666687 6.5e-05
450.083344 17.306131
450.25 18.64694
450.666687 1.101865
451.166687 0.890805
451.75 5.3e-05
467.25 1.505442
468.25 545.806763
469.083344 1.391532
469.583344 0.000108
472.25 1.186632
472.833344 9e-05
476.25 1.100986
476.75 8.8e-05
481.916687 1.745049
482.25 3.769984
482.916687 0.000103
487.333344 1.66418
488.166687 38.054302
489.0 0.000534
491.5 1.55461
492.0 9.7e-05
493.75 2.476568
494.25 5.305956
494.583344 3.650857
495.25 27.650806
496.166687 0.000133
498.833344 2.781989
499.333344 0.000158
500.333344 15.282774
501.166687 0.000178
510.333344 0.730544
510.833344 6.3e-05
512.916687 5.77076
513.5 0.000464
519.166687 2.036024
519.666687 0.000183
521.333313 2.872295
521.833313 0.000135
524.25 2.041296
524.833313 0.000101
529.083313 1.497647
529.25 3.575462
529.833313 0.000243
534.25 42.041676
534.75 2.033263
535.333313 0.000115
538.166687 252.221512
539.333313 3.047529
539.916687 0.000249
545.25 1.13344
545.75 6.6e-05
546.083313 1.969169
546.75 2.628118
547.333313 0.000185
555.833313 5.023572
556.166687 3.998019
556.416687 2.850999
557.0 0.000133
558.0 1.249043
558.5 0.000115
575.333374 0.525463
575.916687 3.1e-05
578.5 3.268716
579.083374 0.000191
580.166687 2.16243
580.75 0.000173
588.583374 1.050665
589.166687 1.312843
589.666687 0.000109
607.5 3.320469
608.083374 0.000159
612.583374 1.12395
613.083374 0.000101
630.833374 1.795747
631.416687 0.000167
633.666687 1.089086
634.166687 9.5e-05
647.333374 1.53984
647.833374 8.8e-05
652.833374 1.810827
653.416687 0.000121
657.166687 1.457121
657.75 0.000124
659.666687 2.439509
660.166687 25.066902
660.5 9.351124
661.0 2.828372
661.583374 0.000168
664.583374 5.836412
665.166687 102.541397
666.166687 0.00101
669.916687 2.151531
670.166687 1.128454
670.916687 59.729538
671.166687 49.314232
672.083374 0.000312
676.75 1.472203
677.333374 0.000122
679.416687 0.817819
679.916687 6.4e-05
682.916687 1.445272
683.25 3.178514
683.833374 0.000202
696.333374 1.146781
696.833374 6.5e-05
701.0 2.019886
701.333374 1.661019
701.833374 0.000149
703.25 5512.205566
704.666687 0.000116
704.916687 1.18698
705.5 7.3e-05
709.083374 2.192734
709.666687 0.000152
713.666687 0.66631
714.25 3.2e-05
714.916687 0.999132
715.416687 5e-05
717.083374 0.49953
717.583374 3.8e-05
718.166687 1.744602
718.666687 0.000144
720.75 12.529424
721.083374 16.043215
721.333374 23.696705
722.416687 15.741431
723.25 0.000164
725.0 1.251628
725.583374 7.2e-05
726.083374 4.791337
727.0 4.698361
727.25 9.313983
727.916687 0.00022
735.5 1.63553
736.0 0.000112
738.333374 1.408493
738.833374 8.8e-05
747.25 1.562106
747.5 3.893132
748.083374 0.000221
749.166687 1.434428
749.75 7.1e-05
757.0 2.477703
757.583374 0.000147
759.166687 0.47351
759.75 3.5e-05
760.75 1.359231
761.333374 0.000111
765.25 2.833719
765.833374 0.000217
766.666687 2.019466
767.25 0.000161
771.166687 0.854427
771.666687 4.4e-05
776.583374 1.044425
777.083374 8.5e-05
780.5 4.326962
781.083374 0.000318
799.166687 0.614894
799.666687 5.9e-05
805.0 1.150492
805.5 7.9e-05
816.333374 2.208621
816.916687 0.000126
825.333374 1.734501
825.583374 0.766793
826.083374 4.5e-05
827.25 1.144713
828.0 0.929296
828.583374 7.4e-05
833.166687 1.805182
833.75 9.5e-05
839.0 2.595027
839.5 1.214393
840.0 6.3e-05
841.833374 4.966181
842.083374 13.591692
842.583374 9.492365
843.083374 28.103682
844.166687 0.000179
844.833374 1.663674
845.416687 0.000108
846.583374 1.784437
847.166687 9.6e-05
848.833374 1.463505
849.166687 5.336075
849.583374 5.476929
849.916687 3.084941
850.416687 0.460126
851.0 2.3e-05
851.25 1.851603
851.75 0.000158
857.833374 1.825368
858.416687 6.8e-05
859.0 0.529914
859.25 0.488734
859.833374 4.3e-05
866.833374 3.614631
867.166687 22.694859
867.416687 23.286478
868.25 127.452553
869.0 5.131662
869.333374 6.6783
870.083374 0.000155
870.416687 1.640785
871.0 3.123463
871.666687 0.674289
872.0 1.092634
872.5 9.3e-05
880.583374 1.683385
881.166687 0.000102
882.583374 0.914362
883.083374 6.4e-05
884.666687 0.430977
885.166687 0.628351
885.666687 1.406269
886.25 2.88568
886.833374 0.000204
887.5 1.206519
888.0 9.9e-05
891.333374 4.731262
891.833374 0.000341
END IONS
