BEGIN IONS
PEPMASS=473.24
CHARGE=2
MSLEVEL=2
SOURCE_INSTRUMENT=LC-ESI-Orbitrap
FILENAME=f.Rolandoo1/20190519 Moroidin paper GNPS/Moroidin-[QLAVWRGH].mzXML;
SEQ=*..*
IONMODE=Positive
ORGANISM=GNPS-LIBRARY
NAME=Moroidin-[QLAVWRGH] M+2H
PI=Jing-Ke Weng
DATACOLLECTOR=Roland Kersten
SMILES=O=C1CCC(C(NC(C(NC(C)C(NC(C(C)C)C(NC(C(NC(C(NCC(NC(CC2=CN3C=N2)C(O)=O)=O)=O)CCCNC(N)=N)=O)CC4=C3NC5=C4C=CC6=C5)=O)=O)=O)C6C(C)C)=O)N1
INCHI=
INCHIAUX=
PUBMED=
SUBMITUSER=Rolandoo1
TAGS=
LIBRARYQUALITY=3
SPECTRUMID=CCMSLIB00005435909
SCANS=1
65.725266 1790.212646
65.725769 4506.415527
65.726273 6588.250977
65.726776 6681.624512
65.72728 4719.260254
65.727791 366.742096
66.051338 1563.415527
66.051849 2677.562988
66.052361 3084.503906
66.052872 2578.57666
66.053375 1481.100464
70.062683 3130.914307
70.06324 12403.553711
70.063797 40449.449219
70.064346 71455.734375
70.064903 91489.148438
70.06546 73373.921875
70.066017 41978.359375
70.066574 14084.243164
70.067131 3748.639404
70.067688 193.824158
70.20079 27.318874
70.201347 480.512207
70.201904 872.777405
70.202461 1118.322632
70.203026 1051.306152
70.203583 678.027039
70.917885 36.355148
70.918457 481.499969
70.919022 897.625732
70.919586 1119.707764
70.920151 1002.901733
70.920723 599.947205
72.075195 164.644394
72.075775 2356.857422
72.076355 8264.865234
72.076935 33596.78125
72.077515 63924.503906
72.078094 122227.320312
72.078674 365479.65625
72.079254 1083478.375
72.079834 1976015.375
72.080414 2741748.75
72.080994 2400694.5
72.081581 1483925.5
72.082161 608908.6875
72.082741 158215.125
72.083321 42191.953125
72.0839 21113.119141
72.08448 11460.557617
72.08506 21104.626953
72.08564 3395.037109
72.46785 70.516151
72.468437 613.869629
72.469017 1051.984253
72.469604 1268.864014
72.470192 1115.170044
72.470772 649.467712
73.081238 533.718079
73.081825 6264.840332
73.08242 16870.867188
73.083015 35709.113281
73.083603 53460.234375
73.084198 50353.96875
73.084793 30442.785156
73.085381 12898.488281
73.085976 3844.718018
77.217361 194.948303
77.21801 3399.7146
77.218651 5946.847168
77.219292 6871.599609
77.21994 5888.583984
77.220581 5929.746582
77.221222 4995.35498
77.22187 5786.768066
77.222511 4633.710938
77.223152 2209.446289
83.731468 179.686203
83.732193 1554.097534
83.732918 2713.38916
83.73365 3148.63916
83.734375 2557.534424
83.7351 1339.032227
84.03743 45.438969
84.038162 608.137146
84.038895 3940.680176
84.039627 23283.636719
84.040352 48686.75
84.041084 105402.203125
84.041817 313832.75
84.042549 882981.125
84.043274 1548252.25
84.044006 2054555.625
84.044739 1701814.75
84.045471 1020531.0
84.046196 379413.40625
84.046928 88241.414062
84.047661 20960.265625
84.048393 12912.701172
84.049126 7183.823242
84.04985 11282.949219
84.050583 5292.839844
84.709839 162.665405
84.710571 3122.854004
84.711311 5335.726562
84.712051 6193.48877
84.712791 5037.047363
84.713531 2588.728516
85.044235 619.039734
85.044975 5379.557129
85.045723 12359.413086
85.046463 21541.716797
85.047211 30860.574219
85.047951 26896.373047
85.048698 14603.140625
85.049438 5887.087891
85.050179 833.351685
86.010963 398.373199
86.011719 2935.005371
86.012474 4608.588867
86.013237 5183.736328
86.013992 4188.539062
86.014748 2149.139893
87.3423 267.459015
87.343079 1881.133301
87.343849 2564.242676
87.344627 2765.753174
87.345398 2249.851318
87.346176 1166.31604
87.355461 148.19397
87.356239 2880.643555
87.35701 5442.399902
87.357788 6557.368652
87.358559 5369.380859
87.359337 2760.399902
88.669159 451.749207
88.669945 5710.90625
88.670738 10850.068359
88.671532 14580.771484
88.672325 14244.537109
88.673119 9955.232422
88.673904 4645.893066
88.683411 131.874268
88.684204 745.318359
88.68499 1174.692505
88.685783 1205.82373
88.686577 908.691772
88.68737 470.466675
88.68895 125.801758
88.689743 702.791199
88.690536 1120.4823
88.69133 1319.399292
88.692123 1425.088867
88.692909 2487.919434
88.693703 2496.903809
88.694496 2659.561279
88.69529 2192.970703
88.696083 1110.723389
88.712715 239.660233
88.713509 3033.627441
88.714302 6088.881348
88.715096 7654.270996
88.715889 6462.653809
88.716675 3400.432861
91.050812 63.392818
91.051636 657.461853
91.05246 4080.436523
91.053284 7596.720703
91.054108 9499.553711
91.054932 8569.676758
91.055756 5569.533203
91.05658 2341.994629
92.37999 3.12076
92.380836 816.17157
92.381676 6198.307617
92.382523 15520.865234
92.383362 24240.560547
92.384201 13448.148438
92.385048 1965.894531
93.523727 298.704346
93.524582 2622.802002
93.525436 5162.246094
93.526299 6473.753418
93.527153 5668.441895
93.528015 3270.241211
96.041626 142.423264
96.042519 678.894958
96.043411 1001.948669
96.044304 1083.871826
96.045197 902.967224
96.046089 505.795074
97.388069 296.878448
97.388985 3386.054932
97.389893 5862.023438
97.390808 6817.520996
97.391716 5650.24707
97.392624 3055.920166
98.092659 342.616943
98.093582 3190.834961
98.094505 8936.885742
98.095421 12392.199219
98.096344 11961.854492
98.097267 8061.283691
98.09819 3258.375
100.071373 705.072327
100.072327 4395.461426
100.073273 10544.72168
100.074219 17128.101562
100.075172 19358.833984
100.076118 15342.186523
100.077072 8214.585938
100.078018 1882.837769
100.078972 347.862732
102.050911 470.042175
102.051895 2816.642578
102.052872 6162.970703
102.053848 9375.701172
102.054825 10330.789062
102.055801 6395.242188
102.056778 2780.91333
102.057755 379.326324
107.893562 636.968445
107.89463 2572.567871
107.895691 3321.815186
107.896751 3292.289795
107.897812 2520.976807
107.89888 1245.393921
110.066032 983.617737
110.067131 5855.425781
110.068222 15173.246094
110.069321 30122.099609
110.070412 47243.585938
110.07151 42477.351562
110.072601 24179.552734
110.0737 11406.701172
110.074791 3719.509766
112.08168 1685.322388
112.082802 10755.328125
112.083923 27026.308594
112.085052 47935.628906
112.086174 62262.21875
112.087303 48319.847656
112.088425 28200.556641
112.089554 10233.827148
112.090675 2184.908447
113.065849 200.477859
113.066994 2605.993164
113.06813 9292.876953
113.069275 14841.836914
113.070412 16927.25
113.071556 13943.392578
113.072693 7818.161621
113.07383 2387.226562
114.051498 808.930664
114.05265 3517.904785
114.05381 5306.928711
114.054962 5495.99707
114.056114 3896.657471
114.057274 1592.785522
115.082863 717.268127
115.08403 3098.509766
115.085197 5115.527832
115.086372 5785.106934
115.08754 4509.718262
115.088715 2076.742188
115.089882 204.696106
118.240349 1184.158325
118.241562 5659.209473
118.242783 9756.010742
118.244003 12488.175781
118.245224 12164.547852
118.246445 8938.454102
118.247665 4745.359375
118.248878 1550.724854
118.36602 1122.9198
118.367241 5677.952637
118.368462 12524.700195
118.369682 18910.533203
118.370903 22359.066406
118.372124 20118.976562
118.373344 14844.006836
118.374565 8545.188477
118.375786 3216.562012
119.762962 765.400513
119.764206 3837.902588
119.76545 5873.370117
119.766693 6661.572754
119.767937 5768.822266
119.769173 3263.153809
120.146652 613.66626
120.147903 3307.728027
120.149147 6036.436523
120.150398 7036.714355
120.151649 5452.709961
120.152893 2393.602539
121.170868 259.157532
121.172134 873.093567
121.173401 1180.184082
121.174667 1175.382568
121.175934 893.9375
121.177193 407.992065
121.353195 262.63382
121.354469 862.042786
121.355736 1127.184937
121.357002 1105.416626
121.358269 861.354492
121.359535 353.410339
129.058868 853.295166
129.060257 8168.058105
129.061646 30779.603516
129.063034 65476.917969
129.064423 95940.984375
129.065826 97062.757812
129.067215 67856.5
129.068604 33809.800781
129.069992 10853.580078
129.071381 1420.514526
134.129089 602.979919
134.130554 1884.700806
134.132034 2721.993896
134.133499 2755.039062
134.134979 1970.509277
134.136459 768.469177
141.060593 765.506226
141.06218 2494.28125
141.063766 4185.606934
141.065353 4956.00293
141.06694 4145.862793
141.068527 2290.713135
141.070114 644.740845
143.104813 999.616211
143.10643 6490.747559
143.108063 14996.618164
143.10968 29940.582031
143.111313 90718.765625
143.11293 298399.53125
143.114548 666893.0625
143.11618 1039476.25
143.117798 1151368.875
143.119415 854478.75
143.121048 454188.625
143.122665 155969.8125
143.124298 39779.269531
143.125916 17051.9375
143.127548 13640.693359
143.129166 8648.337891
143.130783 4326.455078
143.132416 320.75058
144.021454 2123.359375
144.023102 6522.735352
144.024734 8500.120117
144.026367 8241.030273
144.028015 6034.717285
144.029648 2633.557129
144.113281 907.107056
144.114914 4388.65918
144.116562 11674.227539
144.118195 22956.78125
144.119843 33507.414062
144.121475 34026.652344
144.123123 22598.257812
144.124756 10287.155273
144.126404 3178.767334
156.070999 989.574768
156.072861 3200.161865
156.074707 5476.202637
156.076553 6540.11377
156.0784 5664.050293
156.080246 3437.229248
156.082092 1029.280518
159.523468 289.357025
159.525375 2644.814209
159.527283 6828.774902
159.52919 9780.78418
159.531097 9630.097656
159.53302 6515.398926
159.534927 2218.487793
159.575058 343.04541
159.576965 1009.447205
159.578873 1736.319092
159.580795 2237.60498
159.582703 3549.341553
159.58461 5341.10498
159.586517 9224.963867
159.58844 14823.664062
159.590347 20731.728516
159.592255 24790.578125
159.594177 23680.21875
159.596085 18941.894531
159.597992 12700.731445
159.599899 7106.694824
159.601822 3631.525146
159.603729 1061.196777
159.64389 2193.202148
159.645798 6602.728516
159.64772 10158.776367
159.649628 11864.788086
159.651535 11011.544922
159.653458 8416.628906
159.655365 5652.490723
159.657272 3630.106934
159.659195 2533.94165
159.661102 698.352539
161.097778 2532.199951
161.099716 16742.851562
161.101654 63734.476562
161.103592 136463.40625
161.10553 205203.0625
161.107468 209361.234375
161.109406 145298.078125
161.111359 70226.34375
161.113297 20651.466797
161.115234 3963.203125
161.117172 323.460663
168.736313 2647.044922
168.738388 6284.773926
168.740463 7788.648926
168.742538 6789.748047
168.744614 4057.897949
168.746704 1165.108398
171.101074 616.868896
171.103195 7022.77002
171.105316 30004.226562
171.107452 83605.328125
171.109573 152816.0625
171.111694 196890.109375
171.113815 167070.59375
171.115936 101218.367188
171.118057 41698.0
171.120178 10964.332031
171.122299 1619.105225
180.081284 439.773956
180.083588 1211.206055
180.085876 1932.278198
180.088165 2093.931152
180.090454 1551.100952
180.092743 741.001892
180.095047 160.513306
194.086136 1732.473267
194.088699 3202.755615
194.091263 3872.464111
194.093826 3429.155029
194.09639 2082.590088
194.098953 415.728302
197.094742 1545.697998
197.097366 5118.428223
197.099991 8567.048828
197.102615 9474.980469
197.10524 7197.431641
197.107864 3556.516602
197.110489 676.442383
213.090561 1156.114746
213.093521 2885.266357
213.096466 4035.216309
213.099411 3612.307861
213.102371 2028.008789
213.105316 235.484192
215.107483 2139.640137
215.110474 3955.669434
215.113464 4732.554199
215.116455 3904.235107
215.119446 1994.318848
215.122437 187.592239
217.183517 2854.811768
217.186554 5610.177246
217.18959 6932.319336
217.192627 5897.709961
217.195663 3396.673584
217.1987 513.36676
221.117798 694.779602
221.120911 7589.348145
221.124039 15564.345703
221.127151 19972.146484
221.130264 17116.9375
221.133392 10190.990234
221.136505 2206.061035
221.139618 99.004128
232.12851 792.725586
232.131866 2741.423584
232.135223 5431.88916
232.13858 6996.859863
232.141937 6190.280273
232.145279 3716.262695
232.148636 1360.100952
232.151993 4.537761
242.110764 113.026329
242.114349 2121.241211
242.11792 4374.28125
242.12149 5756.773438
242.125061 5289.761719
242.128632 3450.152344
242.132202 1528.793823
242.135773 222.798111
283.118317 90.475609
283.122833 545.990845
283.12735 1224.815674
283.131866 1567.814575
283.136383 1281.263062
283.1409 593.635437
287.154022 173.421082
287.15863 818.270386
287.163269 1381.533936
287.167877 1533.047852
287.172485 1176.982666
287.177094 547.424683
287.634491 769.80304
287.639099 3980.42749
287.643738 7023.873535
287.648376 7813.437012
287.652985 5864.976074
287.657623 2651.947021
293.147522 1120.360474
293.152283 4887.944336
293.157043 7312.745605
293.161804 8160.796875
293.166565 6617.73291
293.171326 3233.572266
298.796082 941.400574
298.800995 3996.460205
298.805878 5799.214355
298.810791 6220.940918
298.815674 5520.685547
298.820587 3559.88208
304.131195 119.693604
304.13623 2958.074219
304.141235 18803.570312
304.146271 53385.203125
304.151306 97125.921875
304.156342 132163.203125
304.161377 122064.546875
304.166382 75662.820312
304.171417 32975.679688
304.176453 6436.431152
304.181488 424.773346
304.639771 552.257019
304.644806 3244.988525
304.649841 8475.021484
304.654907 13726.557617
304.659943 16183.586914
304.664978 14347.972656
304.670013 8705.344727
304.675079 2268.816895
308.153748 1496.927368
308.158875 6317.250977
308.164001 17124.291016
308.169128 38829.785156
308.174255 57324.230469
308.179382 59604.585938
308.184509 41350.035156
308.189636 20552.4375
308.194763 4957.591309
308.667297 1523.722778
308.672455 6307.182617
308.677582 10765.669922
308.682739 12172.682617
308.687866 9435.998047
308.693024 4163.331055
310.132843 595.851135
310.138031 5201.215332
310.143219 18378.439453
310.148376 35714.71875
310.153564 49162.34375
310.158752 49779.550781
310.16391 36054.101562
310.169098 18000.453125
310.174286 4320.897461
310.640991 672.361816
310.646179 2686.569336
310.651367 4792.892578
310.656555 6125.12793
310.661743 5791.508301
310.666962 3903.255615
310.67215 1490.108643
314.164551 967.347412
314.16983 3252.336914
314.17511 4649.98877
314.180389 4848.696777
314.185669 3611.885498
314.190948 1554.65271
318.641815 459.493103
318.647186 3638.799561
318.652588 16072.205078
318.65799 44807.589844
318.663391 84235.203125
318.668762 111577.5
318.674164 100221.546875
318.679565 62148.554688
318.684967 27858.251953
318.690338 7187.956543
318.69574 723.162781
319.154785 1180.179443
319.160187 4671.375
319.165588 7983.097168
319.171021 9134.114258
319.176422 7595.235352
319.181824 3689.273193
321.170044 622.183838
321.175507 2240.707275
321.180939 3508.396973
321.186401 3644.237305
321.191864 2540.919678
321.197327 957.508667
322.154663 247.450638
322.160156 2071.974121
322.165649 6132.6875
322.171112 9986.97168
322.176605 10404.31543
322.182098 7202.36084
322.187561 3939.241211
322.193054 1251.053467
323.143829 896.602234
323.149353 4152.168457
323.154846 8539.655273
323.16037 11648.37793
323.165863 11261.466797
323.171387 7699.615234
323.17688 3071.567627
324.148651 343.547424
324.154175 996.561462
324.159698 1291.34668
324.165253 1362.700684
324.170776 1183.312988
324.1763 579.009277
328.158691 1231.083984
328.164337 4500.535645
328.169952 7846.069336
328.175598 9308.732422
328.181244 7702.217773
328.18689 4367.903809
328.192505 1367.558838
329.680237 373.591766
329.685913 4515.419434
329.691589 12183.609375
329.697266 16328.385742
329.702942 15798.90625
329.708618 11275.736328
329.714294 5269.314941
329.719971 977.00531
330.670105 931.081604
330.675781 5443.560059
330.681488 13490.706055
330.687195 20729.865234
330.692902 21644.033203
330.698608 14974.50293
330.704315 7250.318848
330.709991 1899.075928
331.16098 689.037903
331.166687 2424.331543
331.172394 4244.919434
331.178131 5488.420898
331.183838 5603.143555
331.189545 4681.304688
331.195251 3131.34375
331.200989 1219.593994
331.658661 2013.244507
331.664398 8542.455078
331.670135 18080.71875
331.675842 25856.583984
331.68158 23881.121094
331.687317 14295.157227
331.693054 6006.381836
331.698761 520.785645
332.645935 2509.119873
332.651703 12212.03418
332.65744 29830.951172
332.663208 49003.535156
332.668945 47760.921875
332.674713 30572.873047
332.68045 15835.453125
332.686218 5168.380371
332.691986 633.381836
334.471283 1005.902405
334.477081 2961.073975
334.48288 4063.156738
334.488708 4403.759766
334.494507 4001.960449
334.500305 2967.587158
334.506104 2282.30249
334.511902 1833.923584
334.5177 998.512939
334.523499 280.479523
335.162598 802.818604
335.168396 5398.152344
335.174225 13662.067383
335.180054 19991.791016
335.185852 20586.083984
335.191681 14825.712891
335.19751 6827.066406
335.203308 1489.09668
335.681 1005.64386
335.686829 3444.610352
335.692657 5740.969238
335.698486 6441.666504
335.704315 5001.483887
335.710175 1735.249878
336.662872 213.658447
336.668732 3556.150635
336.674591 13830.405273
336.68045 28580.572266
336.68631 37655.8125
336.692169 33783.386719
336.698029 22063.806641
336.703888 9070.116211
336.709747 1205.37146
337.161285 1286.068237
337.167175 4547.651855
337.173035 10567.861328
337.178894 17876.037109
337.184784 19906.224609
337.190643 15688.873047
337.196503 8760.936523
337.202393 3356.057861
337.208252 909.501953
338.173248 515.597168
338.179138 1400.012451
338.185059 1755.754395
338.190948 1471.296265
338.196838 770.713501
338.202728 195.22937
339.681946 375.827667
339.687897 1079.693481
339.693817 1474.356323
339.699768 1406.855225
339.705688 897.128723
339.711639 291.684265
342.663605 232.164795
342.669617 1910.314819
342.675659 4720.794434
342.681671 6518.405762
342.687683 6323.446289
342.693695 4108.120605
342.699707 1356.43396
343.157349 306.738098
343.163361 931.102661
343.169403 1409.946045
343.175415 1522.150635
343.181458 1201.165771
343.187469 493.039032
343.6763 1579.803345
343.682343 7479.803711
343.688385 18625.480469
343.694427 27728.408203
343.70047 25799.845703
343.706512 15902.432617
343.712555 6197.629395
343.718597 1032.07312
345.179443 514.633606
345.185516 2429.862549
345.19162 7578.378418
345.197693 13642.527344
345.203766 14279.570312
345.209839 9801.389648
345.215942 4044.661865
345.222015 532.695557
345.666443 384.706635
345.672516 4715.964355
345.678619 15499.982422
345.684723 29267.710938
345.690796 40492.789062
345.696899 40141.921875
345.703003 28891.943359
345.709106 15727.385742
345.715179 5594.103027
345.721283 953.087708
346.178894 2605.217529
346.184998 7421.025391
346.191101 10651.398438
346.197205 11838.207031
346.203308 9993.724609
346.209412 5992.57666
346.215515 2406.4375
346.221649 228.057938
347.133606 292.596405
347.13974 3186.157471
347.145874 9086.584961
347.152008 14014.470703
347.158142 15192.544922
347.164276 11279.999023
347.17041 4654.202637
347.176544 412.611328
349.667908 581.159607
349.674103 5746.294922
349.680298 18761.453125
349.686493 47505.332031
349.692719 78100.710938
349.698914 93035.515625
349.705109 68905.601562
349.711304 35486.054688
349.717499 7639.154297
349.723724 3.033526
350.170654 1635.132324
350.176849 6330.856934
350.183075 13322.700195
350.18927 20210.894531
350.195496 22698.988281
350.201721 18683.050781
350.207916 10923.582031
350.214142 3443.243408
351.154419 234.75235
351.160645 2832.172363
351.166901 9420.571289
351.173126 17857.693359
351.179382 24526.933594
351.185608 25293.214844
351.191864 19469.414062
351.19809 10065.074219
351.204346 3132.386963
351.210571 758.1875
351.666595 1079.979736
351.672852 3191.583008
351.679108 5221.575195
351.685364 6715.032227
351.69162 6550.926758
351.697876 4518.506836
351.704132 1833.963989
351.710388 298.211395
352.154877 2755.821533
352.161133 7736.68457
352.167389 10627.063477
352.173676 10048.342773
352.179932 6210.3125
352.186188 1924.500977
352.192474 331.408173
352.19873 1171.403564
352.204987 2121.478271
352.211273 2577.963867
352.217529 2189.999756
352.223816 1274.524414
352.230072 358.31073
353.657257 2400.040283
353.663574 13535.307617
353.669891 58449.148438
353.676178 174379.40625
353.682495 340991.9375
353.688812 472866.40625
353.695099 450884.90625
353.701416 298572.59375
353.707733 140961.6875
353.71402 40519.128906
353.720337 9369.267578
353.726654 2176.313477
353.732971 111.372345
354.162323 1048.563599
354.16864 8205.249023
354.174957 33966.96875
354.181274 78009.914062
354.187592 124706.523438
354.193909 141199.984375
354.200226 110682.632812
354.206573 61770.464844
354.212891 23439.208984
354.219208 5361.656738
354.225525 298.461609
355.169312 1272.776978
355.175659 3085.231445
355.182007 3918.900391
355.188354 4023.330322
355.194702 3263.331055
355.20105 1316.045654
357.676819 1052.313232
357.683228 2698.40918
357.689636 3581.203857
357.696045 3375.165283
357.702454 2086.282227
357.708893 723.932251
358.177643 437.118408
358.184052 4556.841309
358.190491 19948.792969
358.19693 48871.246094
358.203339 85521.789062
358.209778 110534.84375
358.216217 95323.398438
358.222626 55721.261719
358.229065 22563.501953
358.235504 4074.131592
358.679504 1641.896729
358.685974 9217.717773
358.692413 22224.492188
358.698853 35515.574219
358.705292 39968.417969
358.711731 32203.615234
358.71817 19683.658203
358.724609 9142.143555
358.731049 2167.932373
359.182465 798.996582
359.188904 2702.81958
359.195374 5477.974121
359.201813 9061.611328
359.208282 12782.005859
359.214722 14260.649414
359.221191 11559.557617
359.227631 6743.987305
359.2341 2451.67749
359.24057 270.82901
359.654114 536.171631
359.660583 3733.737061
359.667053 24500.578125
359.673523 93660.289062
359.679993 197933.421875
359.686462 298896.71875
359.692932 307356.4375
359.699402 219543.09375
359.705872 112141.210938
359.712311 40144.335938
359.718781 11867.242188
359.72525 2737.889893
360.159088 139.757141
360.165588 2420.7771
360.172058 16800.103516
360.178558 46144.292969
360.185028 81496.203125
360.191498 103538.609375
360.197998 91069.875
360.204468 56241.460938
360.210968 24587.330078
360.217438 5792.867188
363.664795 1319.621948
363.671387 8872.77832
363.677948 28832.09375
363.68454 62826.277344
363.691101 94482.96875
363.697693 99749.773438
363.704254 67276.8125
363.710846 31533.763672
363.717407 5834.692871
363.723999 66.938454
364.171661 1618.740845
364.178253 7910.77832
364.184845 19030.21875
364.191437 28961.876953
364.198029 30778.261719
364.20462 23463.867188
364.211212 11238.619141
364.217804 3282.51416
364.224396 854.361389
365.148895 4368.233398
365.155518 13505.389648
365.16214 22815.398438
365.168762 28605.832031
365.175354 26470.664062
365.181976 17894.117188
365.188599 7577.191895
365.195221 1361.674561
365.658875 422.857452
365.665497 4240.871094
365.67215 12278.957031
365.678772 20284.267578
365.685394 22916.634766
365.692047 18546.427734
365.698669 10917.072266
365.705292 3803.949219
365.711914 348.455231
366.682037 3200.298096
366.688721 8362.242188
366.695374 11226.833984
366.702026 11086.606445
366.708679 8338.717773
366.715332 3589.993896
366.722015 376.548706
367.155212 1262.747314
367.161896 3959.59375
367.168549 6616.896484
367.175232 7454.397949
367.181915 5534.427734
367.188568 2284.911133
367.195251 2540.35791
367.201904 7637.741699
367.208588 13209.0
367.215271 14967.375
367.221924 11602.899414
367.228607 5077.677734
367.235291 704.296875
368.157898 4496.044434
368.164581 12205.811523
368.171295 19754.675781
368.177979 53372.566406
368.184692 186775.1875
368.191376 440485.875
368.19809 747775.625
368.204773 896326.625
368.211487 727391.1875
368.21817 418286.5
368.224884 170650.625
368.231567 46688.433594
368.238281 16581.691406
368.244965 8316.740234
368.251678 1770.183228
368.674194 3454.63208
368.680908 17552.248047
368.687622 61028.429688
368.694336 137814.765625
368.70105 219589.234375
368.707733 247089.609375
368.714447 188687.28125
368.721161 101794.609375
368.727875 37115.371094
368.734589 7502.772461
368.741302 444.338379
369.178131 2047.58252
369.184845 6044.326172
369.191559 10028.606445
369.198303 12495.030273
369.205017 11725.151367
369.211761 7975.347168
369.218475 3105.407715
371.190643 295.845245
371.197449 948.730652
371.204224 1597.831055
371.210999 1839.708374
371.217773 1539.07605
371.224548 950.278076
371.231354 332.99231
372.169067 885.745911
372.175873 5734.42334
372.182678 25166.974609
372.189484 78809.71875
372.196289 166352.828125
372.203094 247252.890625
372.2099 262056.015625
372.216705 186156.875
372.223541 93838.101562
372.230347 25198.689453
372.237152 2268.932373
372.243958 235.373627
372.67334 3539.213379
372.680176 18907.580078
372.687012 53568.796875
372.693817 101360.265625
372.700653 139291.28125
372.707458 133346.125
372.714294 89553.085938
372.7211 43080.019531
372.727936 11515.938477
372.734772 841.434509
373.171844 1727.821899
373.17868 13750.366211
373.185516 38110.304688
373.192352 65632.054688
373.199188 79476.648438
373.206024 68094.46875
373.21286 42962.199219
373.219696 17931.955078
373.226532 2659.688232
373.671326 1462.978027
373.678162 4067.162354
373.685028 6320.59082
373.691864 7224.051758
373.69873 6269.175781
373.705566 4195.032227
373.712433 2123.855713
373.719269 456.893555
374.151245 1744.437256
374.158081 15495.660156
374.164948 72850.429688
374.171814 189214.0
374.17868 331971.34375
374.185547 408464.78125
374.192413 334690.625
374.19928 200777.78125
374.206146 83640.101562
374.213013 22385.046875
374.219849 3101.819336
374.226715 404.361511
374.659576 1682.209595
374.666443 13289.861328
374.673309 42419.152344
374.680206 78710.492188
374.687073 100875.71875
374.693939 86278.0625
374.700836 54285.671875
374.707703 22000.169922
374.714569 5419.373535
374.721466 850.831238
377.675751 2574.152832
377.682709 6866.075684
377.689667 9495.723633
377.696625 8847.367188
377.703583 5489.532227
377.710541 1960.708618
377.717499 245.420044
378.170349 2196.340088
378.177338 7958.525879
378.184296 21364.548828
378.191284 43721.703125
378.198242 64473.921875
378.205231 71542.851562
378.212189 58073.519531
378.219177 34053.273438
378.226135 14553.231445
378.233124 3004.065918
378.240082 3.675981
378.68689 1589.933716
378.693878 8153.819336
378.700867 15452.697266
378.707855 18427.429688
378.714844 16827.583984
378.721832 11960.893555
378.728821 4078.13916
379.155487 1217.734619
379.162506 3555.900146
379.169495 5788.319824
379.176514 6647.75293
379.183502 5555.411133
379.190491 3392.20459
379.19751 889.454895
380.693268 1637.070068
380.700317 8028.21582
380.707367 22103.791016
380.714386 38029.683594
380.721436 41031.753906
380.728485 30558.21875
380.735535 16358.617188
380.742584 5482.920898
380.749603 789.712158
381.165588 663.902771
381.172638 4732.65625
381.179718 11715.283203
381.186768 44255.441406
381.193817 156343.703125
381.200867 328248.28125
381.207947 500538.46875
381.214996 521440.4375
381.222046 376083.8125
381.229095 191800.03125
381.236176 66060.789062
381.243225 15982.477539
381.250275 2633.42334
381.257355 308.439545
381.681213 1012.479919
381.688293 11281.074219
381.695374 42176.300781
381.702423 84789.125
381.709503 125826.90625
381.716583 125720.195312
381.723663 88888.984375
381.730713 45913.511719
381.737793 16066.935547
381.744873 3165.472656
382.176636 3114.906982
382.183716 10550.207031
382.190826 19356.359375
382.197906 25603.078125
382.204987 25204.005859
382.212067 18277.193359
382.219147 9336.364258
382.226227 2573.8479
382.233337 153.90654
382.687225 528.408081
382.694336 1360.579834
382.701416 1906.635132
382.708527 1895.473633
382.715607 1392.27417
382.722717 448.449768
383.17038 345.379333
383.17749 956.246338
383.184601 1435.089478
383.191711 1503.546387
383.198822 1150.447632
383.205933 376.594727
385.19104 1607.381714
385.198212 6177.373535
385.205353 12264.193359
385.212524 15984.991211
385.219696 14787.923828
385.226868 10002.225586
385.234039 4690.574707
385.241211 1098.78418
385.70047 447.104401
385.707672 1033.484009
385.714844 1446.074585
385.722046 1541.999634
385.729218 1187.358398
385.736389 234.946304
386.182159 6087.350098
386.189362 19966.96875
386.196564 35900.105469
386.203766 45967.65625
386.210938 40343.046875
386.21814 25305.517578
386.225342 9684.472656
386.232544 519.184204
386.239746 71.385262
386.664734 180.225464
386.671967 6030.125488
386.679169 24020.164062
386.686371 48578.347656
386.693573 72278.640625
386.700806 74348.617188
386.708008 49274.101562
386.71521 23046.119141
386.722443 7744.303711
386.729645 2133.417725
386.736847 140.317184
387.169891 881.572388
387.177124 6900.522461
387.184357 20638.181641
387.191589 38587.003906
387.198792 50848.601562
387.206024 46406.207031
387.213257 27575.484375
387.22049 12277.598633
387.227692 2578.692871
388.154205 3937.962891
388.161438 26708.087891
388.168701 78074.15625
388.175934 141919.765625
388.183197 177299.46875
388.19046 145604.984375
388.197693 86953.445312
388.204956 35760.140625
388.212219 10389.21875
388.219452 1828.214966
388.662262 4210.370605
388.669525 12252.72168
388.676819 20567.871094
388.684082 23769.523438
388.691345 19142.824219
388.698608 11213.567383
388.705872 3469.335938
388.713135 89.258133
389.178619 128.466049
389.185913 6464.418457
389.193207 22296.128906
389.20047 42691.566406
389.207764 56300.695312
389.215027 51704.691406
389.222321 34839.222656
389.229584 15741.576172
389.236877 3579.241455
389.688721 365.355591
389.696014 2740.033691
389.703308 6196.407227
389.710602 8987.791992
389.717896 9654.726562
389.725189 7611.157227
389.732483 4221.341797
389.739777 1085.003906
391.188354 1118.180908
391.195679 3642.87793
391.203033 6947.461426
391.210358 9205.347656
391.217712 8563.135742
391.225037 5464.924316
391.232391 1603.394897
392.173279 1578.597046
392.180664 8269.688477
392.188019 21403.599609
392.195374 37810.03125
392.202759 48066.429688
392.210114 42718.089844
392.217468 26597.902344
392.224854 9866.431641
392.232208 1394.587646
392.239563 30.682108
392.681915 1900.792236
392.68927 6410.651367
392.696655 11678.825195
392.704041 15127.642578
392.711426 13373.626953
392.718811 8515.932617
392.726166 3975.117188
392.733551 935.703247
393.702118 673.09137
393.709503 6648.631348
393.716919 15091.8125
393.724335 20372.556641
393.73175 19784.310547
393.739136 14018.265625
393.746552 6918.076172
393.753967 1667.8396
394.689117 3848.60791
394.696564 13901.912109
394.703979 27602.804688
394.711426 45971.300781
394.718872 50298.277344
394.726288 35218.84375
394.733734 18145.919922
394.74118 5811.453613
394.748596 590.166504
395.143036 979.530701
395.150513 3891.744629
395.157959 12493.977539
395.165405 30946.689453
395.172852 49037.386719
395.180298 127934.296875
395.187744 447628.28125
395.19519 1051874.5
395.202637 1787994.25
395.210083 2121087.25
395.217529 1694397.625
395.224976 976743.3125
395.232452 396187.5625
395.239899 117031.554688
395.247345 51677.859375
395.254791 36535.925781
395.262238 22598.748047
395.269684 7832.653809
395.277161 529.63385
395.664917 503.274811
395.672394 5052.576172
395.67984 21308.3125
395.687317 85324.492188
395.694763 234381.734375
395.70224 428295.125
395.709686 556441.5625
395.717163 481007.71875
395.72464 297798.03125
395.732086 127294.03125
395.739563 37195.605469
395.747009 11925.927734
395.754486 3180.887451
396.172882 384.692749
396.180359 5625.39502
396.187836 13908.750977
396.195312 18858.166016
396.202789 18273.074219
396.210266 13129.490234
396.217743 6206.050781
396.22522 1353.134644
399.180695 770.44104
399.188263 5032.438965
399.195831 13555.178711
399.2034 23259.462891
399.210968 28000.548828
399.218506 23911.005859
399.226074 14140.944336
399.233643 5055.583496
399.241211 675.557129
399.695435 2603.072021
399.703003 9226.25293
399.710602 21373.984375
399.71817 35260.316406
399.725739 42255.761719
399.733337 36460.578125
399.740906 22997.820312
399.748474 9486.379883
399.756073 1744.982666
399.763641 99.730309
400.188416 1363.539429
400.195984 3038.404297
400.203583 3770.347656
400.211182 3586.333252
400.218781 3100.116943
400.226349 197.564392
400.682281 1688.200073
400.68988 6623.159668
400.697479 24386.654297
400.705078 49124.488281
400.712708 72151.117188
400.720306 70402.453125
400.727905 47533.027344
400.735504 23768.449219
400.743134 8003.06543
400.750732 2030.657715
401.177063 970.085144
401.184692 10956.092773
401.192291 37056.484375
401.199921 71782.585938
401.20755 100619.515625
401.215149 96148.953125
401.222778 64567.1875
401.230408 29630.789062
401.238007 8016.458984
401.245636 865.377869
401.688019 3902.385254
401.695679 11240.289062
401.703308 21955.939453
401.710938 33062.855469
401.718567 29030.537109
401.726196 18894.230469
401.733826 10005.650391
401.741486 2499.000488
402.674591 1862.531128
402.682251 4914.462891
402.689911 7949.737305
402.697571 9355.162109
402.705231 7848.287109
402.712891 4453.955078
402.720581 1111.723389
403.672485 2416.152344
403.680176 8278.995117
403.687866 20503.199219
403.695557 72978.65625
403.703247 244677.484375
403.710938 496389.9375
403.718628 737953.0
403.726318 737887.875
403.734009 514888.9375
403.741699 252748.5
403.74939 83276.414062
403.75708 19954.367188
403.764771 4430.115234
403.772491 815.065247
403.780182 201.373764
404.188232 1544.835938
404.195923 14721.790039
404.203644 57289.648438
404.211334 124036.015625
404.219055 194156.484375
404.226746 212091.453125
404.234467 159189.6875
404.242157 85142.6875
404.249878 29230.0625
404.257599 4170.099609
404.265289 33.669918
405.687164 894.028137
405.694916 3235.22168
405.702667 5924.731934
405.710419 7595.745117
405.71817 7232.567871
405.725922 4933.700684
405.733673 1607.102661
405.741425 127.93924
406.175751 541.981018
406.183502 4666.047852
406.191254 10969.131836
406.199036 14961.661133
406.206787 14034.216797
406.214539 9308.225586
406.222321 3039.535889
406.230072 226.393845
407.693573 898.963928
407.701385 4021.039307
407.709167 14005.177734
407.71698 26375.806641
407.724792 32850.046875
407.732605 28866.160156
407.740417 18877.435547
407.74823 8470.488281
407.756012 1714.05835
408.201416 1250.204102
408.209229 3495.781738
408.217041 5456.50293
408.224854 5903.932129
408.232697 4625.541016
408.240509 2581.902832
408.248322 628.047668
408.686676 1720.985352
408.694519 11915.118164
408.702362 27413.476562
408.710175 47275.113281
408.718018 46680.027344
408.725861 31920.615234
408.733704 15711.664062
408.741516 4320.93457
408.749359 487.068848
409.164978 5176.52832
409.172821 15116.44043
409.180695 56145.074219
409.188538 174489.1875
409.196381 333213.09375
409.204224 464955.03125
409.212067 435090.8125
409.21991 288953.5625
409.227783 130600.390625
409.235626 36043.078125
409.243469 5491.62793
409.675568 1129.714355
409.683441 13738.551758
409.691284 46520.808594
409.699158 87909.8125
409.707031 126144.828125
409.714874 126702.523438
409.722748 90628.171875
409.730621 47599.402344
409.738464 15687.253906
409.746338 2228.974121
409.754211 49.224873
410.202881 1783.509033
410.210754 4209.675293
410.218628 6010.096191
410.226501 6176.506348
410.234375 4502.73584
410.242249 2234.287109
410.250153 630.128784
413.19693 3706.686523
413.204895 7239.449707
413.21286 8463.631836
413.220825 7731.884766
413.22879 5505.393555
413.236755 1793.969238
413.691162 2967.225586
413.699127 16114.646484
413.707123 44143.019531
413.715088 80142.109375
413.723083 103814.117188
413.731049 91275.992188
413.739044 57766.503906
413.747009 24825.375
413.755005 5604.419922
413.76297 563.281189
414.194244 2512.645752
414.20224 9895.660156
414.210236 27659.224609
414.218231 48020.625
414.226227 53777.914062
414.234222 39656.222656
414.242218 20387.945312
414.250214 7477.162598
414.258209 1218.122925
414.674255 51.712822
414.682251 736.745972
414.690277 7378.480469
414.698273 20451.660156
414.706268 36570.519531
414.714294 47265.308594
414.72229 38457.28125
414.730316 22408.681641
414.738312 10861.916992
414.746338 3410.213867
414.754333 159.424255
415.171112 85.187408
415.179138 3665.57959
415.187164 14032.932617
415.19519 29874.318359
415.203217 51324.816406
415.211243 55554.410156
415.219269 42548.128906
415.227264 23820.617188
415.235291 8083.46582
415.243317 577.901489
416.191711 1350.037109
416.199768 3089.294434
416.207794 4089.291504
416.215851 3686.108154
416.223907 2152.382324
416.231964 558.432251
417.677032 1776.532715
417.68512 13833.882812
417.693207 62443.246094
417.701324 195186.90625
417.709412 371718.53125
417.717499 515503.59375
417.725586 476571.53125
417.733704 313986.71875
417.741791 140087.53125
417.749878 39964.117188
417.757965 8291.056641
417.766083 967.579346
418.187408 8256.645508
418.195526 30479.21875
418.203644 78450.890625
418.211731 140628.109375
418.219849 175015.359375
418.227966 142669.59375
418.236084 83356.710938
418.244171 33385.019531
418.252289 7722.528809
418.260406 756.258789
421.696136 1781.768311
421.704346 5541.222656
421.712555 9857.125
421.720764 11950.994141
421.729004 10139.512695
421.737213 6093.47998
421.745422 1298.47937
421.753632 187.107803
422.205688 3055.11499
422.213928 14215.103516
422.222137 34303.800781
422.230377 55390.15625
422.238586 56615.941406
422.246826 36526.625
422.255066 17587.730469
422.263275 5533.643066
422.271515 1022.324585
422.279724 50.946022
422.699677 1636.53479
422.707916 7066.83252
422.716156 18757.023438
422.724396 31137.974609
422.732666 36336.101562
422.740906 30094.431641
422.749146 17200.806641
422.757385 6556.587402
422.765625 1031.377319
423.219299 6291.500488
423.22757 17749.4375
423.23584 31442.126953
423.24408 40887.621094
423.25235 36393.648438
423.26059 23719.548828
423.26886 9936.304688
423.2771 2012.092407
423.31015 467.868774
423.31839 4361.018555
423.32666 11053.926758
423.33493 16203.664062
423.34317 17153.679688
423.35144 13351.621094
423.35968 7485.086426
423.36795 1911.735107
423.673737 15.068484
423.682007 32983.394531
423.690277 148945.515625
423.698547 458498.6875
423.706818 910380.8125
423.715088 1356487.75
423.723358 1396557.625
423.731628 1006139.5625
423.739899 519242.96875
423.748169 183524.15625
423.756439 42794.316406
423.764709 7195.698242
423.77298 1182.712402
424.178589 1797.165771
424.18689 20279.429688
424.19516 82186.632812
424.203461 201216.015625
424.211731 351429.875
424.220032 444021.46875
424.228302 382162.875
424.236603 240090.421875
424.244873 104338.789062
424.253174 26057.5625
424.261444 2664.26416
424.269745 54.023979
424.700958 2832.092773
424.709259 6250.648926
424.71756 7945.594727
424.725861 7088.794434
424.734161 4504.648926
424.742462 827.373413
427.687653 4665.018066
427.696045 18237.716797
427.704437 53077.828125
427.71283 94121.9375
427.721222 118527.320312
427.729614 94539.21875
427.738007 55501.15625
427.746368 20143.117188
427.754761 4823.991699
427.763153 651.455627
428.199707 1654.438599
428.20813 9076.085938
428.216522 17751.261719
428.224915 23853.003906
428.233337 21129.328125
428.24173 13868.370117
428.250122 4982.861816
428.258545 512.823059
428.679016 27.861336
428.687439 6709.765625
428.695862 19986.679688
428.704254 35531.371094
428.712677 51455.976562
428.7211 50388.71875
428.729523 33952.058594
428.737946 16037.482422
428.746368 5400.787598
428.754761 950.239258
429.184418 2359.079102
429.192841 9476.558594
429.201294 17333.759766
429.209717 20982.685547
429.21814 18412.472656
429.226593 11809.689453
429.235016 2873.821289
429.690704 1635.841064
429.699158 4393.476562
429.707611 6948.608887
429.716064 7911.115723
429.724487 6929.177246
429.732941 4799.425781
429.741394 1833.985962
429.749847 254.826218
430.705994 5857.864746
430.714478 13549.893555
430.722961 18169.736328
430.731415 16853.628906
430.739899 10971.3125
430.748383 2328.85083
431.673859 408.877838
431.682343 7897.290039
431.690857 37517.234375
431.699371 105647.3125
431.707886 187644.1875
431.71637 234951.40625
431.724884 190844.015625
431.733398 111892.28125
431.741882 42934.6875
431.750397 10166.798828
431.758911 1325.099487
431.767426 31.353146
432.18457 2352.019287
432.193085 11207.594727
432.201599 29832.523438
432.210114 56564.574219
432.218628 72155.1875
432.227173 59783.355469
432.235687 34711.097656
432.244202 13598.169922
432.252716 1918.197266
436.190735 2948.580078
436.199371 13100.987305
436.208008 55325.851562
436.216644 174157.9375
436.225281 324026.4375
436.233917 438718.65625
436.242554 384653.53125
436.251221 244846.796875
436.259857 103459.5625
436.268494 30928.244141
436.27713 7008.956055
436.285767 382.821777
436.692169 1046.480469
436.700836 15830.617188
436.709473 69941.929688
436.71814 144444.1875
436.726776 219367.34375
436.735443 221359.828125
436.74411 153683.078125
436.752747 79479.078125
436.761414 27525.716797
436.77005 5750.466797
436.778717 964.298096
437.203156 12738.319336
437.211823 49695.117188
437.22049 115384.421875
437.229156 195909.8125
437.237823 247976.734375
437.24649 220212.46875
437.255157 144676.375
437.263824 68936.28125
437.272491 20111.609375
437.281158 250.862686
437.6716 161.479889
437.680298 8664.0
437.688965 60976.386719
437.697662 209532.671875
437.706329 379858.71875
437.715027 527121.1875
437.723694 456012.65625
437.732391 283680.78125
437.741058 124629.234375
437.749756 40667.90625
437.758453 8520.185547
437.76712 1022.153259
438.175598 910.35321
438.184296 6065.925293
438.192993 33605.140625
438.201691 87294.671875
438.210388 147199.578125
438.219086 171793.421875
438.227783 130094.765625
438.236481 73214.976562
438.245178 24907.990234
438.253876 5070.450684
438.262573 539.795105
441.200378 2452.385986
441.209167 6360.83252
441.217957 9849.414062
441.226746 10860.53125
441.235535 8802.326172
441.244324 5132.22998
441.253113 1099.981689
441.692871 6733.525879
441.701691 23274.763672
441.71048 43407.484375
441.719269 54405.34375
441.728088 43777.625
441.736877 25945.253906
441.745697 10408.618164
441.754486 1725.062012
442.195007 2063.047607
442.203827 7049.554199
442.212646 12270.15918
442.221466 14673.365234
442.230286 10009.980469
442.239105 5456.222168
442.247925 2087.620605
442.256744 323.877136
443.201874 746.55542
443.210724 1439.930786
443.219574 1799.869995
443.228424 1585.246338
443.237274 891.757507
443.246124 167.870193
444.700836 1739.523926
444.709747 3995.06665
444.718628 5640.526367
444.727509 5612.334473
444.73642 3973.088379
444.7453 1901.688354
444.754211 340.55423
445.20813 538.258728
445.217041 6496.525391
445.225952 13495.894531
445.234863 18490.726562
445.243744 19028.341797
445.252655 14452.868164
445.261566 6985.149414
445.270477 1393.07373
450.175049 3127.834961
450.184113 8586.712891
450.193176 24236.783203
450.202209 89860.46875
450.211273 297401.6875
450.220337 585618.8125
450.229401 862666.9375
450.238464 837225.3125
450.247528 570666.125
450.256561 271605.34375
450.265625 88888.5
450.274689 26195.056641
450.283752 14969.606445
450.292816 8825.525391
450.30188 1896.424072
450.682648 146.070435
450.691742 9536.5625
450.700806 46077.511719
450.709869 148866.4375
450.718964 291741.65625
450.728027 431189.34375
450.737091 431241.125
450.746185 304482.3125
450.755249 153667.15625
450.764313 51544.960938
450.773407 7972.742676
450.782471 227.148315
451.191132 1312.886353
451.200226 6764.244141
451.20929 20151.199219
451.218384 41896.820312
451.227478 58183.054688
451.236572 51124.132812
451.245667 31932.115234
451.254761 13302.217773
451.263824 2385.078125
451.272919 103.661324
451.691345 797.270142
451.70047 1619.989502
451.709564 2029.200073
451.718658 1867.802612
451.727783 1317.986572
451.736877 254.754196
452.183289 2258.397705
452.192413 7791.44873
452.201538 15380.991211
452.210663 21010.789062
452.219757 20754.132812
452.228882 15053.914062
452.238007 7893.899414
452.247131 1361.03064
459.165039 3709.126465
459.174377 8729.416016
459.183716 26314.126953
459.193024 40773.648438
459.202362 113999.335938
459.2117 408281.15625
459.221039 970724.75
459.230347 1625193.0
459.239685 1892719.5
459.249023 1436283.5
459.258362 813931.5
459.2677 301293.78125
459.277008 88332.257812
459.286346 38740.238281
459.295685 20289.5625
459.305023 4899.426758
459.314362 412.630524
459.678589 2278.409424
459.687927 9586.205078
459.697296 18922.148438
459.706635 56867.914062
459.715973 188159.203125
459.725311 394005.65625
459.73468 617925.0625
459.744019 650994.4375
459.753357 466496.40625
459.762726 238401.890625
459.772064 81436.945312
459.781403 20422.46875
459.790741 5792.498535
459.80011 1144.335571
459.809448 54.988464
464.187805 4420.091797
464.197296 25383.277344
464.206757 95760.90625
464.216248 195600.34375
464.225739 298382.21875
464.235229 295084.96875
464.24472 199830.015625
464.254181 97773.671875
464.263672 31767.285156
464.273163 6816.962891
464.282654 442.043243
464.681305 8.807049
464.690796 5475.541992
464.700317 30693.228516
464.709808 76353.257812
464.719299 128893.75
464.72879 148054.546875
464.738312 111900.445312
464.747803 64548.78125
464.757294 24239.582031
464.766815 4192.873535
464.776306 302.016907
465.194641 685.541077
465.204132 1870.610107
465.213654 3967.246338
465.223175 4456.576172
465.232697 2737.458984
465.242188 1340.30188
465.251709 215.235947
465.69928 2205.913818
465.708801 5190.140625
465.718323 6930.279785
465.727875 6814.474121
465.737396 5211.244141
465.746918 3032.920166
465.756439 519.820862
472.705139 4580.959473
472.714874 13678.292969
472.72464 29908.896484
472.734375 42145.933594
472.74411 35893.625
472.753876 18339.943359
472.763611 6860.46875
472.773376 970.131348
473.124451 10471.774414
473.134216 2206.305664
473.153748 14862.007812
473.163483 61107.140625
473.173248 258114.140625
473.183014 415758.78125
473.19278 761819.9375
473.202545 2429662.0
473.21228 7814074.5
473.222046 15137226.0
473.231812 22132182.0
473.241577 21077480.0
473.251343 14123672.0
473.261108 6630509.5
473.270874 2180423.5
473.28064 676925.25
473.290375 417670.25
473.30014 224281.078125
473.309906 85214.523438
473.319672 13197.774414
473.651825 10634.043945
473.661621 40626.648438
473.671387 98476.460938
473.681152 162586.40625
473.690948 209805.6875
473.700714 594928.5625
473.71048 2095163.125
473.720276 4611674.5
473.730042 7459417.0
473.739807 8146924.5
473.749603 5857771.0
473.759369 3144252.0
473.769165 1109558.75
473.778931 343158.8125
473.788696 192205.15625
473.798492 126346.78125
473.808258 56118.308594
473.818054 19072.033203
473.82782 2535.944092
473.857178 1913.360718
473.866943 6983.78125
473.87674 20164.882812
473.886505 11117.928711
473.896301 1610.201172
474.209473 2743.462891
474.219269 16213.65625
474.229065 29327.951172
474.238861 36891.871094
474.248627 31533.90625
474.258423 18948.447266
474.268219 5816.090332
474.278015 701.110901
493.230347 472.718353
493.240723 1214.493896
493.251099 1774.922852
493.261505 1681.574463
493.271881 1018.923035
493.282257 130.731735
518.228882 2810.296143
518.240051 4917.13623
518.251282 5827.137695
518.262451 4939.873047
518.273621 2819.155273
518.284851 238.146042
552.874023 1156.628052
552.886353 3148.305664
552.898682 4640.976562
552.911011 4484.639648
552.92334 6761.394531
552.935669 8695.847656
552.947998 12294.677734
552.960327 11823.586914
552.972656 7678.195801
552.984985 997.617981
552.997314 1.796084
570.233765 74.214279
570.246704 3042.575439
570.259583 5428.120117
570.272522 6548.252441
570.2854 5700.740234
570.29834 3576.743652
570.311279 1488.130493
571.255188 37.433437
571.268127 2871.650146
571.281067 6572.73877
571.294006 8756.606445
571.306946 7724.32666
571.319885 4509.043945
574.257568 54.05835
574.27063 1318.396851
574.28363 2096.216553
574.296692 2513.564209
574.309753 2222.681885
574.322815 1378.436523
574.335876 541.502747
590.228394 109.225906
590.241943 1868.634399
590.255554 4379.221191
590.269165 7009.334961
590.282776 8423.50293
590.296387 7488.0
590.309937 4656.450195
590.323547 837.973083
601.257935 343.06308
601.271912 5023.551758
601.285889 8144.450195
601.299866 9505.842773
601.313843 8428.591797
601.32782 5321.491211
602.237671 246.598236
602.251709 3051.354492
602.265747 6692.149414
602.279724 9263.873047
602.293762 8657.642578
602.307739 5429.699707
602.321777 1784.472412
607.243591 293.287872
607.257751 5656.896484
607.271973 18880.205078
607.286133 40771.449219
607.300354 62814.089844
607.314514 62891.683594
607.328735 40780.433594
607.342896 17798.957031
607.357117 5374.944824
607.371277 471.130066
619.237671 2050.710449
619.252319 8120.154297
619.266907 34275.957031
619.281494 82971.414062
619.296143 135514.3125
619.31073 157045.171875
619.325378 115817.429688
619.339966 63745.132812
619.354614 16730.390625
619.369202 1618.889038
619.383789 73.365776
620.261719 166.2202
620.276367 2054.061523
620.291016 8599.845703
620.305664 11433.848633
620.320312 11480.433594
620.334961 8515.597656
620.349609 4157.028809
620.364258 177.47525
636.267151 2033.274536
636.282349 9499.862305
636.297607 33063.75
636.312805 66231.65625
636.328064 98155.546875
636.343262 95727.0
636.358459 60318.695312
636.373718 26081.328125
636.388916 5866.5
637.288025 143.097229
637.303284 1028.925293
637.318481 1759.016724
637.33374 1979.143066
637.348999 1528.674805
637.364258 738.184631
638.265442 242.572525
638.280701 1936.994751
638.296021 4843.905273
638.311279 13120.675781
638.326599 22920.427734
638.341858 30648.515625
638.357178 31640.154297
638.372498 23845.644531
638.387756 13946.511719
638.403076 3720.86792
644.301575 182.464584
644.317078 1187.408203
644.332581 1778.65979
644.348083 1776.356567
644.363586 1210.874512
644.379089 508.81485
672.288269 311.032806
672.30481 1884.490601
672.32135 3620.12915
672.337891 4572.469238
672.35437 4044.097168
672.370911 2287.560547
684.280823 230.036926
684.297852 1131.39978
684.314819 1696.276489
684.331787 1835.838501
684.348755 1478.862671
684.365723 786.996765
700.325378 821.951965
700.342957 4572.84375
700.360535 7723.496582
700.378052 8561.193359
700.39563 6569.433105
700.413208 3148.243896
701.292908 2182.556152
701.310486 11875.529297
701.328125 24798.769531
701.345703 37697.464844
701.363342 37839.132812
701.38092 22199.662109
701.39856 10622.080078
701.416199 3497.81543
702.28009 976.016968
702.297729 7199.951172
702.315369 20494.058594
702.333008 31255.861328
702.350647 33395.746094
702.368286 24367.115234
702.385986 12578.795898
702.403625 4449.464355
705.25415 607.176575
705.271912 2893.924072
705.289673 4819.078613
705.307434 5810.119629
705.325195 5284.76709
705.342957 3693.939697
705.360718 1713.373901
706.303101 148.871017
706.320923 2463.740479
706.338745 10714.46582
706.356506 19924.810547
706.374329 23928.810547
706.392151 19747.716797
706.409912 11168.473633
706.427734 3333.73584
712.249573 451.822235
712.267639 4207.864746
712.285645 15120.996094
712.30365 30830.955078
712.321716 45873.59375
712.339722 41636.207031
712.357727 23764.625
712.375793 10932.105469
712.393799 2085.024658
713.26001 743.646484
713.278076 4616.477051
713.296143 10922.138672
713.314209 15278.959961
713.332275 14649.641602
713.350342 9487.476562
713.368408 3602.766357
713.386475 49.547112
718.289734 910.41156
718.307983 6342.141602
718.326233 18807.791016
718.344482 39644.992188
718.362732 57526.398438
718.380981 58930.542969
718.399231 40407.144531
718.417542 20156.763672
718.435791 4402.612793
719.313049 1651.820679
719.331299 8231.760742
719.349609 16961.849609
719.36792 24315.359375
719.38623 21367.052734
719.40448 12846.850586
719.422791 5277.592773
719.441101 1019.301331
730.247131 336.902405
730.265869 3701.599121
730.284607 14307.053711
730.303284 38635.066406
730.322021 66292.203125
730.340698 82204.859375
730.359436 65249.980469
730.378174 36157.3125
730.396851 12029.874023
730.415588 2071.350098
731.277344 966.957642
731.296143 4094.525146
731.31488 6768.138672
731.333618 8453.84082
731.352356 7988.175781
731.371155 5456.131348
731.389893 2325.07959
735.306702 178.741272
735.325562 3690.77417
735.344482 17694.96875
735.363403 42198.539062
735.382324 66453.585938
735.401245 79028.382812
735.420105 62379.535156
735.439026 35304.292969
735.457947 11644.923828
735.476868 1359.54541
740.24707 958.296448
740.266174 4625.975098
740.285278 9231.736328
740.304382 12649.802734
740.323425 12513.942383
740.342529 9012.652344
740.361633 3977.33252
745.314575 191.891724
745.333862 848.483276
745.353149 1602.750366
745.372437 2100.989258
745.391724 2007.1427
745.411072 1418.690186
745.430359 643.639404
746.318848 861.57074
746.338196 3344.729248
746.357483 4911.322266
746.376831 5035.133301
746.396179 3574.019531
746.415527 1554.636963
747.228333 292.156281
747.247681 4024.273193
747.267029 12180.200195
747.286438 29319.707031
747.305786 95963.320312
747.325134 252418.21875
747.344543 444006.3125
747.363892 579357.875
747.383301 494247.15625
747.402649 290382.0625
747.421997 117644.226562
747.441406 27528.644531
747.460754 5721.999512
748.275269 662.725647
748.294678 7488.95166
748.314087 29801.960938
748.333496 73284.015625
748.352905 118266.765625
748.372314 141931.90625
748.391724 109607.554688
748.411133 60925.640625
748.430542 19316.246094
748.449951 2351.63623
757.264038 151.797195
757.283752 1561.106201
757.303528 4635.705078
757.323303 6656.881348
757.343079 6951.464355
757.362793 5433.717285
757.382568 2833.195312
757.402344 522.319641
758.25293 664.232056
758.272766 5889.677734
758.292542 18336.416016
758.312378 32145.607422
758.332153 41695.835938
758.351929 37470.339844
758.371765 22913.931641
758.391541 9654.320312
758.411377 1862.737915
759.263672 575.49646
759.283508 2195.386719
759.303345 3748.580811
759.323181 5087.567871
759.343018 5164.330078
759.362854 3786.530762
759.38269 1612.664062
759.402527 720.389771
763.326782 377.054108
763.346802 1279.593994
763.36676 1675.989624
763.38678 1618.803345
763.406799 1231.323608
763.426758 595.724609
772.344666 1307.908691
772.36499 4607.122559
772.385376 6483.87207
772.405701 6191.689941
772.426086 3821.639404
772.446411 1209.772705
774.302185 2440.671143
774.322632 11127.512695
774.343079 25365.693359
774.363525 40739.863281
774.383911 42010.273438
774.404358 27279.640625
774.424805 12417.59082
774.445251 4376.219727
775.242859 506.187775
775.263306 4842.390137
775.283752 22520.220703
775.30426 73222.546875
775.324707 165449.59375
775.345215 253917.546875
775.365662 279905.28125
775.386108 203778.125
775.406616 107228.132812
775.427063 32583.447266
775.447571 5075.777344
775.468018 126.255211
776.267212 396.605896
776.28772 4764.379883
776.308228 18790.912109
776.328735 40143.085938
776.349243 58381.402344
776.369751 59809.320312
776.390259 41431.835938
776.410828 20697.244141
776.431335 5575.727051
776.451843 26.252764
783.307922 954.700073
783.328735 3683.988281
783.349487 6286.906738
783.3703 7513.023926
783.391052 6728.404785
783.411865 4593.085449
783.432678 2170.496582
783.45343 453.474121
789.329224 844.925293
789.35022 6178.071777
789.371277 17150.734375
789.392273 27982.324219
789.41333 33106.460938
789.434387 27742.730469
789.455383 16566.115234
789.47644 6471.478516
789.497437 1291.199463
790.360596 332.286469
790.381653 1184.60022
790.40271 1863.95105
790.423767 2068.927002
790.444824 1684.814819
790.465942 971.544922
790.487 319.954376
791.309509 1081.934448
791.330627 5718.60498
791.351746 13784.24707
791.372864 21532.787109
791.393982 23817.433594
791.415039 18562.152344
791.436157 10215.393555
791.457275 3416.522217
797.722473 2059.788818
797.743835 7009.39209
797.765198 9810.647461
797.78656 9311.583008
797.807983 5964.76709
797.829346 2088.904297
800.335266 257.666412
800.35675 2021.347656
800.378235 5716.51123
800.399719 8793.924805
800.421143 8961.760742
800.442627 6027.361328
800.464111 2513.681152
800.485596 489.00647
801.302246 551.633728
801.323792 2697.151855
801.345276 6107.342285
801.366821 9142.34082
801.388306 10198.647461
801.40979 8908.1875
801.431335 6246.930664
801.45282 3361.32959
801.474365 1005.829529
802.314087 655.038635
802.335632 2363.737793
802.357178 4085.119141
802.378723 5316.333496
802.400269 5187.622559
802.421875 3704.343018
802.44342 1810.268433
802.464966 123.447952
806.337219 55.749947
806.358887 3645.165283
806.380615 15569.429688
806.402344 36384.347656
806.424072 58042.328125
806.44574 66406.5
806.467468 48678.226562
806.489197 25408.101562
806.510925 6749.641602
806.532654 163.237564
817.325439 203.441528
817.347595 849.193359
817.369751 1822.680176
817.391907 3377.048584
817.414062 4235.862305
817.436218 2948.74707
817.458374 1459.213135
817.48053 468.78186
818.301147 2227.24707
818.323364 14994.967773
818.34552 51049.5625
818.367737 111134.46875
818.389954 166927.734375
818.41217 177931.390625
818.434326 126397.234375
818.456543 65039.25
818.47876 19703.701172
818.500977 3308.141602
819.32312 2243.992188
819.345337 10520.787109
819.367615 23023.587891
819.389832 33592.878906
819.412109 34729.210938
819.434326 24948.46875
819.456543 12117.588867
819.478821 2921.55542
819.501038 297.563202
829.309143 1380.408447
829.331787 6582.784668
829.354431 15367.225586
829.377136 24763.626953
829.39978 28841.355469
829.422424 23263.308594
829.445068 13106.81543
829.467712 4817.754395
829.490356 733.256226
834.359375 4512.494141
834.382202 18745.222656
834.40509 37666.851562
834.427917 50275.578125
834.450806 44776.046875
834.473633 25288.453125
834.496521 8736.040039
834.519348 1597.078003
844.343201 1929.86499
844.366455 9718.740234
844.389709 21366.039062
844.412964 27801.109375
844.436218 23119.863281
844.459534 12588.636719
844.482788 4411.868652
845.321106 450.381836
845.344421 3123.949219
845.367737 7667.201172
845.391052 11603.140625
845.414368 12585.135742
845.437622 8840.083008
845.460938 3602.266602
845.484253 371.647461
846.30072 5319.093262
846.324097 40235.554688
846.347412 141051.71875
846.370789 303739.71875
846.394104 469698.78125
846.41748 538374.875
846.440857 427180.8125
846.464172 247618.84375
846.487549 99928.671875
846.510864 21120.837891
847.305481 1218.783936
847.328857 11822.1875
847.352234 44681.128906
847.37561 96292.9375
847.398987 145378.65625
847.422424 157134.421875
847.445801 119653.28125
847.469177 66904.140625
847.492615 23836.917969
847.515991 4075.734619
857.332825 1232.400391
857.356628 4025.881592
857.380432 6653.583496
857.404236 7985.492188
857.42804 7125.931152
857.451843 4775.180664
857.475647 1851.524536
862.305298 2673.283447
862.329285 13300.822266
862.353333 57640.3125
862.377319 150883.015625
862.401367 267163.65625
862.425354 331773.75
862.449402 277139.53125
862.473389 161664.8125
862.497437 66820.179688
862.521423 17896.986328
862.545471 4163.563965
863.314636 647.105713
863.338684 5060.760742
863.362732 18592.427734
863.38678 44605.984375
863.410828 73692.875
863.434875 86427.90625
863.458923 66268.0
863.482971 34766.589844
863.50708 10860.797852
863.531128 993.186523
874.289795 271.763824
874.314331 4720.958008
874.338806 23063.863281
874.363342 76021.078125
874.387878 163848.421875
874.412354 244514.6875
874.43689 256031.34375
874.461426 180008.296875
874.485901 90044.617188
874.510437 25650.916016
874.534973 3644.743652
875.320251 35.186543
875.344788 5000.017578
875.369324 21085.972656
875.393921 43727.039062
875.418457 62538.074219
875.442993 61805.21875
875.46759 42711.898438
875.492126 20527.445312
875.516724 4912.081055
END IONS
