BEGIN IONS
PEPMASS=898.63
CHARGE=1
MSLEVEL=2
SOURCE_INSTRUMENT=LC-ESI-qTof
FILENAME=f.MSV000079140/ccms_peak/Dark/B2-2 dark/EA/B2-2DEA-H13.mzXML;
SEQ=*..*
IONMODE=Positive
ORGANISM=GNPS-LIBRARY
NAME=Dereplicator Identification - E'Surugamide_C' M+H
PI=Pieter Dorrestein
DATACOLLECTOR=Liangyu Chen
SMILES=CC[C@H](C)[C@@H]1NC(=O)[C@@H](C)NC(=O)[C@@H](NC(=O)[C@@H](CC(C)C)NC(=O)[C@@H](CC2=CC=CC=C2)NC(=O)C(NC(=O)[C@H](CCCCN)NC(=O)[C@H](NC1=O)[C@H](C)CC)C(C)C)[C@@H](C)CC
INCHI=
INCHIAUX=
PUBMED=
SUBMITUSER=chenliangyu
TAGS=
LIBRARYQUALITY=3
SPECTRUMID=CCMSLIB00000839205
SCANS=745
185.132706 732.0
197.161972 604.0
199.181244 972.0
213.164322 352.0
227.179642 1404.0
228.174545 628.0
233.168167 1204.0
239.179749 440.0
242.188232 2560.0
247.150635 1472.0
248.154282 512.0
253.201569 880.0
256.173279 344.0
261.16507 5724.0
262.170654 1292.0
270.193909 572.0
284.203369 2692.0
285.215912 504.0
287.191589 768.0
298.219116 6416.0
299.223328 1748.0
301.2323 668.0
313.229004 968.0
315.216309 428.0
318.187927 852.0
323.243683 408.0
326.249878 460.0
327.276917 640.0
329.229858 1392.0
330.228607 336.0
332.206451 1432.0
333.212341 420.0
337.263 496.0
338.261627 388.0
340.26767 496.0
341.234192 1036.0
352.266602 1164.0
355.28006 1224.0
360.234741 3800.0
361.234406 688.0
366.287445 592.0
369.287354 1720.0
370.287415 332.0
374.255585 6556.0
375.256866 1800.0
376.25293 340.0
383.291199 692.0
386.254974 368.0
389.266388 452.0
397.289856 2644.0
398.298279 436.0
400.265442 1112.0
403.270844 644.0
409.296814 348.0
411.305084 1656.0
412.300598 1096.0
413.30777 800.0
414.311768 2528.0
415.313324 820.0
417.278015 896.0
426.318726 864.0
428.297852 500.0
429.304993 356.0
431.274323 2056.0
432.289429 432.0
436.327271 392.0
442.307495 596.0
445.294891 3308.0
446.2948 1456.0
450.340363 412.0
454.339935 1340.0
459.337158 556.0
460.333466 676.0
465.351654 564.0
471.319641 408.0
473.32019 700.0
474.340546 932.0
475.809631 420.0
485.331604 356.0
487.334137 712.0
488.332397 852.0
497.383026 428.0
499.342163 540.0
500.343872 472.0
502.350159 1240.0
503.357971 352.0
507.374725 1044.0
508.370087 360.0
510.380524 688.0
513.352905 584.0
514.359863 336.0
516.354919 1068.0
517.362183 528.0
525.384644 2004.0
526.386108 588.0
530.366394 660.0
531.381165 408.0
539.405518 832.0
544.358765 1984.0
545.371704 380.0
556.396423 368.0
558.380798 1352.0
559.377808 1428.0
573.410217 724.0
583.39978 416.0
587.436951 340.0
593.442078 380.0
600.435547 344.0
601.41272 876.0
602.416016 996.0
612.4245 412.0
615.435181 1320.0
620.457153 668.0
627.421448 396.0
629.4375 936.0
638.475647 1192.0
639.476746 640.0
643.437866 596.0
644.45636 476.0
657.446411 1712.0
658.457031 636.0
671.452759 380.0
672.455444 1480.0
673.469482 664.0
686.470886 1796.0
687.478577 500.0
700.452332 340.0
714.50531 844.0
715.504761 420.0
725.505066 392.0
740.517273 680.0
741.534119 344.0
742.526428 516.0
752.548706 340.0
757.561462 392.0
758.556946 384.0
770.531128 2448.0
771.533936 1184.0
772.541565 368.0
785.545166 2224.0
786.55011 1096.0
787.553406 360.0
799.561218 796.0
814.549377 336.0
870.626404 1236.0
871.637085 796.0
872.64801 592.0
880.622375 592.0
881.615967 356.0
898.632019 89408.0
899.634705 46520.0
900.635681 13736.0
901.641479 2552.0
END IONS
