BEGIN IONS
PEPMASS=1174.64
CHARGE=1
MSLEVEL=2
SOURCE_INSTRUMENT=LC-ESI-qTof
FILENAME=3781_1174.mzXML
SEQ=*..*
IONMODE=Positive
ORGANISM=GNPS-LIBRARY
NAME=Stenothricin H M+H
PI=Dorrestein
DATACOLLECTOR=Peng
SMILES=CC1OC(CN(C(C(NC(C(NC(C(NC(/C(NC(C(NC(C(NC(C1NC(C(NC(CC(CCCCCCCCC(C)CCCCC)=O)=O)CS(O)(=O)=O)=O)=O)CO)=O)CN)=O)=C/C)=O)C(C)C)=O)CO)=O)CCCCN)=O)C)=O
INCHI=InChI=1S/C52H91N11O17S/c1-8-10-15-20-32(5)21-16-13-11-12-14-17-22-34(66)25-41(67)55-40(30-81(77,78)79)49(73)62-44-33(6)80-42(68)27-63(7)52(76)36(23-18-19-24-53)57-47(71)38(28-64)59-50(74)43(31(3)4)61-45(69)35(9-2)56-46(70)37(26-54)58-48(72)39(29-65)60-51(44)75/h9,31-33,36-40,43-44,64-65H,8,10-30,53-54H2,1-7H3,(H,55,67)(H,56,70)(H,57,71)(H,58,72)(H,59,74)(H,60,75)(H,61,69)(H,62,73)(H,77,78,79)/b35-9-
INCHIAUX=N/A
PUBMED=N/A
SUBMITUSER=y6peng
TAGS=
LIBRARYQUALITY=2
SPECTRUMID=CCMSLIB00000075076
SCANS=1
329.198547 0.281217
330.150604 0.490314
333.327759 0.607763
340.404633 0.787575
341.316864 1.804902
342.199524 1.149239
349.975983 1.279837
355.189697 1.577347
356.211639 0.976899
358.170502 3.74771
360.534821 0.494636
363.240601 0.879805
366.437988 0.500418
367.478729 0.269689
368.684662 0.926213
369.938599 0.787241
371.263214 0.176038
373.071228 0.289834
378.088593 0.787376
381.335541 0.181584
383.319153 4.483392
384.426422 1.114421
393.307892 1.497782
394.132141 1.079754
395.462189 0.917761
404.350891 3.579496
407.351807 0.309244
410.105896 0.797424
411.280396 0.28628
421.250305 3.831161
422.63089 0.308821
423.493805 0.21606
425.595001 0.145429
428.601501 5.52175
429.262024 7.817891
430.379089 0.871754
434.489716 0.777256
439.105408 0.572917
443.416199 1.294474
447.392975 0.216768
449.271759 0.396178
455.311737 0.736376
457.340454 13.75467
458.045685 1.176896
467.289581 0.610816
469.295898 1.703377
470.273315 1.672932
471.358337 1.517522
474.486572 1.12795
475.543488 1.269213
479.497009 0.640598
481.247894 0.326485
483.100342 1.89691
484.975922 0.732945
487.240356 11.464569
488.247742 0.502575
489.27533 0.300425
490.317322 0.18613
491.512329 0.219823
493.447815 0.431524
500.071747 0.691838
502.291321 2.022838
503.379181 1.224584
504.130188 1.425849
507.06781 1.581474
508.761261 0.19591
510.670776 1.920547
511.27948 1.858546
512.761658 0.395142
515.220337 0.272924
516.267578 0.80247
518.419128 2.158933
519.251343 0.420893
520.562744 0.658399
524.380005 1.951156
526.134583 3.369423
528.697937 0.276721
529.796448 3.073287
536.351624 0.934026
538.300415 1.421375
539.284485 0.733894
540.148376 0.671009
541.094727 0.341761
542.164795 1.919552
544.261658 10.575801
546.366028 0.366387
549.469055 0.489823
551.260376 1.085117
553.199951 0.285412
554.230957 1.469574
556.251709 2.290087
558.636597 1.73255
561.310242 1.674532
562.266235 0.497033
563.249023 0.396219
564.234436 0.706375
567.384033 0.587356
571.357788 4.688887
573.407959 0.590054
574.351074 1.715233
577.006042 0.38699
579.584839 1.175375
580.344727 1.41195
581.278931 1.31246
583.773804 3.4143
584.554565 0.429423
587.446533 2.312921
588.122437 1.976734
588.888062 0.51959
590.30072 3.213982
592.178955 0.795522
593.194336 0.614132
594.249695 3.190853
596.505066 1.032185
597.243408 1.084105
599.435913 0.652565
600.29541 0.872044
601.999878 4.024381
603.131348 0.536197
604.386597 0.800097
607.426636 4.280212
608.345337 0.395214
610.173706 0.108141
612.259644 1.971212
613.338074 2.483806
616.627197 0.890853
617.295105 0.216655
619.525391 1.285155
621.365784 0.396774
622.204468 1.462139
624.377197 1.076593
625.288696 0.785285
627.98645 1.025535
630.432251 2.545258
631.315918 4.802518
634.139954 0.804501
636.537964 1.976123
638.247314 1.628138
639.310791 1.478885
642.624695 0.253506
643.644714 0.196231
644.882935 2.500567
648.370117 1.222894
650.213928 0.902933
654.502319 0.934976
655.329346 0.343727
657.326599 0.517746
659.28241 1.468925
660.447876 7.798649
663.943848 0.285183
665.069458 0.325759
667.432739 0.179166
670.357422 0.323765
671.192017 2.90601
672.364136 25.766565
674.378967 5.670465
675.220764 0.661767
676.355286 1.852631
677.437256 1.020972
679.732605 2.939174
680.580017 0.678672
681.784302 1.041411
683.481506 1.129501
685.331055 2.994385
686.044678 1.425647
686.847229 2.883082
687.614258 1.910079
688.360474 2.075618
691.170959 2.143969
693.270447 2.57546
695.258423 0.28695
696.42041 2.808854
699.436768 0.376346
702.007812 2.833122
703.576172 0.196024
705.108276 0.947941
706.439575 1.109254
707.490112 0.124332
708.925293 2.674506
709.646851 1.232054
713.339294 5.206929
714.129578 1.961611
715.251343 0.31063
716.49176 1.110725
718.170166 0.561855
719.559937 0.507975
722.638794 0.582835
723.315796 1.435753
724.338257 4.382971
725.894775 5.281093
726.765869 0.893908
727.896118 0.678574
733.296753 0.559548
734.328247 0.803748
735.691406 1.287552
737.441162 0.992551
739.721313 2.612813
740.558838 1.356267
741.438599 0.454248
742.309937 3.413079
743.345886 3.961875
744.143188 2.53844
745.395386 2.791535
747.40271 0.230052
748.816345 0.400269
750.204041 0.471012
752.328735 8.502655
753.286499 4.147823
754.168457 3.492798
755.401794 0.856418
756.142029 2.561713
757.326538 4.029499
758.207947 2.368825
759.240356 3.316939
759.846313 0.605357
761.232483 23.691532
761.977905 0.803959
763.303894 1.060313
764.191589 1.044951
766.52771 0.374771
767.672791 0.213534
769.367432 7.505836
770.307983 9.169199
771.242126 5.202713
774.173889 1.694704
775.288086 4.71249
776.400513 2.186676
777.374939 4.983537
781.526611 0.460201
788.492676 0.415529
789.248779 0.878925
790.407959 2.708294
791.355957 0.904548
792.022888 1.739523
793.334595 0.806631
795.402283 4.91206
797.063538 1.093123
798.405701 1.068717
800.277588 1.447894
803.319458 2.09621
804.278259 0.62013
806.387268 3.537519
807.413574 1.171348
808.358459 0.384872
809.581909 2.542415
813.292236 2.291271
814.457092 1.431185
815.355225 1.527996
816.529663 0.731881
817.494263 0.568655
819.103516 1.644567
820.508545 1.397195
822.374512 2.429005
823.004517 1.538328
824.289429 8.049608
825.17041 0.341232
826.432007 1.674062
828.370117 1.567137
829.250977 0.887913
830.177246 1.588185
831.580688 4.837123
833.679443 1.189757
834.349731 4.226041
835.030884 0.725442
836.298706 1.183466
839.3302 4.263159
840.426636 5.027918
841.562988 4.802649
842.259399 58.624889
843.33667 1.119797
844.49939 1.090992
845.272339 0.429864
846.640137 0.826499
847.562866 2.528512
848.256958 2.112795
851.227051 1.307763
852.515869 3.460154
853.426636 1.942404
854.607544 1.675309
855.521484 0.560015
856.494019 1.22849
857.705444 1.826196
858.454346 6.859626
859.312866 1.722379
860.188721 1.248186
861.359619 1.32625
862.401001 3.751186
863.418091 3.493322
864.374268 1.869497
865.357544 9.483918
867.296387 0.146639
868.472412 1.904803
869.680786 18.536674
870.419678 70.256424
871.400269 3.808628
872.42749 5.393091
873.233643 1.258926
874.549683 2.050054
875.309204 0.579161
876.230591 1.877545
877.196899 5.309968
878.059204 0.639411
878.676025 0.977313
879.829346 0.671083
880.545044 1.697868
881.623291 1.308906
884.50647 0.348108
885.570679 6.388765
886.329712 0.590721
888.916382 1.385388
890.307373 19.507978
891.323486 7.107238
892.217651 0.668859
893.735229 1.430851
894.442505 3.595996
895.177979 5.598833
896.109253 1.373457
902.119019 5.203049
903.348145 3.021986
904.278931 3.16155
905.208862 3.287383
906.156982 7.904358
907.177979 8.148909
908.380859 97.922607
909.323364 1.356161
910.686157 1.362648
911.292358 0.996979
913.250854 0.822503
914.289673 0.380755
916.272339 4.074949
917.065552 2.658662
918.268433 7.041584
919.286255 2.964689
920.291138 33.614323
921.410889 27.065451
922.299561 14.173354
924.177246 0.378367
925.220459 0.806537
927.338989 1.130215
928.673584 3.520269
929.390259 0.487517
930.38562 1.025101
931.554565 5.478184
933.421387 1.421219
934.501343 3.520905
935.445435 5.975518
936.470337 3.265021
938.418213 1.92116
939.404297 11.675564
940.5802 4.302449
941.604126 3.06093
942.426392 0.626103
943.146973 2.294747
944.632324 0.729296
945.399292 2.089255
946.607788 3.109015
947.625122 0.711097
948.675659 0.723918
950.059692 0.704633
951.174438 0.561392
952.094238 0.854596
954.467041 0.757554
955.531128 0.843886
956.349365 4.503867
957.380493 31.707382
958.440674 3.387498
959.276978 3.678502
962.519165 1.134438
963.458252 0.373548
964.7948 0.450112
965.609131 0.427535
967.650269 1.2934
968.503662 0.696169
969.91272 3.166819
970.660034 0.189799
972.260254 3.443247
973.355469 0.56567
974.231079 2.915725
979.41272 0.580323
980.602051 0.472529
982.168091 1.078003
985.365601 10.958447
987.050049 2.103996
987.711182 0.368165
989.57019 2.213087
990.625 1.379126
991.24939 1.597703
992.3302 0.771687
993.195679 1.511046
999.098389 1.06603
1001.358643 1.356847
1002.083374 2.266758
1002.840454 2.299308
1003.48877 1.879672
1004.525146 4.655555
1006.235229 1.324942
1007.948608 0.318336
1010.555054 0.496216
1013.0177 1.626459
1014.556885 0.327347
1015.599731 0.404509
1016.9552 2.703593
1017.562988 0.725221
1020.385742 0.213857
1022.562866 0.497989
1025.738647 1.391477
1027.031738 0.886155
1028.117798 2.264775
1028.885742 0.342461
1030.321167 1.382574
1031.516602 0.405466
1032.315552 0.282374
1033.272217 0.539856
1034.302368 0.437095
1035.481079 0.950139
1038.2677 1.204352
1039.539917 0.360002
1042.918701 1.82314
1044.379639 0.572331
1045.06958 1.73665
1045.687622 5.00873
1046.813843 1.88714
1047.596436 2.118655
1048.294678 0.689677
1049.383423 2.683466
1050.35083 0.433386
1054.70459 1.41886
1055.884033 0.69467
1056.585327 0.932852
1057.300781 1.104328
1058.163086 4.055639
1059.417847 3.197978
1062.085327 2.288384
1063.353271 2.80562
1065.262817 0.65918
1066.419189 4.938452
1067.412354 11.453578
1068.555054 0.1417
1069.374023 2.505728
1070.523682 1.251455
1073.680054 3.063653
1074.473999 5.389685
1075.394531 2.994921
1076.305054 0.846342
1077.408325 1.954609
1079.542236 3.815522
1080.330688 1.424477
1082.374268 0.262969
1083.511963 3.468386
1084.237549 4.500863
1085.481689 24.181545
1086.751221 2.85903
1087.755249 0.854196
1088.802368 2.499949
1089.563721 0.714065
1090.457642 2.290302
1091.791138 9.320473
1092.540649 12.901848
1094.452393 0.294455
1095.532227 3.59338
1096.202881 0.604927
1096.872803 0.787151
1098.493042 1.250406
1099.214722 1.827968
1100.285156 2.976951
1101.411133 2.635393
1102.698486 0.195283
1103.430908 1.441879
1104.499512 0.974037
1105.762207 0.555728
1107.850098 1.770038
1109.440308 1.932543
1110.17627 1.879273
1111.49353 1.86175
1112.216553 3.380786
1113.453979 7.647046
1114.449097 0.531081
1115.663696 1.04841
1116.292114 0.57792
1117.727783 1.455671
1119.752563 1.132165
1120.44812 0.970051
1121.789307 5.331603
1122.814697 3.305136
1124.196533 6.688285
1125.357056 3.456578
1126.336426 5.424593
1127.303589 2.911452
1128.02002 2.226197
1128.79248 6.141177
1129.509033 16.9662
1130.551636 14.541537
1131.383423 30.568943
1132.934204 1.159619
1134.418213 2.464659
1136.35022 5.594476
1138.289062 57.277935
1139.578735 8.486806
1141.15271 3.322177
1142.112061 0.632537
1143.432617 10.502701
1144.410034 5.620338
1145.616821 10.208515
1146.678223 7.157146
1147.496704 0.828127
1148.551758 0.409628
1150.030884 2.142768
1150.704102 1.063091
1151.515869 3.346874
1154.422119 25.903866
1155.456665 38.605618
1156.437012 83.761589
1157.447876 10.865131
1159.003906 1.730638
1161.60498 3.023092
1163.543579 3.653421
1164.490234 2.139179
1174.139404 1.026828
1175.489502 2.275894
1176.478271 0.690248
1177.247192 4.261476
1178.611694 0.495705
1180.223267 0.254107
1183.246216 1.044883
END IONS
