BEGIN IONS
PEPMASS=1279.81
CHARGE=1
MSLEVEL=2
SOURCE_INSTRUMENT=LC-ESI-qTof
FILENAME=f.amcaraballor/DorresteinLab_AMCR_2018/2018_02_12_NSF_FGA_Plates1_2_mzXML/PD-FGA-21_BD2_01_8377.mzXML;
SEQ=*..*
IONMODE=Positive
ORGANISM=GNPS-LIBRARY
NAME=Putative orfamide E M+H
PI=Dorrestein
DATACOLLECTOR=amcaraballor
SMILES=O=C(NC(C(NC(C(NC1C(C)OC(C(C(C)C)NC(C(CO)NC(C(CC(C)C)NC(C(CC(C)C)NC(C(CO)NC(C(CC(C)C)NC(C(C(C)C)NC1=O)=O)=O)=O)=O)=O)=O)=O)=O)CCC(O)=O)=O)CC(C)C)CC(O)CCCCCCCCCcc
INCHI=InChI=1S/C63H110N10O17/c1-15-16-17-18-19-20-21-22-23-24-41(76)31-49(77)64-43(27-34(2)3)55(81)65-42(25-26-50(78)79)54(80)73-53-40(14)90-63(89)52(39(12)13)72-60(86)48(33-75)70-57(83)45(29-36(6)7)66-56(82)44(28-35(4)5)67-59(85)47(32-74)69-58(84)46(30-37(8)9)68-61(87)51(38(10)11)71-62(53)88/h15,34-48,51-53,74-76H,1,16-33H2,2-14H3,(H,64,77)(H,65,81)(H,66,82)(H,67,85)(H,68,87)(H,69,84)(H,70,83)(H,71,88)(H,72,86)(H,73,80)(H,78,79)
INCHIAUX=
PUBMED=N/A
SUBMITUSER=amcaraballor
TAGS=
LIBRARYQUALITY=3
SPECTRUMID=CCMSLIB00004679302
SCANS=2773
155.120346 111.0
185.162384 87.0
206.119949 89.0
211.251587 46.0
227.175232 48.0
268.136322 29.0
282.200562 63.0
283.184265 64.0
296.19455 67.0
310.268036 87.0
311.285004 45.0
312.161072 106.0
313.157745 69.0
314.19809 105.0
314.223907 102.0
318.195831 82.0
330.168213 58.0
338.269073 486.0
339.278381 185.0
340.278961 74.0
351.185608 94.0
359.230927 60.0
369.205475 53.0
371.005768 81.0
383.169769 72.0
383.230652 67.0
387.231659 36.0
399.244385 49.0
401.199768 93.0
401.238159 93.0
409.298523 63.0
413.275299 106.0
415.272552 53.0
417.104401 83.0
417.190582 100.0
417.218933 82.0
425.240265 123.0
427.291748 290.0
427.371948 55.0
428.254883 87.0
428.300598 47.0
441.501282 92.0
444.255035 61.0
446.296936 60.0
461.253784 33.0
466.272308 56.0
467.300079 66.0
467.350677 72.0
468.310822 116.0
470.266418 33.0
472.022339 33.0
483.307404 40.0
485.256195 39.0
486.34021 96.0
487.513092 31.0
489.248871 47.0
492.08429 81.0
496.311523 117.0
500.211914 58.0
500.308502 189.0
501.307037 61.0
502.287598 82.0
508.348297 47.0
512.26886 112.0
512.305359 55.0
514.355713 50.0
515.326172 80.0
516.272217 74.0
517.278564 45.0
518.316895 215.0
519.314636 49.0
520.36853 26.0
526.362732 38.0
530.281799 97.0
530.351562 65.0
533.377869 48.0
540.369446 54.0
550.250549 51.0
550.342163 648.0
550.794067 74.0
551.359619 265.0
551.433105 81.0
552.354736 191.0
554.885071 31.0
555.747742 67.0
556.354187 75.0
568.35614 180.0
574.343079 54.0
574.839294 77.0
575.513672 65.0
578.360229 65.0
580.372986 31.0
582.558716 63.0
583.384644 55.0
584.331421 45.0
585.284058 57.0
585.333984 57.0
585.378479 49.0
590.330811 107.0
590.509583 34.0
591.388428 48.0
593.390808 69.0
593.842773 51.0
595.391785 60.0
597.376648 74.0
601.443787 63.0
602.35791 79.0
603.476868 57.0
606.320679 58.0
608.267517 106.0
611.351074 57.0
613.040161 57.0
613.394836 334.0
614.402527 251.0
617.26825 68.0
618.406555 65.0
619.191467 64.0
621.340149 53.0
621.419617 105.0
625.35022 87.0
625.388916 66.0
627.370972 56.0
627.401855 43.0
629.356995 53.0
630.352722 66.0
631.402954 755.0
632.055969 41.0
632.360535 58.0
632.413635 431.0
634.05658 33.0
634.42981 59.0
636.605652 58.0
639.616455 49.0
643.35144 110.0
649.420593 935.0
650.278564 80.0
650.411133 554.0
651.028687 31.0
651.437073 144.0
652.224609 28.0
652.417236 49.0
652.471436 58.0
652.633179 38.0
653.42572 84.0
654.51532 45.0
658.708496 81.0
666.38092 64.0
667.426636 290.0
667.518311 72.0
668.432983 142.0
670.445312 64.0
672.413696 47.0
676.892761 59.0
678.42688 81.0
679.651611 49.0
681.477783 31.0
682.421448 114.0
682.528992 77.0
682.630005 52.0
686.452576 64.0
688.39624 51.0
699.376648 71.0
700.429321 100.0
700.485596 34.0
708.301208 40.0
712.399658 67.0
712.47168 66.0
724.410522 121.0
730.447571 257.0
730.472046 283.0
731.386719 91.0
731.443542 38.0
731.487305 141.0
731.566895 70.0
732.928162 30.0
737.460938 66.0
737.518433 45.0
738.453979 91.0
742.3349 38.0
743.439331 86.0
743.493042 27.0
744.471741 168.0
747.440063 49.0
751.472656 49.0
752.459106 86.0
755.46167 44.0
758.983154 46.0
762.506592 269.0
763.495483 262.0
764.513794 51.0
766.497314 52.0
766.744324 65.0
767.364319 65.0
768.511658 49.0
777.486084 59.0
779.478027 37.0
780.51825 433.0
781.463684 47.0
781.51123 222.0
782.530884 146.0
785.438171 64.0
786.479126 44.0
793.445068 32.0
794.537598 37.0
795.504822 381.0
795.602905 54.0
796.492004 139.0
796.578918 36.0
797.526123 38.0
797.558411 62.0
801.47406 31.0
803.482361 76.0
805.437561 52.0
809.490601 74.0
809.541016 57.0
810.52124 57.0
811.182556 49.0
811.4552 88.0
812.485596 70.0
813.510132 524.0
813.598389 210.0
813.833618 71.0
814.502686 444.0
815.51886 163.0
819.533142 77.0
822.537659 56.0
823.502869 76.0
826.465698 75.0
826.92395 28.0
827.512085 113.0
828.633545 55.0
829.455505 71.0
829.498352 77.0
831.46344 51.0
831.541626 85.0
832.522583 82.0
835.511475 46.0
837.522095 33.0
849.534851 243.0
850.527283 210.0
851.538208 48.0
852.581055 47.0
852.890259 41.0
853.448364 76.0
853.525024 161.0
854.533508 85.0
855.534912 66.0
856.505188 26.0
856.554871 34.0
857.786377 28.0
865.589233 65.0
866.555237 55.0
867.383484 39.0
867.54657 143.0
867.647644 50.0
867.69696 69.0
868.37384 29.0
868.552795 62.0
869.534668 32.0
875.564392 27.0
879.536682 77.0
879.58728 71.0
885.55072 52.0
897.572449 36.0
900.641113 51.0
907.500549 91.0
908.206543 42.0
914.585083 80.0
917.255981 52.0
917.522461 54.0
920.533813 29.0
921.511108 68.0
921.574341 90.0
922.590271 27.0
924.438965 36.0
924.549683 190.0
924.756104 34.0
925.550293 123.0
927.598633 38.0
929.564514 75.0
930.556946 50.0
937.61615 51.0
940.548889 63.0
941.542969 33.0
941.83667 28.0
942.555359 815.0
943.558472 498.0
944.528992 75.0
944.596619 389.0
945.507568 78.0
945.61676 55.0
949.558899 96.0
949.630798 59.0
950.631042 65.0
952.562012 49.0
954.558655 56.0
956.547424 45.0
962.507874 45.0
962.613464 548.0
963.500427 64.0
963.612061 369.0
964.575256 38.0
965.638428 77.0
966.590759 94.0
966.633301 132.0
967.620972 208.0
967.820679 66.0
967.879639 65.0
968.663391 53.0
974.340942 28.0
974.39502 86.0
975.031494 71.0
978.447021 72.0
979.631348 48.0
980.605347 112.0
981.623169 80.0
982.701294 57.0
984.674622 54.0
994.413757 36.0
1002.482056 32.0
1015.599365 33.0
1018.622437 87.0
1019.623718 55.0
1019.687927 32.0
1031.736572 72.0
1032.58667 37.0
1033.234375 40.0
1034.632812 43.0
1034.693604 65.0
1036.633545 74.0
1036.794312 41.0
1038.639893 58.0
1038.804199 34.0
1049.62561 38.0
1051.720825 72.0
1054.661865 38.0
1055.51355 50.0
1061.550659 49.0
1061.681763 62.0
1062.660278 44.0
1067.51416 35.0
1067.665161 40.0
1068.670044 53.0
1071.064453 42.0
1071.669312 32.0
1075.557739 77.0
1075.695435 56.0
1076.704956 60.0
1077.721069 62.0
1079.683105 159.0
1080.702881 64.0
1082.742432 46.0
1093.713257 329.0
1093.814331 73.0
1094.643555 64.0
1094.718262 170.0
1095.700073 83.0
1098.74939 38.0
1116.700195 58.0
1121.742676 48.0
1126.684692 61.0
1130.643921 80.0
1130.716919 66.0
1131.662231 53.0
1132.234619 48.0
1132.724121 105.0
1137.311035 33.0
1137.721802 35.0
1139.727661 32.0
1144.696533 65.0
1145.669678 50.0
1146.722168 58.0
1148.721924 129.0
1149.737915 135.0
1150.709595 86.0
1150.790771 36.0
1151.721558 100.0
1156.978027 52.0
1161.107788 27.0
1162.106323 27.0
1162.727661 57.0
1164.7229 85.0
1165.776855 52.0
1166.043335 63.0
1166.723022 136.0
1166.772583 73.0
1167.736694 121.0
1167.797241 65.0
1168.699951 66.0
1168.762695 119.0
1169.730469 61.0
1171.153931 33.0
1172.810669 39.0
1178.785034 30.0
1180.507935 69.0
1180.706665 40.0
1181.744263 50.0
1184.726196 61.0
1192.774902 43.0
1193.419678 37.0
1193.776855 120.0
1196.614136 47.0
1196.78186 61.0
1197.714722 32.0
1204.621582 46.0
1205.614258 27.0
1216.795044 49.0
1219.722656 51.0
1220.688721 41.0
1221.641846 48.0
1221.986206 74.0
1226.794922 66.0
1233.799805 94.0
1236.991211 49.0
1244.757935 68.0
1245.802246 44.0
1246.486328 38.0
1247.804565 73.0
1248.730103 77.0
1248.784302 67.0
1249.785034 47.0
1251.833008 137.0
1252.821289 97.0
1253.72937 52.0
1253.797485 85.0
1253.872925 39.0
1261.651489 36.0
1261.795288 852.0
1262.802856 608.0
1263.132202 33.0
1263.264771 64.0
1263.821167 300.0
1264.068604 34.0
1264.566406 29.0
1264.832031 122.0
1265.779175 63.0
1266.817993 53.0
1267.840454 66.0
1276.431152 43.0
1276.660156 44.0
1276.962769 61.0
1277.677979 82.0
1278.582642 43.0
1279.440674 30.0
1279.578857 37.0
1279.810181 3350.0
1280.049561 51.0
1280.24646 81.0
1280.478027 33.0
1280.603027 47.0
1280.810669 2428.0
1280.95874 49.0
1280.993164 64.0
1281.427002 61.0
1281.639771 89.0
1281.816528 1120.0
1282.007324 43.0
1282.63501 103.0
1282.804688 490.0
1283.134399 35.0
1283.661255 50.0
1283.822144 146.0
1283.917847 32.0
1284.809326 41.0
1285.671387 32.0
1288.210693 39.0
1291.174805 32.0
1292.609741 33.0
1293.802246 32.0
1294.178345 46.0
1318.820923 47.0
1336.782104 80.0
1349.851074 52.0
1351.821899 29.0
1374.845337 42.0
1381.717651 52.0
1381.788208 51.0
1583.660645 34.0
1681.528809 41.0
1692.602051 45.0
1820.17627 82.0
1821.433228 26.0
1827.220581 32.0
1873.294067 27.0
END IONS
