BEGIN IONS
PEPMASS=845.414
CHARGE=0
MSLEVEL=2
SOURCE_INSTRUMENT=LC-ESI-qTof
FILENAME=f.mice/SC_-Fe_+Fe_YEME_Langzeit_Anfang_2015/160113_CYA_14_org_V.mzXML;
SEQ=*..*
IONMODE=Positive
ORGANISM=GNPS-LIBRARY
NAME=Tunicamycin B M+H
PI=Bandow
DATACOLLECTOR=Senges
SMILES=CC(C)CCCCCCCCCCC=CC(=O)NC1C(C(C(OC1OC2C(C(C(C(O2)CO)O)O)NC(=O)C)CC(C3C(C(C(O3)N4C=CC(=O)NC4=O)O)O)O)O)O
INCHI=1S/C39H64N4O16/c1-20(2)14-12-10-8-6-4-5-7-9-11-13-15-25(47)41-28-32(52)29(49)23(56-38(28)59-37-27(40-21(3)45)31(51)30(50)24(19-44)57-37)18-22(46)35-33(53)34(54)36(58-35)43-17-16-26(48)42-39(43)55/h13,15-17,20,22-24,27-38,44,46,49-54H,4-12,14,18-19H2,1-3H3,(H,40,45)(H,41,47)(H,42,48,55)/b15-13+/t22-,23-,24-,27-,28-,29+,30-,31-,32-,33+,34-,35-,36-,37-,38+/m1/s1
INCHIAUX=
PUBMED=
SUBMITUSER=mice
TAGS=
LIBRARYQUALITY=3
SPECTRUMID=CCMSLIB00003739962
SCANS=4810
50.57304 7.0
53.821373 21.0
53.853405 32.0
63.193977 43.0
64.582771 8.0
64.586273 8.0
67.104904 6.0
69.275063 20.0
71.085373 14.0
71.08905 14.0
74.184525 9.0
77.911369 27.0
78.897095 50.0
81.079636 48.0
81.11895 75.0
82.124702 10.0
84.094719 19.0
84.142761 16.0
84.543701 16.0
85.082443 14.0
92.103508 25.0
95.097961 21.0
95.140541 62.0
96.083931 67.0
96.096779 141.0
97.0793 56.0
97.096497 8.0
97.156731 64.0
98.032227 14.0
98.114372 72.0
99.272339 33.0
101.147133 14.0
105.334297 12.0
107.107025 18.0
109.766403 8.0
110.471901 16.0
110.779541 22.0
111.170456 13.0
111.248718 22.0
112.166916 8.0
112.657547 28.0
113.093536 114.0
114.13121 7.0
119.438354 7.0
119.44313 7.0
119.78212 18.0
121.162117 93.0
122.158867 35.0
122.738564 8.0
123.17424 26.0
124.02845 6.0
126.113159 457.0
126.319153 7.0
126.324059 7.0
127.095573 66.0
128.928055 97.0
132.868759 20.0
135.178421 138.0
137.124283 20.0
137.195847 40.0
137.887039 17.0
137.948563 19.0
138.117813 2716.0
138.143463 122.0
138.158859 20.0
138.28717 17.0
138.400146 13.0
138.569687 10.0
139.120087 125.0
140.120819 21.0
140.260376 8.0
140.575943 10.0
140.964417 11.0
141.109589 12.0
142.138245 12.0
142.310043 7.0
142.435074 11.0
142.513229 8.0
144.128174 447.0
144.332642 33.0
144.752518 11.0
145.125671 50.0
145.230881 19.0
146.137192 22.0
146.284988 8.0
148.128235 29.0
148.473801 55.0
148.681335 23.0
148.93161 27.0
149.19278 35.0
151.865479 8.0
156.128922 29.0
157.117813 52.0
158.126282 68.0
158.137283 31.0
159.104965 11.0
160.108734 18.0
162.103516 39.0
162.125748 39.0
163.10556 13.0
163.200348 40.0
163.217072 73.0
165.085205 9.0
166.580597 12.0
167.726364 10.0
167.788559 6.0
167.839462 15.0
167.97522 8.0
168.133682 2652.0
168.173309 32.0
168.224274 79.0
168.241257 17.0
168.36586 14.0
168.44516 32.0
168.88739 10.0
168.910095 14.0
169.000885 33.0
169.034943 29.0
169.103043 13.0
169.131439 404.0
169.375656 19.0
169.847549 13.0
170.132141 115.0
170.582291 7.0
171.575836 19.0
172.537842 18.0
173.117493 36.0
173.749908 43.0
173.784439 7.0
176.09407 23.0
176.14621 29.0
177.12674 23.0
177.138367 13.0
177.231339 15.0
178.121658 33.0
179.11937 18.0
180.125702 34.0
180.782532 8.0
180.788391 8.0
184.345215 12.0
185.978821 10.0
186.145569 6557.0
186.175339 27.0
186.193207 10.0
186.234909 75.0
186.264694 44.0
186.300461 7.0
186.324295 16.0
186.401764 6.0
186.455399 61.0
186.497147 7.0
186.82518 18.0
186.914703 33.0
187.093781 17.0
187.147537 772.0
187.177399 10.0
187.362595 7.0
187.368576 7.0
187.440292 14.0
187.649536 10.0
187.936707 12.0
188.146225 77.0
188.200119 10.0
188.265991 5.0
188.271988 5.0
188.391815 8.0
188.511658 7.0
188.625565 11.0
188.931473 8.0
188.943466 13.0
189.351746 17.0
191.001297 11.0
191.200455 8.0
192.264359 8.0
192.385437 7.0
195.266281 54.0
196.145721 67.0
196.402588 7.0
198.223846 20.0
200.1091 15.0
200.133789 9.0
201.141724 7.0
201.426651 11.0
201.476212 10.0
201.562973 7.0
201.742752 8.0
202.580704 23.0
202.60556 10.0
202.617981 9.0
202.885269 11.0
203.02832 15.0
203.165207 15.0
203.283447 21.0
203.333237 14.0
203.632141 12.0
203.856476 7.0
203.912582 25.0
203.97493 22.0
203.993637 14.0
204.062225 24.0
204.155777 34845.0
204.199448 88.0
204.211929 93.0
204.236877 151.0
204.261826 98.0
204.274307 97.0
204.29303 44.0
204.311752 35.0
204.3367 116.0
204.361664 35.0
204.380386 32.0
204.411606 74.0
204.455292 15.0
204.48027 9.0
204.542694 16.0
204.586395 21.0
204.617615 18.0
204.655106 15.0
204.71756 19.0
204.736298 107.0
204.78627 11.0
204.805008 24.0
204.829987 17.0
204.873734 19.0
205.117493 82.0
205.161285 2852.0
205.205048 7.0
205.242569 22.0
205.273834 32.0
205.311371 8.0
205.336395 9.0
205.480301 24.0
205.611725 7.0
205.699387 7.0
205.793304 14.0
205.843414 11.0
205.862198 47.0
205.993759 22.0
206.050156 8.0
206.075226 10.0
206.087753 11.0
206.112823 24.0
206.162964 310.0
206.23819 34.0
206.263275 26.0
206.369858 50.0
206.432587 69.0
206.482773 39.0
206.595703 22.0
206.627075 7.0
206.689819 17.0
206.765152 16.0
206.865601 11.0
206.871887 11.0
207.072861 8.0
207.123123 76.0
207.148254 44.0
207.167099 53.0
207.317932 27.0
207.336792 11.0
207.349365 14.0
207.393372 16.0
207.732986 9.0
207.833679 32.0
208.079208 14.0
208.173676 11.0
208.255554 8.0
208.274475 8.0
208.936508 8.0
209.08168 7.0
209.132187 19.0
209.264771 10.0
209.346893 18.0
210.118195 13.0
210.339737 10.0
211.538071 36.0
212.351578 17.0
212.389755 10.0
212.854431 8.0
213.396149 14.0
213.823654 16.0
214.961441 8.0
215.460983 8.0
217.741821 15.0
218.922272 16.0
219.277664 273.0
219.866333 13.0
221.416138 31.0
221.786575 8.0
221.981659 11.0
222.150803 408.0
222.170319 139.0
222.228897 77.0
222.28096 25.0
222.430679 8.0
223.127884 68.0
224.015625 7.0
233.12323 84.0
236.89772 23.0
237.287582 324.0
238.290634 15.0
238.304123 20.0
238.80307 13.0
239.309296 13.0
240.147446 105.0
240.1745 9.0
240.736374 7.0
241.129395 40.0
241.1633 55.0
242.167679 12.0
242.779495 8.0
245.111389 38.0
245.138718 29.0
245.973312 7.0
252.694138 7.0
252.70108 7.0
254.22316 8.0
254.313675 126.0
255.324127 30.0
255.331116 30.0
257.120026 17.0
257.134003 13.0
258.150055 32.0
258.171112 13.0
258.894104 15.0
263.416168 7.0
264.26712 28.0
264.309692 48.0
266.771057 10.0
268.027466 15.0
269.143585 59.0
270.154358 21.0
270.16153 21.0
278.323334 90.0
283.525665 13.0
285.137756 39.0
286.340576 44.0
287.161163 66.0
290.946442 31.0
292.24353 12.0
292.631714 7.0
297.340332 16.0
301.191864 31.0
304.329041 24.0
305.304596 25.0
308.309723 25.0
308.340393 66.0
309.353088 61.0
310.628998 21.0
314.890656 7.0
315.898529 8.0
316.170166 77.0
317.032379 7.0
317.133423 21.0
317.16452 23.0
317.934692 13.0
317.958038 15.0
318.168243 20.0
318.401886 12.0
318.978607 7.0
319.329559 32.0
319.509003 7.0
320.032043 14.0
320.172607 7.0
320.258545 81.0
320.281982 22.0
320.328857 4163.0
320.407013 37.0
320.438263 11.0
320.4617 11.0
320.485138 11.0
320.508606 14.0
320.563324 58.0
321.126312 11.0
321.181091 8.0
321.337585 643.0
321.392365 24.0
321.501923 9.0
321.525421 11.0
322.332184 231.0
322.606567 7.0
323.234161 10.0
323.242004 10.0
323.344055 29.0
323.351898 29.0
323.815216 12.0
324.318176 29.0
324.388947 10.0
324.876617 9.0
324.884491 9.0
324.939545 30.0
325.144196 6.0
325.758484 12.0
326.507446 6.0
327.217773 12.0
327.74707 12.0
327.936798 9.0
330.257202 34.0
330.30481 46.0
331.710632 7.0
332.32312 98.0
333.334595 10.0
333.34256 10.0
334.171997 171.0
334.403473 19.0
335.146332 24.0
335.162323 35.0
335.186279 22.0
335.242249 7.0
336.146057 40.0
338.093811 13.0
342.846375 9.0
344.408173 19.0
345.794983 15.0
346.355347 102.0
348.307953 7.0
348.332397 31.0
349.302643 16.0
349.327118 37.0
351.083588 14.0
351.492676 13.0
352.188721 1956.0
352.360779 21.0
352.43454 11.0
353.164307 171.0
353.188934 377.0
354.190582 11.0
354.47818 14.0
354.91391 28.0
355.45694 12.0
355.695648 10.0
356.321686 18.0
356.338165 36.0
356.568939 14.0
357.352509 16.0
358.343475 17.0
358.376526 10.0
358.591431 29.0
360.221863 23.0
360.379272 8.0
362.188202 18.0
362.229736 12.0
362.337769 13.0
362.570465 29.0
364.968445 23.0
366.187073 13.0
366.32074 34.0
368.747833 8.0
369.611786 12.0
370.333893 35.0
370.350708 11.0
374.292908 50.0
374.343597 1090.0
374.419617 61.0
374.512543 13.0
375.324036 96.0
375.349396 174.0
375.374786 35.0
376.187164 17.0
376.331116 58.0
376.348053 62.0
377.322632 28.0
377.551636 17.0
378.205048 27.0
378.349396 59.0
378.485291 47.0
378.612701 13.0
378.706146 7.0
379.47113 41.0
379.955994 38.0
380.134705 66.0
380.739288 36.0
382.103424 10.0
383.769257 25.0
385.198761 26.0
385.721619 8.0
386.201904 8.0
386.493652 32.0
387.713287 20.0
388.513123 51.0
389.089874 12.0
389.529175 11.0
390.339478 48.0
390.373962 18.0
390.977997 14.0
392.075012 23.0
392.204681 19.0
392.351685 1308.0
392.403564 45.0
392.464111 24.0
392.490051 5.0
392.515991 9.0
392.671692 8.0
393.147614 9.0
393.346741 308.0
394.351715 79.0
394.863373 15.0
395.045563 14.0
395.323273 31.0
395.375366 8.0
395.3927 19.0
395.401398 19.0
395.731293 23.0
397.209015 95.0
397.44397 6.0
397.452667 6.0
397.896667 7.0
398.593597 16.0
399.58783 9.0
401.991241 20.0
402.280121 10.0
404.876068 7.0
406.370728 17.0
406.608337 19.0
406.652374 21.0
408.14151 10.0
410.358215 228.0
411.11908 17.0
411.225311 24.0
412.341492 35.0
412.412415 10.0
412.580902 8.0
413.086456 27.0
413.370453 19.0
414.32959 77.0
414.365112 21.0
414.91629 25.0
415.33432 11.0
416.33136 20.0
416.349182 54.0
416.482788 16.0
416.545166 17.0
417.25827 8.0
417.588257 27.0
417.730988 14.0
419.937744 8.0
420.555267 6.0
420.564209 6.0
422.338715 20.0
423.344116 15.0
423.892212 11.0
427.278442 21.0
427.910339 30.0
428.75058 7.0
428.759644 7.0
428.895233 21.0
429.392639 30.0
430.370178 11.0
430.388306 85.0
432.66452 33.0
432.909698 48.0
433.0914 117.0
433.254944 12.0
434.355133 31.0
434.373322 20.0
434.564423 22.0
435.775635 43.0
436.331696 60.0
436.368164 40.0
436.404663 12.0
438.632721 17.0
439.181458 16.0
439.547485 21.0
440.344116 242.0
440.43573 7.0
441.086426 8.0
441.113953 20.0
441.288177 23.0
441.334015 58.0
441.361542 133.0
441.682617 59.0
442.325043 12.0
442.343414 39.0
444.328857 8.0
444.577362 17.0
444.761444 11.0
444.982452 11.0
447.361511 15.0
447.398468 18.0
448.738342 38.0
448.978821 25.0
449.348907 47.0
449.645081 36.0
450.821503 37.0
451.999451 7.0
452.389343 43.0
452.510071 33.0
452.667938 18.0
453.216095 41.0
453.327637 17.0
453.811096 68.0
454.024994 8.0
454.834625 22.0
456.325531 12.0
456.437439 12.0
457.202545 29.0
457.594666 13.0
458.005676 12.0
458.071075 12.0
458.173859 34.0
458.286011 16.0
458.360748 765.0
458.912354 12.0
459.361328 261.0
459.548492 28.0
459.660797 12.0
459.838654 8.0
460.203796 25.0
460.363037 14.0
461.806641 52.0
462.773407 30.0
462.829773 20.0
463.14917 44.0
463.196136 9.0
463.402863 16.0
464.917114 27.0
465.227753 15.0
466.311249 33.0
466.452667 7.0
466.480957 8.0
466.603546 14.0
467.405426 22.0
467.858551 11.0
467.981323 9.0
468.066315 17.0
468.642609 16.0
469.266602 16.0
470.108612 14.0
470.392609 13.0
471.00824 6.0
471.15036 9.0
471.292511 24.0
471.425201 7.0
473.237366 13.0
473.313354 25.0
474.720001 16.0
475.005432 19.0
475.357513 25.0
475.547882 9.0
475.605011 7.0
475.928741 8.0
476.090668 14.0
476.185944 9.0
476.262146 26.0
476.290741 33.0
476.366943 5155.0
476.443176 126.0
476.46225 51.0
476.490845 53.0
476.586151 11.0
476.624237 17.0
476.633759 17.0
476.662354 13.0
476.70047 45.0
476.738617 49.0
476.92926 6.0
477.005554 7.0
477.100891 8.0
477.263031 32.0
477.358398 1026.0
477.377472 973.0
477.415619 55.0
477.510986 15.0
477.596863 15.0
478.131287 15.0
478.350861 126.0
478.379486 295.0
478.503632 13.0
479.038544 8.0
479.153229 13.0
479.363464 15.0
479.459076 7.0
479.592896 52.0
480.396301 8.0
480.779114 7.0
480.788666 7.0
480.893982 9.0
481.439819 7.0
481.573914 28.0
481.880554 12.0
482.436523 27.0
484.154419 55.0
484.423431 12.0
484.481049 17.0
485.500122 39.0
486.308472 16.0
486.809204 13.0
487.204193 8.0
487.300568 6.0
487.570404 8.0
489.703094 14.0
489.915649 40.0
490.002594 10.0
490.244232 37.0
490.756653 18.0
492.954407 11.0
493.167694 25.0
493.555542 7.0
494.370544 173.0
494.409363 27.0
495.302826 21.0
495.380554 79.0
496.362396 16.0
496.391571 13.0
496.43045 7.0
497.851593 6.0
498.358246 13.0
498.835876 8.0
498.865112 8.0
498.962646 30.0
500.90506 10.0
501.872803 10.0
502.009735 7.0
502.753387 22.0
503.203735 12.0
511.315247 28.0
512.263367 51.0
512.391785 1675.0
512.559814 8.0
512.727844 28.0
513.340942 13.0
513.400269 644.0
513.835571 8.0
514.172058 13.0
514.330505 18.0
514.39978 262.0
515.29126 22.0
515.330933 16.0
515.410217 53.0
516.322449 11.0
517.275146 11.0
517.324829 27.0
519.292664 21.0
519.312561 10.0
522.58075 10.0
522.690552 13.0
524.128723 7.0
524.278687 19.0
527.051086 13.0
527.151367 8.0
527.311707 21.0
527.361877 12.0
527.411987 13.0
527.81311 12.0
528.957092 10.0
530.343567 8.0
530.393799 98.0
530.424011 93.0
531.349365 26.0
531.379517 10.0
531.399658 87.0
532.335999 22.0
532.366211 22.0
532.406494 14.0
533.192505 25.0
534.372559 44.0
535.362 31.0
536.352295 39.0
536.382629 22.0
536.554565 10.0
537.535828 16.0
538.670044 61.0
538.832153 8.0
539.521484 16.0
540.180786 14.0
541.175598 14.0
541.825745 8.0
543.727661 24.0
545.398376 40.0
545.408569 40.0
545.887878 36.0
546.377563 22.0
546.53064 136.0
546.561218 158.0
547.286072 12.0
547.53125 36.0
547.572083 126.0
548.522522 40.0
548.553223 15.0
548.573669 70.0
549.064575 11.0
549.330566 19.0
550.251831 32.0
550.456665 11.0
551.296814 25.0
552.219727 22.0
552.291504 30.0
552.332581 52.0
552.373596 270.0
552.414673 48.0
552.917542 20.0
553.379578 45.0
554.345337 16.0
554.386475 71.0
555.342773 23.0
556.258789 28.0
556.361755 10.0
556.557434 17.0
556.588318 89.0
560.157532 7.0
560.219543 11.0
560.250549 15.0
560.622559 48.0
560.725891 10.0
561.294617 24.0
561.873962 23.0
564.422424 136.0
564.629883 17.0
564.982666 15.0
565.003418 8.0
566.124695 38.0
566.945557 15.0
567.47583 14.0
567.756592 23.0
568.006287 53.0
568.807678 8.0
568.849304 17.0
569.932678 13.0
570.276672 20.0
570.34967 230.0
570.38092 598.0
570.485229 14.0
570.818909 16.0
571.267456 27.0
571.361389 86.0
571.3927 39.0
571.507507 21.0
571.591003 14.0
572.38446 67.0
573.418945 14.0
574.663574 13.0
576.014404 6.0
576.024902 6.0
576.17157 11.0
576.244934 9.0
576.527954 8.0
576.863342 6.0
577.314331 7.0
578.479248 51.0
579.203918 8.0
579.351013 9.0
579.592773 9.0
579.929138 11.0
580.865173 18.0
581.391296 11.0
581.854553 72.0
581.886169 18.0
582.086304 11.0
582.718384 7.0
582.823792 17.0
582.981873 20.0
583.677734 8.0
584.004761 18.0
584.068054 9.0
584.447937 7.0
584.490173 9.0
584.690674 38.0
584.722351 9.0
584.754028 19.0
585.355896 7.0
585.725647 6.0
585.736206 6.0
585.958069 21.0
586.063782 39.0
586.359741 27.0
586.676941 14.0
586.920105 7.0
586.930664 7.0
586.972961 20.0
586.994141 9.0
587.248047 8.0
587.290344 7.0
587.322083 26.0
587.385559 25.0
587.427917 24.0
587.491394 7.0
587.512573 8.0
587.57605 20.0
587.660706 12.0
587.713623 13.0
587.830078 8.0
587.851196 7.0
587.904175 9.0
587.935913 33.0
588.041687 10.0
588.115845 7.0
588.189941 25.0
588.274658 115.0
588.391113 18416.0
588.465271 152.0
588.528809 125.0
588.592346 79.0
588.624146 161.0
588.655884 160.0
588.677063 107.0
588.751221 25.0
588.79364 32.0
588.814819 41.0
588.878357 49.0
588.920715 22.0
588.963135 37.0
589.132568 17.0
589.206787 18.0
589.238586 11.0
589.249146 11.0
589.291565 60.0
589.397522 5927.0
589.482361 37.0
589.51416 63.0
589.556519 17.0
589.609558 98.0
589.673157 61.0
589.704956 6.0
589.768555 78.0
590.012451 43.0
590.10791 17.0
590.129089 10.0
590.171509 32.0
590.203247 20.0
590.245728 26.0
590.309326 54.0
590.394226 2013.0
590.532104 32.0
590.595764 111.0
590.680664 8.0
590.733704 14.0
590.765564 19.0
590.850464 8.0
590.861023 8.0
590.914124 41.0
590.977783 22.0
591.020264 45.0
591.126404 9.0
591.158203 15.0
591.190063 6.0
591.275024 21.0
591.391724 369.0
591.752747 17.0
591.805847 6.0
591.848328 16.0
592.028931 6.0
592.124512 7.0
592.220093 32.0
592.305115 15.0
592.358276 13.0
592.379456 24.0
592.411316 7.0
592.443176 32.0
592.538818 6.0
592.57074 10.0
592.666382 6.0
592.878967 7.0
592.889587 7.0
592.974609 7.0
593.272339 8.0
593.62323 17.0
593.814697 8.0
594.229736 13.0
594.272278 21.0
594.729919 10.0
594.772522 21.0
594.879028 16.0
595.113281 7.0
595.166565 10.0
595.230469 7.0
595.539368 49.0
595.667175 17.0
595.699158 7.0
595.859009 6.0
596.01886 7.0
596.168091 6.0
596.487915 7.0
596.583862 11.0
596.669189 10.0
597.277161 20.0
597.341187 12.0
597.458557 17.0
597.629272 7.0
597.736023 7.0
597.864075 24.0
597.896057 18.0
597.928101 7.0
598.323181 10.0
598.376526 9.0
598.590149 13.0
598.60083 13.0
598.761047 6.0
598.835876 6.0
599.102905 17.0
599.444885 7.0
599.466309 9.0
599.583862 14.0
599.893921 15.0
600.000793 10.0
600.321655 8.0
600.535645 7.0
600.888733 24.0
600.995728 29.0
601.124146 9.0
601.413147 22.0
601.445312 7.0
601.573792 18.0
601.648743 37.0
601.691589 7.0
602.184204 10.0
602.419922 18.0
602.580688 13.0
602.934387 10.0
603.277405 10.0
603.331055 7.0
603.556274 23.0
603.856628 12.0
603.985352 8.0
604.661438 9.0
605.090942 6.0
605.176819 17.0
605.219788 12.0
605.327209 19.0
605.43457 7.0
605.445312 7.0
605.617188 10.0
605.735413 9.0
605.982544 35.0
606.036316 7.0
606.283508 13.0
606.315735 33.0
606.369507 265.0
606.390991 271.0
606.444702 76.0
606.466187 55.0
606.519958 63.0
606.638245 22.0
606.659729 25.0
606.778015 10.0
606.864075 12.0
607.315857 27.0
607.337402 27.0
607.401917 146.0
607.487976 52.0
607.552551 10.0
607.789307 12.0
607.864624 10.0
608.338318 15.0
608.359863 13.0
608.413696 74.0
608.532104 22.0
608.542908 22.0
608.952209 52.0
609.081482 13.0
609.113831 11.0
609.426331 7.0
610.267212 20.0
610.364258 16.0
610.396606 9.0
610.677063 7.0
610.860474 74.0
610.98999 5.0
611.000732 5.0
611.0979 16.0
611.173401 23.0
611.400085 7.0
611.410889 7.0
611.853516 5.0
611.864319 5.0
611.907532 18.0
611.961487 30.0
612.015503 43.0
612.069519 9.0
612.134338 49.0
612.231567 7.0
612.27478 7.0
612.372009 35.0
612.696106 8.0
612.73938 11.0
612.760925 13.0
612.804138 11.0
612.890625 14.0
612.998718 7.0
613.031128 14.0
613.096008 9.0
613.139221 7.0
613.204102 67.0
613.322998 11.0
613.420349 9.0
613.463562 17.0
613.539246 12.0
613.744751 37.0
613.874512 23.0
614.047546 43.0
614.24231 29.0
614.382996 17.0
614.599426 17.0
614.664368 18.0
614.750977 28.0
614.978271 8.0
615.162292 8.0
615.281433 37.0
615.324768 9.0
615.411377 7.0
615.606323 79.0
615.822998 15.0
615.985474 23.0
615.996277 23.0
616.072144 14.0
616.093811 8.0
616.213013 7.0
616.256409 16.0
616.278076 45.0
616.646606 8.0
616.787537 9.0
616.885132 13.0
617.080261 6.0
617.123657 64.0
617.242981 7.0
617.275513 15.0
617.329712 8.0
617.383972 12.0
617.427368 13.0
617.557556 22.0
617.709473 11.0
617.763733 10.0
617.872192 16.0
618.00238 13.0
618.197754 12.0
618.219482 12.0
618.252014 13.0
618.382324 9.0
618.512573 11.0
618.577759 7.0
618.653748 14.0
618.729797 23.0
618.903503 39.0
619.001221 7.0
619.033813 13.0
619.077271 7.0
619.098999 18.0
619.120728 6.0
619.131592 6.0
619.185913 8.0
619.240234 10.0
619.294556 8.0
619.348877 7.0
619.479248 14.0
619.544434 12.0
619.729187 7.0
619.76178 14.0
619.968323 11.0
620.01178 23.0
620.044373 8.0
620.08783 12.0
620.16394 10.0
620.316162 28.0
620.446655 31.0
620.511902 17.0
620.598877 51.0
620.653259 11.0
620.718567 10.0
620.740295 21.0
620.783813 54.0
620.914368 34.0
620.957886 33.0
621.023132 23.0
621.044922 6.0
621.055786 6.0
621.153625 10.0
621.218933 7.0
621.240662 10.0
621.305969 13.0
621.480103 24.0
621.556274 6.0
621.5672 6.0
621.665161 19.0
621.68689 15.0
621.719543 24.0
621.752258 23.0
621.763123 23.0
621.784912 11.0
621.82843 85.0
621.872009 16.0
621.893738 13.0
621.926392 15.0
621.969971 21.0
622.002625 21.0
622.057068 17.0
622.067993 17.0
622.11145 7.0
622.155029 34.0
622.198608 11.0
622.220337 6.0
622.253052 31.0
622.318359 33.0
622.351074 25.0
622.405518 7.0
622.438171 13.0
622.459961 18.0
622.50354 9.0
622.52533 6.0
622.568909 30.0
622.623352 20.0
622.656067 23.0
622.688721 20.0
622.765015 45.0
622.841248 19.0
622.906616 14.0
622.928406 62.0
622.971985 39.0
622.993774 27.0
623.037415 47.0
623.070068 26.0
623.124573 22.0
623.18988 51.0
623.244385 65.0
623.320679 23.0
623.375183 58.0
623.429688 30.0
623.451477 32.0
623.505981 44.0
623.571411 46.0
623.61499 29.0
623.68042 58.0
623.756775 42.0
623.822205 96.0
623.854919 39.0
623.887634 44.0
623.931213 83.0
623.963928 45.0
623.996643 44.0
624.018494 69.0
624.040283 110.0
624.072998 53.0
624.094788 51.0
624.127563 56.0
624.160217 165.0
624.258362 180.0
624.411072 266553.0
624.487427 1496.0
624.531067 1054.0
624.618408 1521.0
624.694763 308.0
624.738403 344.0
624.760254 419.0
624.803894 177.0
624.847534 231.0
624.891174 90.0
624.913025 73.0
624.956665 276.0
625.033081 98.0
625.087646 88.0
625.131287 72.0
625.153137 62.0
625.229492 127.0
625.262268 138.0
625.4151 81364.0
625.502441 595.0
625.557007 428.0
625.589783 346.0
625.633484 264.0
625.666199 230.0
625.720825 422.0
625.775452 134.0
625.851868 216.0
625.928345 61.0
625.961121 52.0
625.982971 58.0
626.026672 26.0
626.059448 10.0
626.070374 10.0
626.092163 82.0
626.14679 34.0
626.190491 138.0
626.245056 31.0
626.277832 68.0
626.321533 146.0
626.419922 23455.0
626.507324 203.0
626.5401 119.0
626.594727 238.0
626.638428 166.0
626.660278 111.0
626.704041 62.0
626.725891 106.0
626.758667 123.0
626.802368 107.0
626.857056 33.0
626.911682 32.0
626.933533 47.0
626.96637 129.0
627.010071 98.0
627.053833 42.0
627.130371 25.0
627.163147 28.0
627.195923 15.0
627.217834 12.0
627.261475 42.0
627.283325 21.0
627.316162 100.0
627.425537 5113.0
627.502075 93.0
627.545776 78.0
627.578613 31.0
627.600464 72.0
627.633301 47.0
627.73175 32.0
627.775513 91.0
627.819275 14.0
627.841125 24.0
627.863037 29.0
627.906799 52.0
627.961487 27.0
627.994263 13.0
628.016174 7.0
628.038025 11.0
628.059937 7.0
628.070862 7.0
628.114624 14.0
628.136536 18.0
628.169373 16.0
628.213135 35.0
628.267761 39.0
628.333435 19.0
628.431946 650.0
628.508545 49.0
628.541382 19.0
628.574219 23.0
628.607056 7.0
628.628967 11.0
628.672729 16.0
628.683655 16.0
628.727478 25.0
628.749329 113.0
628.782227 40.0
628.825989 20.0
628.902649 39.0
628.935486 24.0
628.968323 17.0
629.012146 35.0
629.055908 33.0
629.121643 30.0
629.15448 15.0
629.198242 21.0
629.23114 12.0
629.274841 10.0
629.296753 7.0
629.329651 28.0
629.351562 17.0
629.373413 14.0
629.428223 18.0
629.581543 8.0
629.625366 18.0
629.669189 26.0
629.691101 15.0
629.789734 17.0
629.855469 49.0
629.910217 14.0
630.030762 8.0
630.085571 19.0
630.096497 19.0
630.129395 9.0
630.173218 28.0
630.195129 13.0
630.239014 7.0
630.260925 8.0
630.315674 8.0
630.370483 20.0
630.414307 30.0
630.502014 18.0
630.545837 13.0
630.567749 22.0
630.600647 11.0
630.688354 11.0
630.710327 27.0
630.743225 34.0
630.787048 13.0
630.80896 16.0
630.907654 11.0
630.962524 41.0
631.02832 8.0
631.072205 18.0
631.138 10.0
631.159912 18.0
631.203796 13.0
631.302429 53.0
631.335388 45.0
631.379211 8.0
631.401184 14.0
631.477966 23.0
631.521851 27.0
631.554749 11.0
631.587708 7.0
631.609619 12.0
631.620605 12.0
631.686462 8.0
631.741272 27.0
631.785217 25.0
631.829102 14.0
631.883972 11.0
631.927856 36.0
631.949829 23.0
632.0047 16.0
632.05957 8.0
632.081543 15.0
632.125427 17.0
632.158325 25.0
632.202271 18.0
632.257141 19.0
632.355896 45.0
632.39978 12.0
632.421753 13.0
632.553528 19.0
632.5755 26.0
632.597412 15.0
632.619385 13.0
632.652344 43.0
632.729187 27.0
632.795105 22.0
632.882996 14.0
632.915894 11.0
632.959839 7.0
632.981812 11.0
633.003784 18.0
633.113647 34.0
633.168579 46.0
633.212524 8.0
633.289429 15.0
633.311401 16.0
633.43219 7.0
633.465149 14.0
633.531067 7.0
633.575012 22.0
633.619019 50.0
633.662964 29.0
633.750854 15.0
633.805847 33.0
633.849792 38.0
633.94873 16.0
633.981689 8.0
634.003662 12.0
634.036682 12.0
634.113586 23.0
634.256531 10.0
634.333435 10.0
634.366455 10.0
634.498413 20.0
634.553406 26.0
634.597351 57.0
634.685364 14.0
634.707336 26.0
634.773376 30.0
634.806335 8.0
634.839355 11.0
634.894348 28.0
634.949341 7.0
634.971375 11.0
635.059387 30.0
635.08136 12.0
635.18042 13.0
635.235413 21.0
635.400391 20.0
635.455444 15.0
635.521484 8.0
635.554504 21.0
635.576477 35.0
635.642517 27.0
635.675537 11.0
635.708618 30.0
635.730591 10.0
635.818665 17.0
635.829651 17.0
635.862732 12.0
635.906738 10.0
635.950806 11.0
635.972778 21.0
636.027832 33.0
636.060852 22.0
636.137939 18.0
636.171021 15.0
636.248047 17.0
636.259094 17.0
636.336121 7.0
636.369141 7.0
636.391174 15.0
636.435242 27.0
636.468262 53.0
636.523376 49.0
636.644531 10.0
636.677551 13.0
636.699585 12.0
636.765686 8.0
636.798767 11.0
636.930969 7.0
637.052185 24.0
637.085205 14.0
637.129272 12.0
637.151367 7.0
637.283569 10.0
637.360657 10.0
637.537048 15.0
637.647278 9.0
637.735474 16.0
637.779602 124.0
637.812683 22.0
637.85675 11.0
637.889832 15.0
637.967041 43.0
638.033203 7.0
638.165527 20.0
638.330994 11.0
638.375061 13.0
638.430176 17.0
638.474304 18.0
638.562561 19.0
638.584656 10.0
638.661865 17.0
638.68396 36.0
638.739075 34.0
638.761169 10.0
639.037048 31.0
639.092224 9.0
639.136353 59.0
639.158447 13.0
639.26886 8.0
639.346069 21.0
639.412292 16.0
639.467468 24.0
639.588928 8.0
639.644104 7.0
639.666199 95.0
639.754578 30.0
639.798706 8.0
639.842896 13.0
639.86499 17.0
639.898132 10.0
639.953308 19.0
639.975403 14.0
640.019592 21.0
640.063782 7.0
640.096924 15.0
640.207397 10.0
640.229492 21.0
640.273682 30.0
640.295776 24.0
640.373047 26.0
640.494568 7.0
640.560852 19.0
640.638184 19.0
640.78186 28.0
640.859253 35.0
640.947632 23.0
641.069214 16.0
641.212952 10.0
641.279297 23.0
641.312439 10.0
641.34552 12.0
641.367676 11.0
641.422913 17.0
641.467163 62.0
641.489258 38.0
641.511414 15.0
641.577759 18.0
641.610901 20.0
641.633057 24.0
641.710449 8.0
641.7547 60.0
641.787903 26.0
641.843201 8.0
641.88739 12.0
641.909546 16.0
641.975891 20.0
642.03125 15.0
642.064392 45.0
642.086548 32.0
642.108643 29.0
642.164001 45.0
642.230347 8.0
642.274597 102.0
642.296753 97.0
642.318848 130.0
642.418396 50652.0
642.529053 352.0
642.595459 157.0
642.639709 207.0
642.695068 77.0
642.717224 28.0
642.761475 141.0
642.78363 94.0
642.872192 173.0
642.916443 51.0
642.993958 104.0
643.016052 137.0
643.071411 76.0
643.093567 18.0
643.115723 22.0
643.159973 54.0
643.193237 15.0
643.204285 15.0
643.237488 13.0
643.292847 73.0
643.337097 129.0
643.42572 17788.0
643.503235 346.0
643.536438 129.0
643.58075 319.0
643.625061 157.0
643.647217 55.0
643.702576 58.0
643.757935 43.0
643.813354 59.0
643.857666 77.0
643.924133 24.0
643.957336 31.0
643.990601 47.0
644.034912 19.0
644.101379 13.0
644.145691 27.0
644.278687 15.0
644.322937 63.0
644.345093 52.0
644.422668 4974.0
644.500305 167.0
644.566772 14.0
644.588928 18.0
644.611145 22.0
644.644348 30.0
644.677612 57.0
644.721985 7.0
644.766296 20.0
644.799561 58.0
644.821716 25.0
644.888245 30.0
644.910461 22.0
644.943665 18.0
644.976929 12.0
645.021301 29.0
645.054565 44.0
645.076721 12.0
645.132202 10.0
645.14325 10.0
645.19873 17.0
645.287415 18.0
645.342834 13.0
645.387207 316.0
645.43158 986.0
645.498108 28.0
645.531372 11.0
645.564697 34.0
645.60907 76.0
645.708862 18.0
645.742188 22.0
645.853088 21.0
645.908569 11.0
645.941895 8.0
645.952942 8.0
645.96405 8.0
646.008423 8.0
646.075012 12.0
646.174927 16.0
646.241516 18.0
646.263672 10.0
646.341309 10.0
646.396851 35.0
646.430115 150.0
646.452332 211.0
646.563354 12.0
646.58551 7.0
646.663269 24.0
646.7854 8.0
646.963013 16.0
646.996338 37.0
647.05188 8.0
647.129639 8.0
647.25177 11.0
647.38501 7.0
647.562744 17.0
647.88501 33.0
647.907227 48.0
648.007202 8.0
648.129456 20.0
648.151733 14.0
648.185059 14.0
648.218384 14.0
648.429565 7.0
648.473999 8.0
648.518494 13.0
648.574097 10.0
648.596313 7.0
648.918823 13.0
649.074524 8.0
649.296936 11.0
649.619568 10.0
649.753113 17.0
649.86438 14.0
649.95343 8.0
650.031372 10.0
650.242798 16.0
650.265076 10.0
650.40979 8.0
650.576843 21.0
651.167114 8.0
651.345337 10.0
651.445618 8.0
651.679626 17.0
651.813416 8.0
651.835693 8.0
652.069763 7.0
652.136658 23.0
652.181213 8.0
652.22583 8.0
652.393066 13.0
652.705322 10.0
652.749939 14.0
652.794556 12.0
652.850342 24.0
652.950745 7.0
653.307739 14.0
653.553223 13.0
653.921631 35.0
653.943909 14.0
653.988586 17.0
654.077942 19.0
654.256531 18.0
654.334717 31.0
654.424011 8.0
654.625061 8.0
654.937866 18.0
655.049622 8.0
655.328918 10.0
655.362488 32.0
655.451904 7.0
655.53009 7.0
655.653076 7.0
655.977295 17.0
656.12262 10.0
656.256836 24.0
656.379883 14.0
656.45813 14.0
656.502869 53.0
656.804932 47.0
657.118225 12.0
657.140625 10.0
657.543579 11.0
657.733887 8.0
657.812256 27.0
657.834656 12.0
658.002563 8.0
658.304993 8.0
658.372192 11.0
658.809143 19.0
659.111694 8.0
659.661011 8.0
659.717102 11.0
659.829224 13.0
660.087097 11.0
660.390015 12.0
660.468567 8.0
660.648071 8.0
660.681763 16.0
660.97345 8.0
661.052063 13.0
661.512329 13.0
661.635864 28.0
662.545715 11.0
662.62439 16.0
663.939819 12.0
664.50238 12.0
664.592407 8.0
664.659973 7.0
664.918823 7.0
665.065186 8.0
665.35791 76.0
666.337952 7.0
667.059387 11.0
667.194702 20.0
667.837585 14.0
668.717834 10.0
669.530884 11.0
670.174927 23.0
670.276672 50.0
670.378357 20.0
670.59314 34.0
671.814636 11.0
672.199402 8.0
673.161804 11.0
673.920898 17.0
674.396912 10.0
675.134094 10.0
675.360901 10.0
677.007019 8.0
677.097839 8.0
678.404846 10.0
678.46167 7.0
680.623901 6.0
680.635315 6.0
681.250427 18.0
681.729065 8.0
682.230713 25.0
682.538635 6.0
682.550049 6.0
684.033508 7.0
684.444641 7.0
685.427185 12.0
686.4104 21.0
689.307129 16.0
689.685425 11.0
690.476746 8.0
692.853271 15.0
696.765747 10.0
696.777283 10.0
697.514954 12.0
697.768677 20.0
698.541504 10.0
699.187805 10.0
699.199341 10.0
700.827942 8.0
703.326416 13.0
703.974915 8.0
703.986511 8.0
704.913452 9.0
706.339844 14.0
706.467407 9.0
708.336792 16.0
708.429749 17.0
710.429749 37.0
712.292664 11.0
716.341309 9.0
717.089355 7.0
718.317322 7.0
721.245361 7.0
721.304016 11.0
725.648621 9.0
727.908203 17.0
729.652405 24.0
733.442688 22.0
733.478149 52.0
733.821045 14.0
734.104858 8.0
734.447937 24.0
734.672791 51.0
735.465759 22.0
735.489441 11.0
735.513123 15.0
736.034119 59.0
738.523438 7.0
742.110596 13.0
745.039062 18.0
746.922913 8.0
748.283691 10.0
749.573914 16.0
750.386902 7.0
751.990173 25.0
760.947388 13.0
762.34491 44.0
762.682495 13.0
764.129883 8.0
766.617859 8.0
771.387573 110.0
780.483582 16.0
785.369629 11.0
787.340576 38.0
789.399902 30.0
791.400391 52.0
791.449524 70.0
791.474121 50.0
791.646057 10.0
791.818054 8.0
792.432373 20.0
792.714966 12.0
793.428101 22.0
794.670532 7.0
794.99054 13.0
795.322876 25.0
797.540527 29.0
797.700806 8.0
797.959717 38.0
804.447083 17.0
809.481995 56.0
809.519287 35.0
810.364136 7.0
810.413818 30.0
810.488342 58.0
811.756592 9.0
812.266602 10.0
812.49054 14.0
814.532593 11.0
814.545044 11.0
815.941101 96.0
816.464905 30.0
819.411438 12.0
820.424011 23.0
823.740967 22.0
825.621399 10.0
825.784485 7.0
826.135803 15.0
826.888855 15.0
827.315735 37.0
827.353394 16.0
827.478943 2925.0
827.579407 112.0
827.617126 78.0
827.679932 9.0
827.730164 30.0
827.780396 7.0
827.943665 11.0
828.119507 12.0
828.194885 6.0
828.358276 16.0
828.471375 1629.0
828.559326 11.0
828.697571 16.0
828.747742 30.0
828.835754 34.0
829.300903 25.0
829.338623 16.0
829.388916 60.0
829.489502 461.0
829.577454 20.0
829.703186 14.0
829.778625 7.0
829.942139 14.0
830.030212 16.0
830.042786 16.0
830.093079 7.0
830.105652 7.0
830.218872 10.0
830.244019 8.0
830.445251 81.0
830.495605 164.0
830.571106 22.0
830.986328 13.0
831.049255 7.0
831.06189 7.0
831.25061 6.0
831.300964 35.0
831.414246 22.0
831.4646 9.0
831.50238 24.0
832.471985 7.0
832.812073 6.0
834.551514 7.0
834.728149 6.0
835.295776 10.0
835.914124 9.0
836.696838 6.0
837.06311 19.0
837.429382 21.0
839.009277 27.0
839.477234 22.0
840.033875 7.0
840.312256 8.0
840.932495 11.0
841.248962 10.0
841.324951 15.0
841.514893 7.0
841.66687 7.0
841.730225 22.0
841.970886 7.0
842.249573 8.0
843.377563 9.0
843.732544 7.0
843.87207 7.0
843.922791 10.0
843.960815 16.0
843.998901 8.0
844.277954 14.0
844.290649 14.0
844.392029 15.0
844.417419 22.0
844.44281 14.0
844.49353 29.0
844.518921 21.0
844.557007 69.0
844.721924 11.0
844.798096 15.0
844.886902 16.0
844.963013 33.0
845.05188 10.0
845.242188 35.0
845.292969 18.0
845.369141 95.0
845.483398 16103.0
845.635742 60.0
845.661133 45.0
845.699219 33.0
845.800781 70.0
845.864258 33.0
845.902283 7.0
845.940369 71.0
846.029297 23.0
846.118164 10.0
846.156311 14.0
846.232483 13.0
846.308716 20.0
846.334106 14.0
846.372192 47.0
846.486511 7991.0
846.562744 308.0
846.626221 38.0
846.664368 42.0
846.702393 62.0
846.753235 39.0
846.778625 50.0
846.867554 58.0
846.969177 7.0
847.045471 91.0
847.312317 84.0
847.490173 3088.0
847.591858 36.0
847.630005 32.0
847.706238 56.0
847.731689 68.0
847.744385 68.0
847.769775 31.0
847.909668 36.0
847.985901 29.0
848.036804 8.0
848.07489 34.0
848.113037 11.0
848.265564 19.0
848.303711 16.0
848.380005 79.0
848.443604 240.0
848.494507 1051.0
848.583496 33.0
848.647095 11.0
848.697998 23.0
848.812439 23.0
848.850586 55.0
848.914185 16.0
848.965088 8.0
848.977783 8.0
849.028625 8.0
849.270325 36.0
849.295776 32.0
849.34668 17.0
849.384888 11.0
849.410339 14.0
849.448486 130.0
849.486633 130.0
849.728455 39.0
849.804749 7.0
849.957458 5.0
849.970215 5.0
849.995667 7.0
850.059326 8.0
850.428467 7.0
850.568481 8.0
850.9505 9.0
851.408997 9.0
851.829468 13.0
851.944153 9.0
852.058838 7.0
852.147949 13.0
852.453857 11.0
852.772583 7.0
852.861755 11.0
853.49939 7.0
853.690674 14.0
854.519958 9.0
854.902893 9.0
855.298584 6.0
855.31134 6.0
855.719971 17.0
856.192505 11.0
856.243652 7.0
856.358643 7.0
856.550293 7.0
857.227539 13.0
858.020203 7.0
858.263123 12.0
858.301514 12.0
858.416626 6.0
858.685303 9.0
858.787598 13.0
858.966736 24.0
859.094666 11.0
859.235413 10.0
860.041809 7.0
860.0802 12.0
860.169861 7.0
862.040222 15.0
863.655884 7.0
864.490051 46.0
864.631226 8.0
864.759583 6.0
864.900818 49.0
865.042114 7.0
865.671326 11.0
865.786926 7.0
867.650513 10.0
871.71875 13.0
874.621216 10.0
874.969849 13.0
875.835205 9.0
876.158264 16.0
876.507202 24.0
876.636414 18.0
876.804443 10.0
878.666931 8.0
879.339966 8.0
881.840149 7.0
889.349182 11.0
890.377991 8.0
892.46344 37.0
894.956116 8.0
904.633423 26.0
904.817261 11.0
905.710388 77.0
911.605835 9.0
913.174988 8.0
924.767883 16.0
927.850403 38.0
935.151855 17.0
936.968384 16.0
940.204956 38.0
941.061829 12.0
941.34314 7.0
948.831787 42.0
949.10083 14.0
956.363708 35.0
956.579712 20.0
967.235291 11.0
968.512024 22.0
968.946777 15.0
968.960388 15.0
969.748718 56.0
970.007019 10.0
975.889587 6.0
977.130981 10.0
983.596375 48.0
984.089294 11.0
991.127258 14.0
994.35968 9.0
1021.817261 34.0
1027.658691 40.0
1029.674927 21.0
1036.297485 14.0
1038.181641 23.0
1039.532349 13.0
1042.321045 28.0
1053.995361 8.0
1055.526611 21.0
1055.597534 17.0
1055.866943 11.0
1057.144043 26.0
1059.473267 20.0
1062.800903 17.0
1064.69458 68.0
1070.185913 22.0
1072.371948 21.0
1076.006104 17.0
1077.410034 16.0
1077.553345 25.0
1077.854248 11.0
1078.456421 31.0
1079.847412 10.0
1083.767334 40.0
1084.687378 40.0
1084.802368 9.0
1085.248047 19.0
1086.729858 18.0
1087.29126 16.0
1088.601562 8.0
1091.094849 79.0
1094.572876 10.0
1094.789551 7.0
1096.682617 21.0
1097.448975 17.0
1097.463379 17.0
1099.677124 15.0
1101.009399 15.0
1101.646973 18.0
1102.154175 12.0
1104.053589 40.0
1104.184082 8.0
1104.329224 7.0
1104.34375 7.0
1104.387207 31.0
1104.474243 18.0
1104.720947 8.0
1105.765869 23.0
1106.92749 32.0
1107.465088 27.0
1108.802002 12.0
1110.692505 10.0
1110.707031 10.0
1118.314697 14.0
1118.329346 14.0
1118.504517 6.0
1118.942627 9.0
1120.695557 9.0
1121.119507 42.0
1121.879639 11.0
1122.216064 16.0
1122.523193 8.0
1124.425415 9.0
1125.06958 27.0
1127.208496 17.0
1128.58667 12.0
1129.4375 7.0
1129.862915 14.0
1130.097778 14.0
1130.229858 7.0
1130.699585 18.0
1131.272095 7.0
1132.711548 11.0
1134.28418 13.0
1136.549561 19.0
1138.080688 13.0
1141.234497 16.0
1141.278687 38.0
1143.964355 12.0
1146.594116 11.0
1147.333496 48.0
1151.240601 21.0
1151.744263 7.0
1156.623779 9.0
1157.232544 16.0
1161.543335 15.0
1162.599854 31.0
1164.505859 7.0
1165.668213 22.0
1167.800659 24.0
1169.979736 69.0
1176.050049 47.0
1177.322876 20.0
1179.061157 14.0
1182.796631 24.0
1185.155029 14.0
1185.500732 43.0
1187.380371 19.0
1188.07251 8.0
1189.351807 22.0
1191.761963 34.0
1192.651245 24.0
1193.224243 32.0
1193.450317 17.0
1193.540894 11.0
1194.159302 19.0
1197.963989 44.0
1201.18457 17.0
1201.578003 22.0
1211.312744 18.0
1213.775391 10.0
1214.977173 7.0
1215.920776 12.0
1216.925781 18.0
1219.592407 16.0
1220.614014 35.0
1221.498779 10.0
1221.712402 11.0
1223.712036 7.0
1226.003906 31.0
1226.951782 14.0
1229.935425 36.0
1230.348877 39.0
1232.662231 7.0
1232.73877 16.0
1233.19873 25.0
1235.530029 8.0
1241.398804 6.0
1241.583374 19.0
1243.660767 7.0
1244.307617 11.0
1244.815796 5.0
1244.831177 5.0
1246.464355 12.0
1255.775513 10.0
1257.338501 19.0
1262.11084 13.0
1265.944458 25.0
1266.286255 10.0
1266.39502 8.0
1269.783936 9.0
1271.324463 25.0
1272.772461 17.0
1274.174561 25.0
1276.466309 28.0
1278.35437 7.0
1279.494019 40.0
1280.446655 12.0
1284.448975 15.0
1284.652222 10.0
1286.342773 16.0
1296.304321 8.0
1299.213745 22.0
1299.418335 8.0
1306.761963 9.0
1309.762207 38.0
1310.820923 13.0
1314.047241 22.0
1314.711914 6.0
1314.727661 6.0
1320.464233 31.0
1321.416138 72.0
1330.747803 16.0
1340.016479 38.0
1344.254761 11.0
1351.787964 19.0
1368.031616 7.0
1371.198242 16.0
1373.203491 8.0
1374.854126 11.0
1378.628174 8.0
1389.005493 13.0
1390.291016 10.0
1397.250244 140.0
1405.241455 22.0
1406.583496 18.0
1425.837891 46.0
1428.856201 17.0
1432.720215 21.0
1433.298584 19.0
1444.194336 7.0
1444.741821 8.0
1450.505493 12.0
1453.582886 12.0
1459.747803 11.0
1464.4552 9.0
1465.842163 8.0
1474.781006 7.0
1486.169556 10.0
1487.768799 7.0
1487.785645 7.0
1494.663696 7.0
1498.548218 19.0
1501.371704 15.0
1502.132935 24.0
1504.18103 7.0
1505.349487 15.0
1517.144165 7.0
1522.02832 24.0
1524.055786 11.0
1530.214355 7.0
1545.879761 60.0
1548.008911 27.0
1549.778564 44.0
1553.751099 24.0
1554.938599 8.0
1555.937256 11.0
1572.962646 7.0
1574.209351 9.0
1577.762207 20.0
1588.496704 28.0
1626.812134 7.0
1667.901123 7.0
1669.791504 13.0
1689.848755 48.0
1711.000854 46.0
1766.024902 10.0
1772.580322 22.0
1774.529175 28.0
1794.242432 11.0
1795.426025 22.0
1817.580566 10.0
1823.354736 8.0
1828.111206 18.0
1836.688843 12.0
1838.709961 9.0
1873.50415 21.0
1896.209717 63.0
1949.946045 14.0
1951.85498 24.0
1956.081177 7.0
1963.270142 8.0
1979.124756 9.0
1980.717651 22.0
1990.891968 13.0
2001.13147 17.0
2084.032959 18.0
2095.308105 51.0
2173.091309 41.0
2210.184814 17.0
2215.832275 8.0
2232.488037 49.0
2249.786133 11.0
2274.494629 21.0
2279.931641 26.0
2289.258789 17.0
2325.326416 20.0
2326.020996 11.0
2331.793457 13.0
2341.648438 10.0
2427.470459 15.0
2430.654785 12.0
2433.798096 69.0
2459.104492 11.0
2465.408203 9.0
2473.782227 43.0
2475.063721 35.0
2495.979004 18.0
2550.93457 13.0
2581.208984 42.0
2597.914551 9.0
2608.271729 13.0
2609.074219 7.0
2639.376465 17.0
2642.293213 24.0
2675.36084 46.0
2688.699707 7.0
2702.707031 25.0
2710.633789 7.0
2727.159912 28.0
2773.244873 15.0
2773.93457 13.0
2784.383057 29.0
2784.406006 29.0
2786.041748 15.0
2788.715576 11.0
2802.934814 20.0
2809.456055 11.0
2857.535156 17.0
2883.052002 34.0
2894.07959 13.0
2895.935059 11.0
2949.17749 34.0
2965.700928 11.0
END IONS
