BEGIN IONS
PEPMASS=699.35
CHARGE=1
MSLEVEL=2
SOURCE_INSTRUMENT=LC-ESI-Hybrid FT
FILENAME=f.novakj/siderophores/Desferri_neocoprogen_I.mzXML;
SEQ=*..*
IONMODE=Positive
ORGANISM=GNPS-LIBRARY
NAME=Neocoprogen I M+H
PI=Havlicek
DATACOLLECTOR=
SMILES=CC(=O)NC(CCCN(O)C(=O)\C=C(/C)CCO)C(=O)OCC\C(C)=C\C(=O)N(O)CCCC1NC(=O)C(CCCN(O)C(C)=O)NC1=O
INCHI=
INCHIAUX=
PUBMED=27956353
SUBMITUSER=novakj
TAGS=
LIBRARYQUALITY=3
SPECTRUMID=CCMSLIB00001059086
SCANS=1
173.091949 4401904.0
173.494873 3477157.0
208.096725 2117819.0
225.123062 1138472.0
226.118378 2335683.0
243.133743 1430567.0
267.133423 1385262.0
285.144226 2206886.0
285.155426 10851063.0
303.165985 2949659.0
397.196472 7897312.0
397.207458 3172674.0
398.199768 1388144.0
415.218231 4051639.0
433.105255 1561314.0
569.292419 1691214.0
587.302429 4146379.0
681.345032 1383346.0
699.354614 8441981.0
END IONS
