BEGIN IONS
PEPMASS=768.475
CHARGE=1
MSLEVEL=2
SOURCE_INSTRUMENT=LC-ESI-qTof
FILENAME=f.philipwi/GNPS_Marine_Invertebrate_Secondary_Metabolites_UHManoa/GNPS_SpongeSpectraAlreadyConvertedTo_mzXML/PW-115_P2-B-6_Stylopeptide_1_768amu_Scan802-833_01_15582.mzXML;
SEQ=*..*
IONMODE=Positive
ORGANISM=GNPS-LIBRARY
NAME=Stylopeptide 1 M+H
PI=Philip Williams
DATACOLLECTOR=Williams
SMILES=CC[C@H](C)[C@H]1C(=O)N[C@H](C(=O)N[C@H](C(=O)N2CCC[C@H]2C(=O)N[C@H](C(=O)N3CCC[C@H]3C(=O)N[C@H](C(=O)N1)CC(C)C)[C@H](C)CC)CO)Cc4ccccc4
INCHI=
INCHIAUX=
PUBMED=
SUBMITUSER=philipwi
TAGS=
LIBRARYQUALITY=3
SPECTRUMID=CCMSLIB00000424989
SCANS=824
93.392189 44.0
115.372505 80.0
127.549675 48.0
137.109604 48.0
149.186996 108.0
157.098114 324.0
167.083496 168.0
168.087036 96.0
172.09227 24.0
172.460388 100.0
173.12233 104.0
174.264832 76.0
175.402649 132.0
182.45369 40.0
182.712082 60.0
182.982361 56.0
183.153259 5660.0
183.271484 32.0
183.41066 28.0
183.50563 32.0
183.609268 56.0
183.752533 48.0
183.989502 48.0
184.160309 724.0
185.096573 1036.0
185.227982 20.0
185.410217 40.0
185.488342 48.0
185.905273 24.0
186.105225 56.0
186.287888 32.0
187.630112 32.0
188.140869 124.0
188.828217 24.0
189.292725 44.0
194.004868 148.0
195.018326 32.0
195.117966 140.0
199.184982 344.0
199.836807 140.0
200.186447 248.0
201.127457 88.0
201.769806 44.0
202.132141 28.0
207.127472 120.0
207.642975 52.0
208.553314 96.0
208.986191 76.0
209.133667 68.0
209.871765 44.0
209.98259 32.0
210.124634 32.0
210.241302 24.0
210.379974 56.0
210.833252 44.0
210.944336 32.0
211.148041 13260.0
211.3284 60.0
211.505585 48.0
211.591858 36.0
211.626495 32.0
211.735275 68.0
211.942581 40.0
212.005341 52.0
212.150391 1684.0
212.530426 32.0
212.632645 44.0
212.725616 36.0
213.147293 172.0
213.237259 52.0
213.358276 52.0
213.973236 36.0
215.134949 76.0
216.066971 36.0
216.132553 40.0
216.235657 32.0
217.109909 160.0
217.465317 32.0
217.540527 28.0
218.086166 128.0
218.180298 80.0
220.58786 52.0
221.251068 124.0
222.276245 52.0
222.523407 32.0
223.084778 36.0
225.159088 380.0
225.547882 20.0
226.175369 108.0
226.602158 56.0
227.082184 152.0
227.179062 432.0
228.173935 212.0
229.158432 228.0
229.518921 60.0
231.405914 28.0
231.968658 36.0
232.911331 32.0
233.008636 40.0
233.169174 636.0
233.466171 40.0
234.167969 168.0
234.480209 48.0
234.988052 40.0
235.111938 940.0
235.261734 48.0
236.108093 84.0
236.41684 68.0
237.152496 60.0
239.139542 80.0
239.534012 28.0
240.482025 44.0
241.184387 36.0
241.937332 28.0
245.16011 128.0
245.839569 36.0
246.131424 184.0
246.329559 48.0
251.216324 124.0
251.923462 20.0
252.061325 32.0
252.153214 108.0
253.025208 36.0
253.162537 316.0
253.615906 68.0
254.16127 136.0
257.662018 28.0
258.993896 32.0
259.147797 84.0
259.394135 144.0
260.154419 92.0
261.165131 824.0
261.503021 36.0
262.159332 108.0
263.148041 256.0
263.35141 44.0
264.140808 360.0
264.469788 28.0
264.697906 48.0
264.822388 84.0
266.183014 28.0
267.912201 36.0
268.141785 108.0
268.973816 80.0
269.203339 108.0
269.74118 32.0
270.185669 224.0
271.555389 96.0
272.186035 68.0
272.701569 84.0
272.922668 36.0
273.428375 56.0
275.181335 432.0
276.181915 104.0
278.188324 132.0
279.216064 224.0
280.176331 1292.0
281.027466 24.0
281.17218 288.0
282.161804 168.0
282.771973 48.0
283.154938 172.0
283.329651 36.0
283.89859 28.0
284.006012 36.0
284.930603 68.0
285.027863 72.0
285.162842 656.0
285.835175 52.0
286.160553 448.0
286.417419 36.0
287.135376 248.0
288.146088 100.0
289.077393 36.0
289.153259 96.0
289.250824 100.0
289.879974 68.0
291.172913 48.0
293.134094 64.0
294.718719 20.0
295.14566 76.0
296.004578 60.0
296.13208 68.0
296.236328 1532.0
296.406372 28.0
296.889435 44.0
297.103119 80.0
297.241028 148.0
297.44986 32.0
297.625793 28.0
297.966797 40.0
298.057587 32.0
298.181061 2616.0
298.987549 64.0
299.182434 588.0
299.31073 32.0
299.873413 64.0
299.986267 36.0
300.193604 76.0
301.224701 540.0
302.151642 32.0
302.240295 96.0
302.739197 24.0
302.994354 44.0
303.168304 508.0
303.405029 44.0
304.178345 352.0
304.972626 84.0
305.178589 48.0
306.209503 40.0
306.633545 28.0
306.823303 32.0
307.013153 36.0
307.207184 144.0
308.197876 2392.0
308.433289 32.0
308.634827 52.0
308.937256 24.0
309.038116 32.0
309.204651 360.0
309.39679 36.0
309.699615 32.0
311.283356 24.0
312.17691 92.0
312.465363 24.0
312.758392 32.0
313.193481 232.0
313.638306 40.0
313.773804 20.0
314.038361 100.0
314.154205 1924.0
314.312256 36.0
314.655151 48.0
314.804993 32.0
314.96051 32.0
315.156403 304.0
316.155884 120.0
316.353516 32.0
317.113617 36.0
317.386108 40.0
317.81778 28.0
318.181549 96.0
318.84137 108.0
319.912201 24.0
320.24292 76.0
321.213287 120.0
321.944855 56.0
322.620026 32.0
323.146912 88.0
323.697174 200.0
323.917999 16.0
324.073456 76.0
324.2323 9400.0
324.477509 60.0
324.552948 48.0
324.676575 48.0
324.847168 48.0
325.091217 44.0
325.232208 1360.0
325.409912 28.0
325.592255 32.0
325.695801 172.0
325.810852 76.0
325.993713 36.0
326.226959 352.0
326.340332 32.0
326.48938 168.0
326.639801 28.0
327.239136 92.0
327.331421 40.0
328.185394 48.0
328.462585 68.0
329.237091 136.0
329.526306 28.0
329.618896 28.0
329.966156 44.0
330.188385 588.0
330.533783 40.0
330.719238 32.0
330.893158 24.0
331.043915 28.0
331.177216 188.0
331.809814 28.0
332.065338 36.0
332.164307 1804.0
332.5354 44.0
332.86731 40.0
333.170013 368.0
334.159485 80.0
334.249207 84.0
336.21228 80.0
336.856628 32.0
337.219421 96.0
338.238586 108.0
339.235809 88.0
339.670349 16.0
339.928864 32.0
340.305054 48.0
340.457916 60.0
340.669678 32.0
341.257599 216.0
341.517303 76.0
342.144257 268.0
342.239868 132.0
342.885162 36.0
343.144897 148.0
343.22757 56.0
343.534668 44.0
343.924683 36.0
344.190155 176.0
344.233307 196.0
346.463776 92.0
347.064514 32.0
347.254547 52.0
347.979523 32.0
348.194489 940.0
348.383942 28.0
348.473724 44.0
349.209198 176.0
350.216583 320.0
350.325989 28.0
350.457245 76.0
350.684021 92.0
351.006409 20.0
351.579895 40.0
353.027618 36.0
356.232697 76.0
357.21994 96.0
357.810547 32.0
357.907013 36.0
358.220276 484.0
358.599518 80.0
359.21637 140.0
359.573151 44.0
359.778656 20.0
360.008423 20.0
360.162689 356.0
362.140259 88.0
362.322235 104.0
363.222443 168.0
364.692169 32.0
365.106171 44.0
365.26123 240.0
365.731476 88.0
366.242004 1128.0
367.241608 336.0
367.619598 52.0
369.267822 96.0
370.53418 24.0
371.246216 108.0
372.222015 96.0
373.854584 48.0
374.236145 76.0
374.582123 44.0
374.80423 24.0
375.244781 88.0
375.95282 36.0
376.226349 192.0
377.00412 20.0
377.216888 492.0
377.63623 40.0
378.227356 144.0
379.570526 20.0
380.141998 32.0
380.415497 40.0
382.218597 236.0
382.638 48.0
382.781403 28.0
383.266052 628.0
384.209106 108.0
384.754425 44.0
385.269745 100.0
385.567596 44.0
387.250397 180.0
388.037354 48.0
392.301208 276.0
392.492706 40.0
392.79837 36.0
392.965759 32.0
393.114258 36.0
393.28714 792.0
393.619965 24.0
394.050079 28.0
394.286041 440.0
394.493103 36.0
395.232208 884.0
396.220917 268.0
396.318359 40.0
396.978516 28.0
397.944366 36.0
398.251343 80.0
398.987762 52.0
399.234314 676.0
399.752106 28.0
399.943298 44.0
400.233368 376.0
400.542694 48.0
400.836151 20.0
401.22171 236.0
401.551178 44.0
401.717255 28.0
402.011139 32.0
402.266815 88.0
403.251862 52.0
403.443878 136.0
403.711151 220.0
405.058777 132.0
405.207458 80.0
406.188538 32.0
408.246674 96.0
409.329285 228.0
409.755005 28.0
410.090546 24.0
410.322937 80.0
410.728973 64.0
410.8396 48.0
411.098053 48.0
411.260742 1396.0
411.679871 24.0
412.26947 468.0
413.635193 28.0
413.907471 32.0
415.241852 232.0
415.439209 52.0
415.725098 36.0
416.250305 488.0
416.828125 88.0
417.150208 72.0
417.251526 2464.0
417.9245 76.0
418.255432 216.0
418.928528 28.0
419.098145 76.0
419.253601 200.0
419.450562 20.0
420.116669 32.0
420.325745 124.0
420.730957 24.0
421.280243 3512.0
421.542023 32.0
421.686005 28.0
422.285645 1228.0
422.788879 120.0
423.293854 28.0
423.559937 24.0
424.150513 76.0
425.161987 36.0
425.608978 76.0
426.251129 64.0
426.832886 32.0
427.235626 1208.0
427.504791 28.0
427.689331 20.0
428.243042 700.0
428.903015 32.0
429.228363 112.0
429.642609 32.0
431.918243 32.0
432.183228 48.0
434.280823 232.0
435.249847 32.0
437.32251 144.0
438.306549 176.0
439.293579 260.0
440.258209 212.0
440.706085 56.0
440.8349 64.0
441.214752 84.0
441.777283 40.0
442.688843 32.0
443.045898 36.0
443.302582 2544.0
443.628174 40.0
443.921326 24.0
444.138519 40.0
444.308197 688.0
444.608826 48.0
444.729797 24.0
445.030945 36.0
445.248199 3476.0
445.406342 52.0
445.577118 32.0
445.859711 48.0
445.98761 44.0
446.127014 28.0
446.249084 1124.0
446.78894 28.0
447.24527 348.0
447.732635 36.0
447.934967 20.0
448.312805 36.0
449.041931 24.0
449.73111 32.0
451.165192 44.0
453.429169 32.0
454.271118 148.0
454.673615 32.0
455.237122 132.0
455.943787 144.0
456.229675 84.0
457.115112 28.0
458.260651 56.0
459.270996 128.0
460.282471 32.0
461.27771 344.0
461.859283 40.0
462.293854 164.0
463.090302 64.0
463.301392 172.0
463.762726 32.0
464.295502 88.0
464.449341 44.0
465.54422 104.0
465.87915 28.0
466.966736 36.0
468.331451 24.0
468.869629 24.0
469.037598 24.0
469.17334 28.0
469.325226 76.0
469.449524 32.0
469.601471 44.0
469.891602 36.0
471.006927 24.0
471.296417 4352.0
471.431244 24.0
471.883484 36.0
472.101288 44.0
472.299652 1888.0
472.449402 28.0
472.497986 44.0
472.728546 32.0
473.29776 252.0
473.796326 20.0
473.954498 40.0
474.26062 88.0
474.393158 28.0
475.26825 72.0
476.561523 32.0
478.35965 128.0
479.125458 28.0
479.332703 80.0
480.329559 540.0
480.847534 104.0
481.326141 244.0
481.626312 56.0
482.325439 60.0
482.592072 64.0
483.297546 100.0
484.31604 120.0
485.320038 120.0
486.318909 144.0
488.315979 224.0
489.299103 184.0
490.303986 672.0
491.115479 44.0
491.313782 380.0
491.807922 60.0
492.305054 148.0
492.628204 24.0
493.293396 68.0
493.392517 52.0
495.298645 288.0
496.086426 100.0
496.310364 172.0
496.810791 20.0
497.289337 132.0
498.27533 72.0
499.309875 132.0
499.670776 24.0
500.35495 100.0
501.331207 100.0
503.125 100.0
503.425293 32.0
503.654175 32.0
505.401001 40.0
505.587311 44.0
505.928741 44.0
506.103424 44.0
506.203827 40.0
506.370117 484.0
506.562439 36.0
507.136475 32.0
507.368713 264.0
507.495422 156.0
508.127472 44.0
508.312653 1920.0
508.831818 32.0
509.047516 32.0
509.31839 396.0
509.738098 44.0
510.155548 52.0
510.304443 224.0
510.659607 64.0
510.90451 28.0
511.308014 84.0
511.841492 28.0
512.028992 36.0
512.318604 356.0
513.039185 24.0
513.314453 1236.0
513.862488 40.0
514.31427 500.0
515.0047 24.0
515.317566 280.0
516.307434 128.0
516.872498 64.0
517.42334 36.0
517.669922 32.0
518.569519 140.0
518.714661 80.0
519.324585 100.0
519.540039 116.0
522.306824 32.0
522.408813 32.0
523.300415 224.0
523.677185 44.0
523.983521 40.0
524.298584 348.0
525.28241 100.0
525.531372 36.0
525.662903 36.0
525.926025 24.0
526.287476 72.0
526.993713 56.0
528.334534 148.0
529.440369 92.0
529.601746 40.0
529.895142 48.0
530.203369 24.0
530.334717 1804.0
530.731873 32.0
531.333557 648.0
531.533752 48.0
532.010254 52.0
532.348938 80.0
532.613281 100.0
534.01178 48.0
534.366028 2028.0
534.845154 36.0
535.190857 32.0
535.378906 500.0
536.371277 328.0
536.548462 36.0
537.035828 24.0
537.337219 100.0
537.486023 36.0
537.589905 36.0
537.730347 44.0
538.913513 24.0
539.194763 40.0
539.361389 280.0
540.053589 36.0
540.32135 1884.0
540.587036 36.0
541.076233 20.0
541.318665 868.0
541.701477 44.0
541.832703 36.0
542.304749 676.0
542.753052 28.0
543.31189 156.0
543.763367 32.0
544.315979 120.0
544.982971 68.0
546.81488 48.0
547.098145 64.0
550.278564 52.0
552.368408 172.0
553.438232 92.0
555.111572 48.0
555.458618 20.0
555.8703 24.0
556.170959 36.0
556.37146 176.0
556.606995 48.0
556.967957 20.0
557.098389 48.0
557.449463 80.0
557.889038 40.0
558.016541 36.0
558.14502 40.0
558.329834 7180.0
558.585999 72.0
558.801697 76.0
559.091187 48.0
559.333984 2208.0
559.633911 52.0
559.843201 32.0
559.937195 36.0
560.347107 348.0
560.690002 64.0
561.037231 24.0
561.15802 28.0
561.339233 80.0
561.453125 52.0
565.547241 40.0
566.243225 132.0
566.425293 36.0
566.637695 72.0
567.07782 36.0
567.322388 148.0
568.346619 452.0
568.581665 36.0
569.336853 36.0
569.471497 108.0
570.300537 36.0
574.265381 28.0
574.586182 36.0
575.518677 48.0
575.793945 28.0
576.099915 28.0
576.369507 108.0
576.727417 60.0
577.374573 60.0
577.539001 128.0
577.73822 32.0
579.363464 40.0
580.622314 36.0
581.359802 64.0
582.390076 72.0
583.482788 36.0
584.391602 88.0
585.387085 112.0
586.336914 204.0
587.326721 92.0
589.302246 80.0
590.742249 40.0
591.377625 28.0
592.370178 64.0
592.882263 20.0
593.403748 564.0
593.891602 28.0
594.390137 140.0
595.406799 132.0
596.391846 128.0
597.376404 112.0
597.516663 32.0
598.383728 64.0
598.95105 152.0
599.403564 180.0
599.606445 32.0
600.371582 48.0
600.87146 96.0
602.388123 80.0
603.154968 28.0
603.397888 424.0
603.593384 52.0
603.843994 64.0
604.37323 84.0
605.207581 64.0
606.368591 72.0
607.436462 84.0
608.390747 196.0
609.394226 140.0
609.748108 80.0
610.062988 44.0
610.377075 204.0
611.367004 236.0
612.373779 76.0
613.831787 40.0
617.026123 104.0
618.325256 36.0
618.674011 44.0
619.007019 32.0
619.308411 28.0
620.070068 20.0
620.546387 40.0
620.927551 44.0
621.033691 60.0
621.402161 1508.0
621.610718 32.0
621.833252 60.0
622.402039 740.0
622.543518 72.0
622.998535 44.0
623.408325 212.0
623.583008 32.0
624.25177 32.0
624.442932 92.0
625.379883 100.0
625.622253 92.0
625.941162 28.0
626.402344 660.0
626.930359 56.0
627.241211 48.0
627.392639 1696.0
627.648804 40.0
628.391174 428.0
628.527466 24.0
629.387634 160.0
629.579468 40.0
629.950562 64.0
630.094543 48.0
630.375366 68.0
633.796265 24.0
635.459961 60.0
636.413452 48.0
636.656006 24.0
637.049622 36.0
637.377686 1588.0
637.78241 56.0
638.056091 24.0
638.371704 1088.0
639.151489 84.0
639.376831 136.0
639.618958 80.0
640.086548 32.0
640.40918 80.0
640.796387 32.0
641.571167 40.0
643.428711 108.0
644.43219 120.0
646.067627 28.0
646.651062 88.0
649.799622 28.0
651.881226 28.0
652.10907 28.0
652.353271 36.0
652.630066 32.0
652.972107 40.0
653.22113 28.0
653.43158 152.0
654.152771 84.0
654.443054 204.0
654.579224 60.0
654.69989 116.0
654.909607 80.0
655.104492 40.0
655.384644 7064.0
655.741455 48.0
655.852295 52.0
655.997192 36.0
656.038025 68.0
656.217651 52.0
656.387878 3064.0
656.789307 48.0
657.071594 168.0
657.246826 32.0
657.390869 532.0
657.713806 56.0
658.031433 48.0
658.375671 92.0
658.505737 48.0
658.734802 28.0
659.160217 28.0
659.815063 32.0
660.011536 28.0
660.371887 32.0
661.387878 40.0
662.847717 84.0
662.962585 24.0
665.444214 72.0
665.7229 44.0
666.841797 28.0
668.950439 40.0
670.38562 76.0
670.963379 32.0
671.418518 240.0
672.408752 356.0
672.615601 20.0
672.830566 44.0
673.442444 40.0
676.788147 16.0
678.825378 136.0
679.194885 28.0
681.434814 948.0
681.988708 64.0
682.22937 44.0
682.429138 468.0
683.154541 20.0
683.445068 104.0
684.471375 56.0
686.440735 24.0
687.476562 68.0
687.760742 32.0
689.048584 72.0
690.538635 108.0
694.329529 52.0
694.883972 52.0
695.44751 184.0
696.464417 28.0
696.868164 24.0
698.029785 36.0
699.394592 64.0
700.42334 80.0
706.476013 60.0
712.350525 52.0
714.15509 72.0
715.586731 72.0
717.890625 44.0
718.027283 80.0
719.719299 36.0
721.987 88.0
722.321045 48.0
722.461975 284.0
723.246521 28.0
723.465698 480.0
724.456909 240.0
725.472473 220.0
726.473022 52.0
727.538635 32.0
728.157715 96.0
735.46936 72.0
736.470215 36.0
737.026001 44.0
737.251038 40.0
737.787659 48.0
738.462219 268.0
738.774963 28.0
738.902588 48.0
739.44043 208.0
739.589478 44.0
740.153992 72.0
740.475891 4252.0
740.716736 36.0
740.924927 48.0
741.204346 40.0
741.479065 1428.0
741.862244 24.0
742.090454 28.0
742.315247 44.0
742.473145 432.0
743.338745 32.0
743.482605 64.0
743.842834 40.0
744.312317 52.0
744.503662 32.0
745.599854 32.0
746.627136 40.0
746.818726 32.0
749.870422 32.0
749.992615 44.0
750.161377 36.0
750.460815 1560.0
750.824219 64.0
751.057861 52.0
751.178589 44.0
751.46228 596.0
751.850037 48.0
752.457397 216.0
752.858337 40.0
753.05072 32.0
753.488098 36.0
755.74707 28.0
756.413086 28.0
759.291077 92.0
759.484253 24.0
760.978271 56.0
761.277222 32.0
761.523438 56.0
763.935303 40.0
764.076294 40.0
764.210266 40.0
764.284851 24.0
764.384705 32.0
764.58252 64.0
765.026184 40.0
765.259766 28.0
765.481323 84.0
765.955505 68.0
766.2323 88.0
766.459778 24.0
766.598083 36.0
767.37677 36.0
767.64502 72.0
767.786011 72.0
767.857666 60.0
768.054138 84.0
768.268127 28.0
768.308533 60.0
768.473816 18752.0
768.723022 116.0
768.916992 180.0
769.16394 112.0
769.471863 7268.0
769.936646 100.0
770.201843 76.0
770.478271 1884.0
770.733643 64.0
770.957214 44.0
771.167236 80.0
771.478027 240.0
771.9375 28.0
772.136047 56.0
772.305054 32.0
773.01825 40.0
773.555298 56.0
774.06427 48.0
774.365784 28.0
775.495239 104.0
776.146362 76.0
776.300476 40.0
776.460327 164.0
776.833435 40.0
776.975525 24.0
778.13092 48.0
778.913513 28.0
779.038086 36.0
781.602234 116.0
783.20697 24.0
783.777954 36.0
784.349121 120.0
784.618896 36.0
784.866943 36.0
785.581421 32.0
787.082947 36.0
788.890259 40.0
789.337952 104.0
790.441101 44.0
791.273315 28.0
797.849792 52.0
799.002563 36.0
800.156128 32.0
810.884644 88.0
816.557983 100.0
816.922302 40.0
833.567871 20.0
862.993774 144.0
869.184509 68.0
872.777771 80.0
877.303345 172.0
877.71875 176.0
892.606384 64.0
899.571289 32.0
905.23938 28.0
922.718445 160.0
924.248779 52.0
930.441223 64.0
942.340027 64.0
985.241394 124.0
1025.644775 100.0
1074.640381 56.0
1077.379517 48.0
1086.647583 60.0
1089.801758 76.0
1100.243286 84.0
1100.518188 32.0
1104.64563 32.0
1146.971558 56.0
1173.264282 88.0
1193.217896 72.0
1208.814331 108.0
1244.962402 172.0
1294.018799 76.0
1331.107544 24.0
1332.735962 84.0
1360.737183 76.0
1453.283691 64.0
1515.390259 44.0
END IONS
