BEGIN IONS
PEPMASS=934.292
CHARGE=1
MSLEVEL=2
SOURCE_INSTRUMENT=LC-ESI-Orbitrap
FILENAME=f.daniel/Albis/XA_Frac_1.mzXML;
SEQ=*..*
IONMODE=Positive
ORGANISM=GNPS-LIBRARY
NAME=Carbamoyl-Beta-Methoxy-Asn-Albicidin M+H
PI=Roderich Suessmuth
DATACOLLECTOR=Daniel petras
SMILES=C/C(C(NC1=CC=C(C(NC(C(OC)C(N)=O)C(NC2=CC=C(C(NC3=C(OC)C(O)=C(C(NC4=C(OC)C(O)=C(C(O)=O)C=C4)=O)C=C3)=O)C=C2)=O)=O)C=C1)=O)=C\C5=CC=C(OC(N)=O)C=C5
INCHI=
INCHIAUX=
PUBMED=28876492
SUBMITUSER=daniel
TAGS=Gram-negative, Gram-possitive[Bioactivity (Active against)]
LIBRARYQUALITY=3
SPECTRUMID=CCMSLIB00004681487
SCANS=681
263.75 6.118235
263.916656 5.064777
264.333344 1.000613
264.833344 5.8e-05
280.0 6.05582
280.75 8.9e-05
283.083344 1.191183
283.666656 8.1e-05
284.5 2.311925
285.083344 48.321259
285.916656 0.000858
313.0 0.477726
313.583344 3.8e-05
321.0 1.389931
321.583344 0.000141
323.083344 1224.832031
324.166656 0.000441
328.166656 1.709007
328.833344 7.5e-05
331.166656 31.45627
331.833344 0.000844
333.25 0.751409
333.833344 4.1e-05
338.916656 0.662608
339.5 4.1e-05
341.25 0.865154
341.75 4.8e-05
349.0 6.741682
349.75 0.000117
353.0 0.705288
353.25 0.796629
353.833344 5.2e-05
364.083344 2.626158
364.583344 0.000133
365.083344 2.253791
365.666656 0.000114
375.0 1.676407
375.583344 0.000152
378.916656 2.143441
379.25 1.161781
379.833344 7.5e-05
380.083344 0.807367
380.666656 4.2e-05
382.916656 2.776075
383.25 0.608258
383.833344 5.8e-05
391.583344 0.921042
392.333344 7.204207
392.916656 0.000364
393.25 1.930021
393.75 0.00018
394.25 0.604558
394.833344 4.3e-05
396.333344 18.851566
397.083344 0.000377
399.25 5.622875
399.916656 0.000231
401.083344 0.826144
401.666656 8e-05
404.083344 1.806125
404.666656 8.3e-05
407.25 0.879775
407.833344 6.2e-05
411.25 1.384931
411.75 0.000122
414.416656 2.223509
414.916656 0.00012
417.083344 2.81998
418.25 67.93914
419.0 0.00063
421.583344 3.175736
422.166687 53.013821
423.166687 0.000546
423.666687 3.692406
424.25 14.034639
425.0 0.000269
434.416687 3.198685
435.083344 83.749954
436.0 2.189738
436.583344 0.000131
439.0 29.170179
439.25 28.257299
440.083344 0.00059
449.25 4.531933
449.916687 0.000138
450.166687 0.584979
450.75 3.9e-05
465.75 0.939874
465.916687 1.203173
467.166687 2647.5896
468.166687 368.013794
469.166687 0.000646
480.333344 1.538793
480.583344 1.678178
481.083344 9.1e-05
483.083344 0.762273
483.583344 5.2e-05
487.833344 4.376379
488.25 8.174109
489.0 0.000257
498.166687 1.139877
498.666687 5.6e-05
503.583344 0.645985
504.166687 4.5e-05
511.333344 1.301994
511.833344 8.3e-05
530.333313 0.905087
530.916687 4.5e-05
533.916687 3.09681
534.25 0.793414
534.75 6.7e-05
537.083313 5.056298
537.333313 2.467561
537.833313 0.00013
542.833313 1.797235
543.416687 4.880926
544.0 0.00026
547.5 2.468725
548.083313 0.000148
554.166687 2.095715
554.416687 0.547273
555.0 3.6e-05
558.25 0.913012
558.833313 6.3e-05
565.333313 0.622146
565.833313 5.3e-05
582.333313 4.478916
582.916687 0.000221
585.25 1.297087
585.5 5.323975
586.25 206.991837
587.25 0.000483
594.166687 5.83551
595.0 0.000118
596.166687 0.381141
596.666687 3.7e-05
599.083374 2.108923
599.666687 0.000153
603.333374 0.323807
603.75 3.362348
603.916687 2.214634
604.166687 9.932862
604.416687 9.810589
605.0 0.000508
607.083374 1.136414
607.666687 5.6e-05
614.083374 0.653878
614.666687 4.2e-05
625.5 2.439777
626.0 0.000138
632.083374 2.794966
632.416687 5.332321
633.0 0.000358
653.25 2.739245
653.833374 0.000176
666.166687 1.143482
666.75 9.1e-05
670.75 2.551852
671.0 6.368876
671.583374 0.000303
672.416687 0.375057
672.916687 3e-05
673.416687 0.820324
673.916687 5.1e-05
681.083374 6.433745
681.833374 0.00017
691.75 0.754015
692.333374 3.8e-05
695.333374 4.398605
695.916687 0.000119
696.166687 2.154668
696.75 0.000165
701.083374 1.393346
701.583374 8.7e-05
702.166687 10.338913
702.833374 0.000381
708.25 2.053468
708.833374 0.000157
712.5 1.355333
712.916687 6.633149
713.166687 13.035115
713.583374 1.36818
714.083374 0.000104
719.0 6.212322
719.333374 4.312186
719.916687 0.00026
720.25 1.814355
720.833374 0.000132
732.583374 2.883024
733.0 5.435132
733.25 5.790183
734.0 2.365599
734.333374 1.536536
734.833374 0.000108
742.083374 1.57872
742.666687 7.9e-05
750.166687 3.598033
751.166687 887.918701
752.333374 5.02402
752.916687 0.000276
758.083374 1.461739
758.666687 7.2e-05
764.0 0.801093
764.166687 1.091994
764.75 9.3e-05
765.083374 0.883258
765.583374 6e-05
768.666687 3.597466
769.166687 0.392691
770.25 16.580851
770.416687 14.950642
771.083374 0.000749
775.166687 0.45929
775.666687 4.2e-05
776.25 2.539727
776.833374 0.00022
779.166687 0.438804
779.666687 3.5e-05
790.083374 2.033043
790.666687 0.000113
796.583374 2.6664
797.166687 8.600122
797.416687 3.182679
797.916687 0.000221
814.666687 2.343785
815.25 0.000132
828.416687 0.546634
828.916687 3e-05
833.333374 1.087044
833.916687 7.5e-05
840.083374 0.763864
840.583374 4.9e-05
840.916687 6.37184
841.583374 4.224689
842.083374 0.000238
842.75 0.448901
843.333374 3.3e-05
855.083374 0.740244
855.666687 3.6e-05
856.916687 2.210831
857.5 0.000129
858.416687 1.51932
859.083374 1.937629
859.833374 3.212927
860.333374 0.000259
864.5 7.345652
865.0 0.000428
868.5 1.244791
869.083374 8e-05
869.666687 2.326869
869.916687 2.094919
870.5 0.000141
871.333374 0.65568
871.833374 4.1e-05
872.25 2.522904
872.75 0.000136
873.166687 2.986207
873.75 0.000223
874.166687 0.784144
874.75 7.6e-05
875.083374 2.835678
875.666687 0.000156
877.416687 3.447873
878.0 0.000247
879.333374 1.322235
879.916687 0.783547
880.416687 4.5e-05
883.75 1.276092
884.25 3.034842
884.583374 3.284739
884.75 5.467509
885.166687 8.866405
885.416687 9.204983
886.083374 0.000255
887.833374 0.499577
888.333374 4.5e-05
888.75 5.267024
889.5 2.376429
889.833374 2.43456
890.333374 2.594002
890.916687 8.887191
891.166687 11.230197
891.75 0.000633
894.416687 2.81893
895.0 0.000239
895.416687 0.9875
895.916687 8.7e-05
896.75 2.373937
897.333374 0.000137
898.0 2.194379
898.333374 0.89584
898.5 0.679502
899.083374 2.607964
899.5 3.83785
900.083374 0.000177
901.166687 4.738819
901.333374 3.183924
901.666687 8.538522
901.833374 6.510245
902.083374 14.119884
902.666687 0.000751
903.0 2.33843
903.583374 0.000216
904.166687 0.654618
904.75 3.9e-05
905.333374 2.194381
905.916687 0.000136
907.833374 0.508383
908.416687 2.8e-05
911.5 6.315455
912.083374 0.000384
913.166687 2.492025
913.75 0.000211
914.75 0.999747
915.083374 2.996007
915.25 4.187435
915.5 4.926028
916.166687 73.663498
917.0 13.537937
917.333374 2.207442
917.916687 0.000136
922.416687 2.372259
923.0 0.000125
924.0 7.489869
924.666687 0.000264
925.666687 1.355429
926.166687 0.000116
933.5 2.749115
934.083374 0.000236
934.583374 0.356732
935.166687 3.3e-05
END IONS
