BEGIN IONS
PEPMASS=509.78
CHARGE=2
MSLEVEL=2
SOURCE_INSTRUMENT=LC-ESI-Orbitrap
FILENAME=f.Rolandoo1/20190519 Moroidin paper GNPS/[Gln1]-moroidin-[QLLVWRAH].mzXML;
SEQ=*..*
IONMODE=Positive
ORGANISM=GNPS-LIBRARY
NAME=[Gln1]-moroidin-[QLLVWRAH] M+2H
PI=Jing-Ke Weng
DATACOLLECTOR=Roland Kersten
SMILES=NC(C(NC(C(NC(CC(C)C)C(NC(C(C)C)C(NC(C(NC(C(NC(C)C(NC(CC1=CN2C=N1)C(O)=O)=O)=O)CCCNC(N)=N)=O)CC3=C2NC4=C3C=CC5=C4)=O)=O)=O)C5C(C)C)=O)CCC(N)=O
INCHI=
INCHIAUX=
PUBMED=
SUBMITUSER=Rolandoo1
TAGS=
LIBRARYQUALITY=3
SPECTRUMID=CCMSLIB00005435915
SCANS=1
71.990311 360.18335
71.990891 620.575623
71.99147 740.306946
71.99205 660.289368
71.99263 421.912506
71.993202 64.746002
72.076683 319.798035
72.077263 1323.252686
72.077843 2171.134033
72.078423 5994.803711
72.079002 20817.998047
72.079582 58223.234375
72.080162 101079.28125
72.080742 129026.15625
72.081322 102606.960938
72.081909 60656.316406
72.082489 21512.720703
72.083069 5376.301758
72.083649 1658.486938
72.084229 1537.295776
72.084808 921.046082
72.085388 183.125168
72.085968 14.234243
74.410965 357.385681
74.411575 601.167358
74.412178 742.46875
74.412788 724.293274
74.413399 529.08783
74.414009 201.81665
77.820114 385.694061
77.82077 758.478333
77.821419 993.420715
77.822067 961.279846
77.822723 668.02771
77.823372 307.532806
77.82402 43.955204
80.00737 422.17572
80.008049 730.518127
80.008728 828.804077
80.009407 684.079102
80.010086 385.819183
80.010765 79.916718
82.704483 390.327637
82.705193 703.354431
82.70591 803.776855
82.706619 727.561768
82.707336 546.988037
82.708046 175.475967
83.055038 382.903992
83.055756 1452.66272
83.056473 2702.9375
83.05719 6792.259766
83.057915 22074.007812
83.058632 62104.171875
83.059349 115273.1875
83.060066 155660.296875
83.060783 139676.171875
83.061501 89251.265625
83.062218 38350.097656
83.062935 10032.734375
83.063652 2049.614502
83.064369 734.923828
83.065086 159.925766
83.065804 4.253386
84.039055 332.064972
84.039787 2170.824219
84.040512 4393.905762
84.041245 10247.704102
84.041977 33141.449219
84.042709 84699.664062
84.043434 152601.625
84.044167 197050.984375
84.044899 171153.453125
84.045631 105345.796875
84.046356 44669.597656
84.047089 11526.892578
84.047821 3179.856689
84.048553 2225.331787
84.049278 1362.783569
84.050011 310.688538
84.078514 244.358643
84.079247 539.129883
84.079979 713.246643
84.080704 665.974243
84.081436 404.723175
84.082169 103.780487
84.105568 263.762268
84.1063 628.624207
84.107033 823.798828
84.107765 721.100037
84.10849 411.444763
84.109222 122.125198
86.089806 127.959793
86.090561 754.279602
86.091324 3254.855225
86.092079 6389.723145
86.092834 12447.683594
86.09359 35689.738281
86.094353 109082.773438
86.095108 220936.390625
86.095863 327036.5625
86.096626 331208.6875
86.097382 232106.5625
86.098137 114184.554688
86.098892 36173.929688
86.099655 8589.308594
86.10041 3349.681396
86.101166 2024.954468
86.101929 1133.351685
86.102684 332.578583
87.097572 596.979492
87.098343 1514.654053
87.099113 2142.921875
87.099884 2160.02417
87.100655 1545.69751
87.101425 734.694763
87.102196 170.270691
100.073135 131.688431
100.074081 454.661255
100.075035 665.477844
100.075981 646.376465
100.076935 413.416107
100.077881 138.995773
100.270866 92.97718
100.27182 344.258881
100.272774 590.117981
100.273727 728.332336
100.274673 657.578979
100.275627 423.759552
100.276581 162.120895
101.061905 28.85561
101.062866 232.996338
101.063828 621.899048
101.064796 1356.466431
101.065758 3199.682861
101.066719 5879.465332
101.067688 18225.759766
101.068649 49782.535156
101.069611 91822.828125
101.070572 125606.960938
101.071541 113533.59375
101.072502 69260.734375
101.073463 30306.470703
101.074432 7468.580078
101.075394 1805.624146
101.076355 1061.221802
101.077316 1218.430664
101.078285 1457.820557
101.079247 29.874582
104.206459 79.716057
104.207466 452.317657
104.208473 816.289001
104.209488 950.17865
104.210495 756.769714
104.211502 373.766602
109.241501 22.287382
109.242584 278.374237
109.24366 400.746002
109.244743 442.06723
109.245827 380.824951
109.24691 238.040497
110.066772 34.152527
110.067863 243.734177
110.068962 589.253296
110.070053 962.60614
110.071152 1124.551147
110.072243 967.394897
110.073341 606.009216
110.074432 244.580917
111.052185 55.928745
111.053299 345.304138
111.054405 566.469116
111.055519 641.377136
111.056625 525.714233
111.057739 276.910461
112.081268 29.874966
112.082397 349.746643
112.083519 1769.504517
112.084648 5080.849121
112.08577 8449.915039
112.086899 10254.581055
112.08802 7839.133789
112.089149 4308.084961
112.090271 1400.058594
112.0914 148.841721
112.920784 35.272549
112.921921 406.241608
112.923065 713.959595
112.924202 876.171997
112.925339 765.063538
112.926476 427.853363
113.066559 192.651382
113.067703 1487.428467
113.06884 3139.684082
113.069984 5033.865723
113.071121 5473.843262
113.072258 3695.415283
113.073402 2059.218262
113.074539 703.510742
113.075684 30.526073
114.051041 39.924828
114.0522 355.294037
114.053352 663.264282
114.054504 861.90155
114.055664 808.926147
114.056816 537.54187
114.057976 221.033981
114.089165 46.863361
114.090317 396.407806
114.091476 587.74823
114.092628 618.988892
114.093788 475.462738
114.09494 242.376007
115.083549 58.095726
115.084717 498.99646
115.085892 762.69574
115.087059 794.801514
115.088234 556.763245
115.089401 235.0242
115.090576 14.087125
125.246506 309.458221
125.247833 676.152527
125.249161 1065.587158
125.250488 1221.555542
125.251816 1413.827148
125.253151 1440.053711
125.254478 1577.828613
125.255806 1776.406372
125.257133 1820.643433
125.258469 1546.952393
125.259796 984.800293
125.261124 483.767761
125.262451 37.304455
126.303093 328.213623
126.304443 704.728027
126.305786 901.512329
126.307129 762.943176
126.308479 413.215881
126.309822 34.097801
128.069748 507.896576
128.071121 1141.186035
128.072495 2561.162842
128.073868 2307.022217
128.075241 1730.536377
128.076614 4954.05957
128.077988 17822.238281
128.079361 40137.964844
128.08075 63895.992188
128.082123 68793.96875
128.083496 46724.710938
128.084869 23822.632812
128.086243 6795.57959
128.087616 1525.599976
128.088989 408.133759
129.059402 99.883942
129.060791 1129.34021
129.06218 4698.300781
129.063583 10006.871094
129.064972 15434.69043
129.06636 15538.474609
129.067749 10158.456055
129.069138 4826.168457
129.070526 1136.116943
129.071915 93.057091
129.073303 3.781945
137.495377 256.205383
137.496918 503.138947
137.498444 653.523743
137.499969 592.4151
137.501495 352.42453
137.503021 82.933235
140.139374 348.296997
140.140945 755.421814
140.142517 1115.130615
140.144089 1190.659424
140.14566 935.238464
140.147232 519.811401
140.148819 99.977806
152.251114 302.263489
152.252899 608.72406
152.254669 786.369995
152.256454 752.275818
152.25824 549.48645
152.260025 85.847488
154.467804 315.319397
154.46962 651.681274
154.471436 841.188171
154.473267 761.289612
154.475082 467.905151
154.476898 80.099655
156.071152 399.707764
156.072998 1396.653809
156.074844 2351.427979
156.076691 2714.422607
156.078537 2248.708008
156.080399 1298.138672
156.082245 411.596588
156.084091 46.557732
159.969604 440.056274
159.971527 1029.603394
159.97345 1852.698486
159.975357 2305.328125
159.97728 2133.340088
159.979202 1494.057617
159.981125 821.578125
159.983032 172.144058
168.888031 272.865143
168.890121 508.217163
168.892197 612.006104
168.894287 546.326843
168.896362 353.844025
168.898438 67.038071
170.419662 297.198151
170.421768 675.422913
170.423874 963.528564
170.425995 1012.564331
170.428101 780.966553
170.430206 217.688354
172.092026 380.325165
172.094162 702.886597
172.096313 831.05481
172.09845 708.695984
172.100586 419.554413
172.102722 104.256615
172.701569 475.198822
172.70372 791.611694
172.705872 862.164795
172.708023 744.590454
172.710175 528.764099
172.712326 133.43335
174.098007 294.10965
174.100189 663.37262
174.102371 886.118347
174.104553 853.131897
174.10672 588.038269
174.108902 179.015579
181.470673 354.275574
181.472992 725.546753
181.475311 915.445801
181.477631 848.902893
181.47995 579.715576
181.482269 144.260498
183.118286 176.010391
183.120636 442.253418
183.122986 639.680054
183.125336 633.188782
183.127686 426.817169
183.130035 87.946495
185.146225 354.807831
185.148605 1011.556335
185.151001 865.545532
185.153381 998.993042
185.155777 3047.494385
185.158157 10653.634766
185.160553 23015.496094
185.162933 36621.148438
185.165329 38887.796875
185.167725 27882.128906
185.170105 14341.900391
185.172501 4949.71582
185.174881 995.978699
185.177277 107.825005
194.303619 349.41922
194.306198 695.8302
194.308762 850.419434
194.311325 829.798889
194.313889 618.356445
194.316467 321.026825
194.319031 12.497133
197.894073 296.570099
197.896713 674.752502
197.899353 927.078735
197.901993 924.892334
197.904633 661.736389
197.907272 179.955505
202.336075 369.549927
202.338806 721.067017
202.341537 918.924744
202.344254 947.266296
202.346985 773.528809
202.349716 472.232147
202.352448 130.397507
204.077423 205.63942
204.080185 479.659027
204.082947 624.993896
204.085709 551.074463
204.088486 322.025452
204.091248 80.52829
213.148499 524.010437
213.151443 1745.467896
213.154404 3583.426758
213.157349 5445.236816
213.160294 5847.035156
213.163254 4413.484375
213.166199 2420.998779
213.169159 998.718079
213.172104 222.364639
215.892258 298.55127
215.895264 584.144043
215.89827 671.947021
215.901276 566.818481
215.904282 342.911682
215.907288 92.297798
227.102798 156.640366
227.106033 431.810333
227.109283 677.084045
227.112534 736.949036
227.115768 569.931458
227.119019 233.911255
229.121628 327.552704
229.124924 808.831848
229.128204 1127.030396
229.1315 1089.724243
229.134781 724.51001
229.138077 290.437744
279.027039 161.590134
279.031433 421.812225
279.035858 605.468567
279.040283 612.275696
279.044708 439.894745
279.049133 173.858307
288.64682 289.560944
288.651459 618.046143
288.656128 762.161377
288.660767 655.233643
288.665436 367.670837
288.670074 87.524002
293.649139 129.115799
293.6539 432.324005
293.658661 799.113586
293.663452 1006.27533
293.668213 906.482239
293.672974 577.481873
293.677765 158.465256
311.14624 216.029877
311.151428 1565.364136
311.156647 4002.426758
311.161835 7119.59082
311.167053 8407.323242
311.172241 6242.458008
311.17746 3358.029541
311.182648 1258.143066
311.187866 194.977371
313.185791 190.058075
313.19104 467.177582
313.196289 641.857361
313.201538 602.629578
313.206818 383.827026
313.212067 93.046844
315.171173 282.880829
315.176483 798.674561
315.181793 1282.985352
315.187073 1426.464355
315.192383 1125.616699
315.197693 601.170349
315.203003 134.148636
317.154083 609.697388
317.159424 1399.85144
317.164795 1881.267578
317.170135 1807.097778
317.175507 1261.874146
317.180847 489.217285
317.186218 69.520088
321.170959 229.8992
321.176422 581.32312
321.181885 876.317322
321.187347 941.595642
321.19281 728.274292
321.198273 388.980713
321.203705 85.919609
325.659943 412.10556
325.665527 1342.425171
325.671082 2513.473877
325.676666 3844.063721
325.682251 3243.545898
325.687805 1942.756592
325.69339 839.499939
325.698975 164.4375
329.681061 202.60936
329.686737 655.609802
329.692413 1198.506104
329.69809 1509.995361
329.703766 1371.533691
329.709442 887.372742
329.715118 386.774994
329.720795 81.38031
335.169159 249.889862
335.174957 568.85022
335.180786 757.003845
335.186615 714.784973
335.192413 487.70697
335.198242 121.323883
338.17395 257.96347
338.179871 561.123535
338.18576 697.080872
338.19165 593.755005
338.19754 337.103851
338.203461 72.43615
339.658905 285.641022
339.664825 758.350403
339.670776 1259.058716
339.676697 1501.855469
339.682648 1317.717163
339.688568 849.686218
339.694519 382.252563
339.700439 76.411308
349.680847 186.312057
349.687073 562.530396
349.693268 957.877258
349.699463 1136.512695
349.705658 991.68457
349.711853 644.399414
349.718048 315.958405
349.724274 65.426933
352.682312 799.374512
352.688599 2688.274902
352.694885 4907.973633
352.701172 6299.104004
352.707428 5229.004395
352.713715 2953.287598
352.720001 1278.639282
352.726288 259.890808
356.110962 387.543213
356.11734 776.466553
356.123718 927.218201
356.130096 819.522156
356.136444 513.871155
356.142822 132.653259
358.171631 586.250671
358.17807 1494.033081
358.184479 2329.548096
358.190918 2619.23291
358.197357 2167.230957
358.203766 1289.234375
358.210205 463.309845
358.216644 95.776222
360.665558 219.498306
360.672028 1025.213257
360.678528 4463.824219
360.685028 13910.306641
360.691528 26365.240234
360.698029 36164.324219
360.704529 32590.089844
360.710999 20973.046875
360.717499 9107.807617
360.723999 2359.525146
360.730499 271.219116
361.185669 268.126282
361.192169 747.612488
361.1987 1816.926392
361.2052 2784.730957
361.2117 2884.471191
361.218231 1689.5802
361.224731 825.504272
361.231232 363.255707
361.237762 69.731659
363.671722 491.329193
363.678284 1406.887695
363.684875 2743.192139
363.691437 3956.61792
363.698029 3898.179443
363.70459 2265.695068
363.711182 754.544495
363.717743 106.554039
364.178589 259.480133
364.185181 615.670593
364.191772 1224.747681
364.198364 1621.241333
364.204956 1546.001099
364.211548 953.784119
364.21814 495.879211
364.224731 128.742523
364.70636 318.052399
364.712952 584.570984
364.719574 687.904175
364.726166 642.320618
364.732758 497.785553
364.73938 121.565353
366.17688 267.076385
366.183533 593.074768
366.190155 799.546448
366.196808 784.692566
366.203461 565.998413
366.210114 141.614395
366.669037 110.733795
366.67569 1534.182983
366.682343 5744.257812
366.688995 12664.448242
366.695679 20426.0
366.702332 22190.078125
366.708984 16341.746094
366.715637 8432.332031
366.72229 2909.239014
366.728973 508.091064
367.18219 392.063019
367.188873 824.458374
367.195526 1096.961182
367.202209 1081.483765
367.208893 787.185608
367.215546 400.667023
367.222229 80.60128
372.176086 223.231064
372.182892 526.947815
372.189697 841.255737
372.196503 1077.843506
372.203308 1119.744141
372.210114 925.894897
372.216919 584.844666
372.223755 129.056274
372.694031 323.338318
372.700836 651.872498
372.707672 873.289001
372.714508 924.442383
372.721313 760.035522
372.728149 454.268219
372.734955 99.263657
375.175995 540.079529
375.182892 1919.590942
375.189758 7372.648926
375.196655 23701.25
375.203552 46607.035156
375.210449 67606.148438
375.217346 65037.996094
375.224213 43972.445312
375.23111 20338.072266
375.238007 6002.299316
375.244904 1288.306763
375.251801 611.708984
375.258698 1112.152466
375.265594 343.927856
375.686401 236.774628
375.693298 585.501282
375.700226 1919.136841
375.707123 3748.954102
375.71402 4962.789551
375.720917 4321.72998
375.727844 2732.802734
375.734741 997.795776
375.741638 140.839905
377.710663 168.531189
377.717621 1095.076416
377.724579 2230.871338
377.731537 2728.185303
377.738495 2273.275391
377.745483 1296.707642
377.752441 276.228333
380.179718 198.38356
380.186768 1021.120972
380.193787 2596.671387
380.200806 3997.241455
380.207855 4038.534912
380.214874 2786.679443
380.221893 1246.932129
380.228943 367.34787
380.235962 44.89727
380.672211 111.29705
380.67926 1076.782837
380.68631 3694.15918
380.693359 7055.192383
380.700378 9829.155273
380.707428 9085.276367
380.714478 5569.525879
380.721527 2202.01123
380.728577 364.218872
381.1586 2.271767
381.16568 439.842377
381.172729 3815.405762
381.179779 10245.875977
381.186829 17372.455078
381.193878 21772.884766
381.200958 18073.021484
381.208008 11005.171875
381.215057 5046.718262
381.222107 1749.771851
381.229187 507.864105
381.236237 109.173546
381.674225 192.842209
381.681274 564.52655
381.688354 981.58667
381.695435 1173.11377
381.702484 978.870605
381.709564 544.343628
381.716644 110.6632
383.191772 186.394089
383.198883 569.397034
383.205994 1010.907776
383.213104 1247.484863
383.220215 1104.878784
383.227325 684.557129
383.234436 6.663551
385.183868 202.443726
385.19104 1335.466064
385.198212 4727.225098
385.205383 8891.90625
385.212555 12378.413086
385.219696 10741.59668
385.226868 6673.033691
385.234039 2681.911377
385.241211 725.866516
385.248383 118.249184
386.167755 294.008423
386.174957 971.189453
386.182159 1721.919189
386.189362 2233.873047
386.196533 2238.335938
386.203735 1686.459229
386.210938 751.443848
386.21814 131.946136
386.225342 322.939606
386.232544 764.693298
386.239716 1020.403137
386.246918 897.875061
386.25412 507.381744
386.261322 102.834984
387.227661 169.766495
387.234894 1002.384094
387.242126 2043.078125
387.249359 2600.719971
387.256592 2330.078369
387.263794 1503.516602
387.271027 613.497803
387.278259 104.351105
387.697723 242.057617
387.704987 960.934753
387.712219 2249.234863
387.719452 3471.397217
387.726685 2983.230225
387.733917 1997.954468
387.74118 1001.083374
387.748413 196.657318
388.204926 639.763306
388.212158 1414.772705
388.219421 1958.736084
388.226685 2000.374268
388.233917 1481.730713
388.24118 609.748291
388.248444 94.09967
389.695953 446.627655
389.703247 995.990295
389.710541 1299.754395
389.717834 1176.106934
389.725128 729.475647
389.732422 161.141724
391.702301 197.587692
391.709656 584.813782
391.71701 1063.251587
391.724365 1344.551514
391.73172 1228.351196
391.739075 804.924988
391.746429 345.89328
391.753754 59.124779
394.711273 357.338257
394.718719 603.57074
394.726135 760.31012
394.733582 834.249084
394.741028 761.013184
394.748444 553.948608
395.165222 218.253708
395.172699 1690.555786
395.180145 3843.453857
395.187592 6709.634277
395.195038 8484.985352
395.202484 7630.015137
395.20993 5246.193848
395.217377 2577.116211
395.224823 787.666809
395.232269 171.052734
395.239746 34.450573
395.694611 339.90686
395.702057 716.818726
395.709534 915.997803
395.71701 831.703979
395.724457 531.594727
395.731934 112.574959
395.746857 290.769928
395.754333 721.948303
395.76178 1018.519653
395.769257 984.94696
395.776703 659.42981
395.78418 148.991364
397.21402 194.297668
397.221527 491.235596
397.229034 724.176697
397.236542 742.437744
397.244049 535.778992
397.251556 118.368477
397.70993 318.238312
397.717438 696.115112
397.724976 933.678162
397.732483 888.648621
397.73999 581.278015
397.747528 123.3162
398.704498 255.642929
398.712036 683.664978
398.719574 1155.831299
398.727142 1426.248657
398.73468 1310.174805
398.742218 879.105225
398.749786 407.024414
398.757324 24.381889
399.188049 675.568848
399.195587 4000.439941
399.203156 8072.67627
399.210724 11596.904297
399.218292 10743.224609
399.225861 7065.166504
399.233429 3204.081055
399.240967 976.111877
399.248535 151.91629
399.69519 383.621704
399.702789 846.273438
399.710358 1212.476074
399.717926 1325.163452
399.725525 1109.956909
399.733093 694.15686
399.740662 151.554825
400.210938 441.292175
400.218536 1315.324829
400.226105 2389.633789
400.233704 4181.518555
400.241302 4146.532227
400.248901 2680.952148
400.25647 1419.95166
400.264069 293.059174
400.704834 555.818848
400.712433 1543.394165
400.720062 3059.144287
400.727661 4350.883789
400.73526 4380.363281
400.742859 2747.089355
400.750458 1350.579834
400.758087 414.694733
400.765686 48.683647
402.199707 151.25708
402.207336 482.096893
402.214996 889.575256
402.222656 1164.391846
402.230286 1144.214478
402.237946 849.446838
402.245605 458.030731
402.253235 91.231476
403.195801 504.880157
403.203491 901.133118
403.211151 1008.802368
403.218842 847.210571
403.226501 516.312744
403.234192 112.75798
406.221954 327.398651
406.229736 728.233154
406.237488 989.176514
406.24527 950.339539
406.253021 634.330017
406.260773 135.721085
407.700989 647.438538
407.708801 2312.909912
407.716614 4731.477539
407.724426 6937.943359
407.732239 6462.034668
407.740021 3902.745361
407.747833 1545.66333
407.755646 135.067093
408.185394 84.490685
408.193207 1023.348877
408.201019 3162.646729
408.208832 6015.437012
408.216675 8313.182617
408.224487 7696.222656
408.2323 5128.685547
408.240112 2253.290771
408.247955 623.284241
408.255768 148.031433
409.203827 514.231934
409.21167 1822.011963
409.219513 5290.645996
409.227386 14772.036133
409.235229 27684.445312
409.243073 37302.378906
409.250916 33456.960938
409.258759 21338.478516
409.266632 9130.831055
409.274475 2258.901123
409.282318 206.887772
409.722351 109.322624
409.730194 546.568359
409.738068 1179.13147
409.745941 2124.532959
409.753784 1749.810181
409.761658 991.767212
409.769531 448.965698
409.777405 82.426437
410.714966 245.176025
410.72287 590.906067
410.730774 902.365356
410.738647 1017.493408
410.746552 854.282898
410.754425 513.785828
410.762329 104.94751
411.212646 225.784897
411.220551 601.159363
411.228455 946.696289
411.236359 1073.782715
411.244263 931.898254
411.252167 632.364929
411.260101 138.0354
412.69519 184.967499
412.703156 531.787964
412.71109 995.613159
412.719055 1403.480713
412.72699 1530.33252
412.734955 1296.653442
412.742889 842.223816
412.750854 411.130432
412.758789 77.707527
414.70578 432.612762
414.713776 968.9198
414.721802 2224.5625
414.729797 2864.922607
414.737823 2555.540771
414.745819 1321.099609
414.753845 581.362
414.761841 114.491028
416.215332 277.864441
416.223389 1286.192383
416.231445 2331.565186
416.239471 2728.148438
416.247528 2215.353516
416.255585 1200.089844
416.263641 232.345078
416.698853 439.707397
416.706909 1350.933472
416.714966 3781.525391
416.723022 6834.508789
416.73111 8710.931641
416.739166 7254.132812
416.747223 4438.86377
416.75531 1830.792603
416.763367 536.807129
416.771423 76.647247
417.215515 713.861206
417.223602 1576.859009
417.231659 2170.131348
417.239746 2165.035889
417.247833 1548.17334
417.25592 687.937683
417.264008 115.339211
419.723633 348.827423
419.731781 850.720459
419.739929 1246.32019
419.748077 1265.154541
419.756226 887.340759
419.764404 407.530029
419.772552 71.538742
420.213257 308.297302
420.221436 1531.893555
420.229584 3068.238037
420.237762 4254.283691
420.245941 3981.269043
420.254089 2309.480469
420.262268 799.575867
420.270447 113.049095
420.720123 281.111725
420.728302 694.630859
420.736481 1009.060608
420.744659 1052.623657
420.752838 829.863647
420.761017 196.805496
421.219696 246.060806
421.227875 1228.015625
421.236084 2157.124023
421.244293 2568.182861
421.252472 2257.169678
421.260681 1431.111694
421.26886 548.65387
421.277069 81.656883
421.695526 395.841187
421.703735 1820.526489
421.711945 3936.705811
421.720154 6824.944336
421.728363 7031.49707
421.736572 4627.060547
421.744781 2271.64624
421.752991 661.990051
421.76123 74.939117
422.188599 174.729218
422.196838 1176.580688
422.205048 2875.822754
422.213287 4132.109863
422.221527 3973.157959
422.229736 2706.046143
422.237976 1230.071167
422.246185 237.746262
423.185638 77.004608
423.193909 1107.422241
423.202148 2496.145996
423.210419 8333.632812
423.218658 29636.349609
423.226929 66269.242188
423.235168 108943.359375
423.243439 122749.140625
423.251678 92576.945312
423.259949 50966.40625
423.268188 18815.160156
423.276459 4974.556152
423.284698 1968.103394
423.292969 1226.310425
423.301239 1121.807861
423.309479 388.026642
423.317749 21.852245
423.706146 161.439423
423.714417 1560.408203
423.722687 6363.797363
423.730957 12307.958008
423.739227 17557.421875
423.747498 16169.181641
423.755768 10536.041016
423.764038 4698.989746
423.772308 1269.763062
423.780579 181.999847
427.728882 209.986328
427.737244 533.426697
427.745636 903.204773
427.754028 1144.740723
427.762421 1087.567505
427.770813 755.913818
427.779205 362.136353
427.787598 64.200867
428.21579 494.374359
428.224182 991.046936
428.232574 1200.595215
428.240997 1041.845581
428.24939 649.795105
428.257782 135.583817
428.720337 594.860657
428.72876 1493.94458
428.737183 2356.598145
428.745605 2749.499512
428.754028 2418.262207
428.762451 1569.911377
428.770844 593.876465
428.779266 85.383583
430.180206 597.248901
430.18866 1254.199951
430.197113 2197.775146
430.205597 7701.112305
430.21405 28483.267578
430.222504 61704.050781
430.230957 98854.765625
430.239441 106315.789062
430.247894 76858.757812
430.256348 40540.125
430.264832 14495.789062
430.273285 3957.363037
430.281738 1410.644531
430.290222 216.291367
430.679779 264.286346
430.688263 1463.630493
430.696716 6279.757324
430.7052 23717.251953
430.713684 56778.085938
430.722168 95663.421875
430.730621 112583.992188
430.739105 86995.632812
430.747589 50124.921875
430.756073 19075.109375
430.764526 5157.916992
430.77301 1586.22168
430.781494 456.951416
430.789978 54.934208
431.188721 0.632168
431.197205 566.694275
431.205688 2429.001709
431.214203 6453.791016
431.222687 11007.511719
431.231171 12941.609375
431.239655 9547.825195
431.248138 5382.647461
431.256653 1849.306763
431.265137 605.693176
431.273621 132.374222
431.715576 578.503967
431.72406 2904.603516
431.732574 10584.273438
431.741089 22934.267578
431.749603 36098.941406
431.758087 37934.460938
431.766602 27193.894531
431.775116 13811.515625
431.78363 4665.616699
431.792114 999.735413
431.800629 101.77002
432.226349 274.657898
432.234863 1630.509766
432.243378 3377.619141
432.251892 4832.274902
432.260437 4640.452637
432.268951 3146.546143
432.277466 1393.717041
432.28598 328.355103
433.704163 112.160683
433.712708 1379.582153
433.721283 4046.615479
433.729858 7837.523926
433.738403 11248.761719
433.746979 11286.070312
433.755554 7813.351562
433.764099 3579.293701
433.772675 990.844116
433.78125 72.229286
434.2099 680.627075
434.218475 2227.827637
434.227051 4217.251953
434.235626 5839.027344
434.244202 5447.845703
434.252777 3676.068359
434.261353 1746.921265
434.269958 552.128479
434.278534 79.459969
436.18985 291.368958
436.198486 729.549316
436.207123 1193.028687
436.215759 1467.848877
436.224396 1372.404785
436.233032 945.876099
436.241669 430.524872
436.250305 75.213951
436.717224 510.300262
436.725891 1800.101196
436.734528 3331.3396
436.743195 5001.977539
436.751831 4761.341309
436.760498 3124.711182
436.769165 1350.613037
436.777802 20.09717
437.193573 9.0665
437.20224 427.325989
437.210907 3330.597412
437.219574 11276.290039
437.228241 20129.775391
437.236908 26755.064453
437.245575 22150.613281
437.254242 13507.228516
437.262909 5557.759766
437.271576 1806.28186
437.280243 510.82785
437.28894 97.591034
437.714081 246.118088
437.722778 1383.955444
437.731476 2821.947021
437.740143 4011.396729
437.74884 3981.4729
437.757507 2280.147461
437.766205 836.714966
437.774872 89.799957
439.211456 648.983276
439.220184 2807.276611
439.228912 6386.725098
439.23764 9570.766602
439.246368 9151.951172
439.255096 6095.882324
439.263824 2930.010254
439.272552 653.271912
439.281281 27.095739
441.727081 882.669556
441.735901 3558.307129
441.74469 7311.941895
441.753479 10804.411133
441.762299 10190.303711
441.771088 6740.932617
441.779907 2918.148193
441.788696 890.816162
441.797516 135.034485
442.229279 311.97583
442.238098 1237.438354
442.246918 2604.229248
442.255737 4021.063965
442.264557 4454.941406
442.273376 3454.229248
442.282196 2009.023926
442.291016 681.278442
442.299835 96.52874
442.714661 226.148712
442.72348 1709.540527
442.73233 4720.092285
442.74115 8255.735352
442.75 9901.646484
442.75882 7786.210938
442.76767 4495.166016
442.776489 1669.841553
442.785339 129.628204
444.19339 44.173435
444.20224 1301.71167
444.211121 6658.324707
444.220001 15899.175781
444.228882 26293.962891
444.237762 29995.625
444.246643 22521.039062
444.255524 12842.586914
444.264404 4630.038086
444.273285 898.288208
444.282166 61.228947
444.682007 100.728203
444.690887 2006.650391
444.699799 9678.378906
444.708679 26319.771484
444.71756 45815.355469
444.726471 57434.113281
444.735352 45880.015625
444.744232 27426.359375
444.753143 10618.941406
444.762024 2658.515869
444.770935 334.43277
444.779816 21.015602
445.198151 214.587799
445.207062 1054.50647
445.215973 2210.024414
445.224884 3066.783691
445.233795 3058.320312
445.242676 2198.385742
445.251587 1084.168579
445.260498 260.430389
445.706268 51.310852
445.71521 771.976685
445.724121 3618.137207
445.733032 10897.120117
445.741974 20626.015625
445.750885 28278.462891
445.759827 25720.455078
445.768738 16621.564453
445.777649 7190.11377
445.786591 1578.822754
445.795502 80.725456
446.224213 544.885376
446.233154 1816.227783
446.242096 3478.603516
446.251038 4556.005859
446.259979 3857.256592
446.26889 2260.980713
446.277832 715.629089
446.286774 83.838585
446.725159 233.049637
446.7341 698.872864
446.743042 1216.130005
446.752014 1453.728149
446.760956 1240.934692
446.769897 752.746155
446.77887 319.434631
446.787811 54.144638
447.226929 414.251984
447.235901 867.544067
447.244843 1139.465576
447.253815 1095.556763
447.262787 760.917664
447.271759 166.402451
450.735931 341.845032
450.744995 799.304382
450.754059 1183.606079
450.763153 1325.935791
450.772217 1172.816895
450.781281 834.939148
450.790375 184.069122
451.235382 376.87207
451.244476 2052.530273
451.253571 4533.930176
451.262665 7218.0
451.271729 8507.213867
451.280823 7186.706543
451.289917 4613.813965
451.299011 2016.304321
451.308105 349.709381
451.708374 158.254745
451.717468 2009.307739
451.726562 4752.701172
451.735687 7639.033203
451.744781 8613.985352
451.753876 7337.521973
451.763 4220.8125
451.772095 1665.184326
451.781189 457.004974
451.790314 56.511208
453.214111 391.723602
453.223267 917.407471
453.232422 1341.935181
453.241547 1430.795776
453.250702 1133.118774
453.259857 654.18457
453.269012 3.678462
455.233521 536.527344
455.242706 3591.089355
455.251923 7121.609375
455.261139 9820.271484
455.270355 8521.911133
455.279572 5360.004395
455.288757 1931.359009
455.297974 386.540314
455.30719 49.550327
455.722015 850.772156
455.731232 3663.041992
455.740479 7895.520508
455.749695 12514.414062
455.758911 13381.982422
455.768127 9693.392578
455.777374 5121.307129
455.786591 1735.27356
455.795807 242.657791
456.220551 535.690369
456.229797 1248.998535
456.239044 4033.337158
456.24826 7469.669434
456.257507 10157.228516
456.266754 9462.790039
456.276001 6381.442871
456.285248 2819.753418
456.294464 607.558228
456.303711 26.733908
456.710663 187.907608
456.71991 1723.380737
456.729156 3878.447021
456.738403 6068.251465
456.747681 6362.458008
456.756927 4608.122559
456.766174 2513.124023
456.775452 864.751465
456.784698 145.267227
457.22934 322.505615
457.238617 727.096924
457.247894 1032.633667
457.257172 1084.610229
457.266418 860.980713
457.275696 508.568573
457.284973 122.18367
459.71463 658.740112
459.723969 2383.856934
459.733307 5821.32373
459.742676 9942.026367
459.752014 11844.179688
459.761353 9409.633789
459.770691 5537.074219
459.78006 2142.944824
459.789398 337.09613
460.219727 343.367065
460.229095 937.082031
460.238434 1596.415527
460.247803 1941.24707
460.257172 1725.012329
460.266541 1097.298218
460.275909 478.807343
460.285248 55.290115
464.214813 258.600037
464.224304 766.847534
464.233765 4403.66748
464.243256 17819.042969
464.252747 37848.570312
464.262238 59237.882812
464.271729 60900.558594
464.281189 42381.980469
464.29068 21483.433594
464.300171 7197.112793
464.309662 2301.156494
464.319153 376.161499
464.736847 1711.121094
464.746338 6182.140625
464.755859 12336.007812
464.76535 18626.359375
464.774841 20324.041016
464.784332 15339.53125
464.793854 9072.279297
464.803345 3622.289307
464.812866 695.867371
464.822357 60.42683
465.231232 1579.547363
465.240723 6120.809082
465.250244 12264.251953
465.259766 18703.373047
465.269287 20553.585938
465.278809 16348.160156
465.2883 10151.863281
465.297821 4417.088867
465.307343 884.552795
465.316864 57.376114
465.716858 274.524872
465.726379 1793.161377
465.735901 4752.559082
465.745453 8064.043457
465.754974 9304.052734
465.764496 6826.445312
465.774048 3979.05542
465.783569 1388.932983
465.793091 178.398911
466.231873 371.019226
466.241425 740.660889
466.250977 924.463379
466.260529 846.799377
466.270081 571.618225
466.279602 32.395683
469.224396 458.799957
469.234039 2105.455811
469.243683 5017.63623
469.253326 8158.157715
469.26297 8661.90332
469.272614 6030.399902
469.282227 3074.73584
469.29187 1128.463379
469.301514 252.121429
469.716309 540.875732
469.725952 2704.803955
469.735626 6495.003418
469.74527 10997.469727
469.754913 12977.936523
469.764587 10473.875977
469.774231 6039.291504
469.783875 2190.626221
469.793549 272.045715
470.237976 342.021545
470.24765 692.924194
470.257324 881.601685
470.266998 808.262939
470.276672 512.949036
470.286346 98.786751
470.731476 473.854736
470.74118 1008.340271
470.750854 1367.90625
470.760529 1369.344849
470.770233 1008.598206
470.779907 514.155884
470.789612 94.209099
471.225769 199.77916
471.235474 551.008118
471.245148 930.076721
471.254852 1079.81543
471.264557 890.282227
471.274261 506.264252
471.283966 93.548592
472.752258 216.557327
472.761993 620.045288
472.771729 1017.300781
472.781494 1163.63501
472.791229 965.126465
472.800995 572.501343
472.81073 107.615692
473.23996 644.584778
473.249695 2599.79834
473.25946 5533.503418
473.269226 7978.691895
473.278992 7699.222656
473.288757 5260.91748
473.298523 2490.86499
473.308289 747.239624
473.318054 84.262123
477.752502 462.337463
477.762421 938.271912
477.772308 1161.036499
477.782196 1028.353271
477.792114 650.637817
477.802002 94.582314
478.198395 255.736511
478.208313 1159.922852
478.218201 1792.286377
478.228119 6720.96582
478.238037 25334.625
478.247955 57272.648438
478.257874 93896.539062
478.267792 105083.0625
478.27771 77636.0
478.287628 42552.089844
478.297546 15321.709961
478.307465 4116.477051
478.317383 1506.545532
478.327301 360.299805
478.714386 299.341705
478.724335 1083.31958
478.734253 3951.085938
478.744202 9901.130859
478.75412 17279.683594
478.764069 21586.566406
478.773987 17973.351562
478.783936 10836.670898
478.793854 4262.821289
478.803802 789.960999
478.813721 18.291769
479.231262 445.506195
479.241211 1434.970459
479.25116 2095.389648
479.261108 2163.458984
479.271057 1689.54248
479.281006 978.289062
479.290955 187.744293
479.729004 275.938934
479.738983 1213.892212
479.748932 2303.244141
479.758911 2985.655762
479.76886 2828.433594
479.778839 1922.536133
479.788788 795.121704
479.798767 114.551277
486.718781 393.600098
486.728973 1794.660522
486.739166 5873.59375
486.749329 21098.65625
486.759521 50878.519531
486.769714 86516.0
486.779877 102816.0
486.79007 80214.382812
486.800262 45976.09375
486.810455 17189.320312
486.820618 4339.753418
486.830811 1682.352905
486.841003 818.493469
486.851166 149.525711
487.218079 673.454285
487.228271 3799.751221
487.238464 15453.139648
487.248657 48058.289062
487.25885 88556.5
487.269073 121936.03125
487.279266 109136.804688
487.289459 70849.460938
487.299652 30868.453125
487.309875 9237.198242
487.320068 1942.34314
487.330261 171.575775
487.728333 284.651672
487.738556 2046.812256
487.748749 7155.695312
487.758972 13663.634766
487.769196 19167.960938
487.779388 17442.337891
487.789612 11427.095703
487.799835 5068.899414
487.810059 1426.675659
487.820251 179.743439
491.736023 581.898438
491.746368 2176.762207
491.756714 4196.73584
491.767029 6440.270508
491.777374 5374.859375
491.78772 3361.893066
491.798065 1416.516357
491.808411 251.616867
492.211975 382.047699
492.222321 2227.558594
492.232697 8564.891602
492.243042 21435.033203
492.253387 37091.976562
492.263763 45177.414062
492.274109 36240.191406
492.284454 21310.330078
492.29483 8155.870605
492.305176 1771.359497
492.315552 49.806
492.460571 374.489014
492.470947 949.576782
492.481293 1475.924683
492.491669 1584.067505
492.502014 1162.877197
492.51239 529.608826
492.522766 150.822449
492.709351 5.081539
492.719727 424.259033
492.730103 2613.081543
492.740479 6963.594727
492.750854 12176.353516
492.76123 15128.204102
492.771576 12533.548828
492.781952 7582.751465
492.792328 2968.338623
492.802704 407.422119
492.81308 48.518391
493.228271 322.028381
493.238678 839.913879
493.249054 1315.839355
493.25943 1435.243286
493.269836 1119.97644
493.280212 618.186707
493.290588 113.875328
495.730499 151.336914
495.740967 981.179382
495.751434 5316.689453
495.761902 16258.962891
495.772369 29217.152344
495.782837 38142.84375
495.793304 31495.646484
495.803772 19184.689453
495.81424 7490.259277
495.824707 2085.160645
495.835175 571.113037
495.845642 81.733482
496.243713 167.352707
496.254211 871.938721
496.264679 2499.114014
496.275177 4189.69873
496.285645 4864.301758
496.296143 3987.992676
496.30661 2311.454834
496.317108 1070.386108
496.327576 192.430771
500.250946 933.398499
500.261536 2389.745605
500.272156 4017.516113
500.282776 5786.577637
500.293365 4372.410645
500.303986 2294.540039
500.314606 1001.488342
500.325195 174.450455
500.686188 1946.466187
500.696808 6581.37207
500.707428 19021.683594
500.718048 29380.931641
500.728699 47111.25
500.739319 140980.96875
500.749939 460992.40625
500.760559 924302.3125
500.771179 1391402.0
500.781799 1386209.125
500.79245 959523.625
500.80307 472069.5
500.81369 160844.96875
500.82431 47979.132812
500.834961 27889.431641
500.845581 16599.810547
500.856201 7413.479492
500.866821 1830.586182
500.877472 122.085876
501.14328 1207.998169
501.153931 462.450958
501.164581 24.718807
501.185852 2531.425049
501.196472 9558.789062
501.207123 20880.130859
501.217773 29722.371094
501.228394 88470.796875
501.239044 313361.09375
501.249695 733310.0625
501.260315 1224490.625
501.270966 1428626.125
501.281616 1094236.875
501.292236 627342.125
501.302887 238432.78125
501.313538 69137.882812
501.324188 25777.984375
501.334808 12872.140625
501.345459 2773.590332
501.35611 143.153656
501.696899 440.913452
501.70755 2813.509277
501.718201 4373.55127
501.728851 13277.202148
501.739532 47957.859375
501.750183 110708.71875
501.760834 184062.984375
501.771484 210972.59375
501.782135 159201.71875
501.792816 89058.296875
501.803467 32769.242188
501.814117 9031.041992
501.824799 3698.12915
501.835449 2136.21582
501.8461 1126.307861
501.85675 206.779266
501.867432 2.462465
509.174103 1648.845825
509.184998 6815.381348
509.195892 13935.74707
509.206787 20043.707031
509.217682 18936.271484
509.228577 12580.682617
509.239471 5601.713379
509.250366 1815.574951
509.261261 1819.150146
509.272156 2939.967529
509.283051 2903.762207
509.293945 2007.450439
509.304871 939.752869
509.315765 162.359833
509.686523 643.003235
509.697418 2621.354248
509.708344 7723.435059
509.719238 14696.510742
509.730164 20975.949219
509.741058 58428.855469
509.751984 200211.859375
509.762909 432959.8125
509.773804 696774.625
509.784729 757836.9375
509.795624 551547.875
509.806549 295945.625
509.817474 107209.734375
509.828369 31917.589844
509.839294 16489.587891
509.85022 10119.232422
509.861115 4256.107422
509.87204 1466.398438
509.882965 220.976639
510.188782 451.907837
510.199707 1613.038086
510.210632 3092.840332
510.221558 3823.026611
510.232483 4636.433105
510.243408 11634.323242
510.254333 39250.554688
510.265259 83096.960938
510.276215 131052.273438
510.28714 138077.6875
510.298065 98308.710938
510.30899 50698.285156
510.319916 17456.080078
510.330841 4932.897949
510.341797 2169.361328
510.352722 1017.706421
510.363647 848.72522
510.374573 219.367966
510.385529 7.083889
510.812164 469.514099
510.82312 917.080994
510.834076 1068.684814
510.845001 870.25531
510.855957 494.577209
510.866913 75.648224
621.283142 654.9151
621.297852 1683.474976
621.312561 2635.111572
621.327209 2811.445312
621.341919 2094.297119
621.356567 855.222656
621.371277 157.322952
629.798035 341.320343
629.813049 604.313599
629.828003 726.910583
629.843018 646.483154
629.858032 422.231384
629.872986 32.686668
632.082214 321.877136
632.097229 615.723328
632.112305 780.482849
632.12738 698.879883
632.142456 425.785828
632.157532 52.985115
633.274231 1019.67157
633.289368 3721.544922
633.304443 7187.878906
633.31958 10202.78418
633.334717 9222.689453
633.349792 5881.803711
633.364929 2384.376465
633.380005 582.438049
633.395142 28.281115
650.291931 280.751678
650.307617 2129.823486
650.323364 5105.844238
650.339111 8377.851562
650.354797 9055.769531
650.370544 6291.831055
650.386292 3261.220459
650.401978 840.209839
650.417725 47.980816
670.105286 366.957825
670.121704 801.905823
670.138184 1102.265625
670.154602 1068.763306
670.171082 732.51239
670.1875 38.118866
682.478394 458.296753
682.4953 884.256592
682.512207 1044.917847
682.529114 831.647522
682.546021 430.200317
682.562927 10.184968
716.314514 862.702576
716.332642 1691.057983
716.35083 2353.657227
716.369019 2399.253906
716.387207 1773.903076
716.405396 899.253784
716.423584 27.33288
720.330505 476.598145
720.348877 1611.596558
720.367188 3120.706543
720.385498 4286.604004
720.40387 3685.608398
720.42218 1694.132202
720.440491 434.046143
720.458862 11.707414
732.338989 1007.022156
732.357788 3637.002686
732.376587 6448.89209
732.395386 7729.727051
732.414185 5469.244141
732.432983 2758.47168
732.451782 918.0401
732.47052 26.139633
733.354797 675.533997
733.373657 1504.112183
733.392456 2034.442261
733.411316 1897.049316
733.430115 1223.422852
733.448975 43.31078
744.303589 960.510742
744.322815 2674.581299
744.342102 4229.05957
744.361328 4556.721191
744.380615 3230.110352
744.399841 1465.687378
744.419128 280.545013
744.438354 6.068543
746.368042 308.647919
746.38739 675.565186
746.406738 947.551575
746.426025 955.441956
746.445374 700.445679
746.464722 363.664917
746.522766 228.45726
746.542114 410.771088
746.561401 511.354584
746.58075 460.592529
746.600098 284.493256
746.619446 4.415042
749.315552 4.433388
749.335022 534.066528
749.354431 2806.964111
749.373901 9320.973633
749.393372 17400.287109
749.412781 25498.371094
749.432251 22209.521484
749.451721 13040.181641
749.471191 5234.056641
749.490601 1102.776001
749.510071 122.181313
760.326782 25.301331
760.34668 1079.483032
760.366577 1906.249634
760.386414 2255.342773
760.406311 1807.915771
760.426208 886.556519
761.281921 71.469131
761.301819 1336.191406
761.321716 6639.491211
761.341675 18607.230469
761.361572 30930.478516
761.38147 37837.121094
761.401428 28810.019531
761.421326 16237.663086
761.441284 5368.55957
761.461182 1114.266113
761.481079 4.195117
762.318604 12.648794
762.338562 458.992462
762.358521 912.790588
762.378479 1202.865234
762.398438 1104.199219
762.418396 687.810364
762.438354 251.067505
770.973267 12.528965
770.99353 463.973114
771.013855 734.815796
771.03418 816.983459
771.054443 644.985413
771.074768 329.699524
771.31842 11.361971
771.338745 421.553619
771.35907 677.124329
771.379395 839.283386
771.399719 792.358276
771.420044 530.391907
772.294312 10.460738
772.314697 581.210144
772.335022 931.921326
772.355408 1029.13269
772.375732 802.618347
772.396118 398.919922
777.34552 8.383011
777.366089 322.864105
777.386597 689.885193
777.407166 966.900208
777.427734 988.617493
777.448242 747.315735
777.468811 390.002869
784.359192 7.178056
784.380005 284.42804
784.400818 629.79425
784.421631 883.934326
784.442505 850.968994
784.463318 545.097046
788.331726 10.747711
788.352722 426.346893
788.373718 718.128845
788.394653 789.094788
788.415649 604.994202
788.436646 308.363098
789.255981 5.629109
789.276978 219.038452
789.298035 1844.188965
789.319031 7837.217773
789.340088 18721.742188
789.361084 30032.160156
789.382141 33843.410156
789.403198 24216.273438
789.424194 13293.15918
789.445251 4209.397949
789.466248 762.474487
798.503113 295.258942
798.524475 494.220978
798.545898 582.779053
798.567261 488.722565
798.588684 265.445648
800.38916 9.915945
800.410645 413.706299
800.432129 750.391541
800.453613 900.151794
800.475098 752.89032
800.496582 415.235352
805.307068 5.535908
805.328735 249.323151
805.350403 1583.246826
805.37207 3927.425293
805.393799 6039.575195
805.415466 7226.271973
805.437134 4712.216797
805.458801 1917.442627
805.480469 654.560852
827.398804 7.764257
827.421387 600.995483
827.44397 1075.142578
827.466553 1304.140381
827.489075 1143.408203
827.511658 715.894287
828.370056 6.858097
828.392639 322.661835
828.415283 668.557129
828.437866 927.339111
828.46051 935.919617
828.483093 696.869568
828.505737 364.93042
843.331787 27.037327
843.355042 451.432709
843.378235 1676.965332
843.401489 3421.019043
843.424683 4076.869141
843.447937 3189.360352
843.47113 1566.988403
843.494385 403.027374
845.355713 82.353607
845.379028 1244.561768
845.402344 6308.466797
845.425659 17740.472656
845.448975 30704.306641
845.47229 39764.71875
845.495544 32369.519531
845.51886 18966.943359
845.542175 6808.123047
845.565491 1793.842529
845.588806 402.926819
846.38208 33.827602
846.405457 547.3302
846.428772 1908.973877
846.452148 3500.652588
846.475464 4542.252441
846.49884 3773.087646
846.522217 2293.785156
846.545532 945.369385
846.568909 137.382645
860.303406 10.783432
860.327332 409.839294
860.351257 1883.15625
860.375183 6992.220215
860.399109 21176.777344
860.423035 38083.722656
860.44696 51975.507812
860.470886 44047.53125
860.494812 26522.589844
860.518799 9986.443359
860.542725 1759.841064
860.56665 218.613281
861.357117 31.385845
861.381104 551.348511
861.40509 2128.17041
861.429016 3764.327881
861.453003 4784.635742
861.47699 3831.411621
861.500977 2118.789062
861.524963 412.216858
862.364746 32.651741
862.388794 352.719971
862.412781 1665.596558
862.436768 6670.243164
862.460815 15096.28418
862.484802 23062.228516
862.50885 24096.228516
862.532837 16176.832031
862.556885 8013.129395
862.580933 2096.1604
862.604919 383.739349
863.422241 34.143867
863.44635 520.15686
863.470398 1015.611694
863.494446 1337.170044
863.518494 1239.719604
863.542542 790.805115
863.56665 314.625183
871.342834 32.012329
871.367188 490.162598
871.391602 910.37262
871.416016 1185.980103
871.440369 1147.963013
871.464783 832.606445
871.489197 430.864044
873.370605 19.295477
873.395081 339.708771
873.419556 1284.684814
873.444031 2173.051514
873.468506 2581.003418
873.492981 2216.63623
873.517456 1321.416626
873.541931 363.677063
873.566406 43.403358
874.350342 9.537347
874.374878 386.254913
874.399353 2351.607666
874.423889 5968.458984
874.448425 9698.547852
874.4729 10653.446289
874.497437 7235.280273
874.521973 3508.346191
874.546509 736.058167
888.292114 8.516012
888.3172 629.916504
888.342346 1997.541016
888.367432 7905.098633
888.392517 23950.650391
888.417664 42418.460938
888.442749 56497.832031
888.467896 46073.359375
888.492981 27055.228516
888.518066 9807.680664
888.543213 1905.940674
888.568298 135.102982
889.322266 1.617678
889.347412 75.429436
889.372559 906.159546
889.397705 2748.485107
889.422852 4587.838379
889.447998 5203.527832
889.473145 3874.531494
889.498291 2164.786377
889.523438 482.080505
889.548645 11.972677
890.379395 899.093994
890.404541 3619.807129
890.429749 13672.150391
890.454956 31231.703125
890.480164 50341.949219
890.50531 55243.390625
890.530518 37901.699219
890.555725 19560.726562
890.580933 5259.484863
890.60614 1079.148315
891.387878 33.134792
891.413147 602.803711
891.438354 1798.106201
891.463623 4276.830566
891.488831 6214.570801
891.514099 5523.185059
891.539307 2736.586182
891.564575 836.121643
900.362976 19.127209
900.38855 354.155334
900.414185 1471.197754
900.439819 3450.539795
900.465393 4882.102539
900.491028 4579.067871
900.516663 2891.113525
900.542297 1158.138916
900.567932 241.049667
902.338684 34.375946
902.36438 736.560608
902.390076 3678.204346
902.415771 9796.405273
902.441467 15587.888672
902.467224 17182.433594
902.49292 11992.243164
902.518616 6207.012207
902.544312 1491.084717
902.570007 223.951065
905.379089 32.013096
905.404907 720.537537
905.430725 1558.799438
905.456604 2188.584717
905.482422 2181.70459
905.50824 1513.364258
905.534058 426.984528
918.35498 3.455591
918.381348 550.313843
918.407776 3392.064697
918.434143 10636.214844
918.460571 19803.943359
918.486938 27725.496094
918.513306 23888.775391
918.539734 14496.948242
918.566101 5596.138184
918.592529 989.571472
919.38501 23.814371
919.411438 422.977478
919.437866 1249.391479
919.464294 2353.043457
919.490723 3400.286621
919.517151 3083.268799
919.54364 1835.109009
919.570068 736.970398
919.596497 227.020126
1001.44519 53.023922
1001.475281 556.0896
1001.50531 937.831787
1001.5354 1088.329224
1001.56543 905.381287
1001.595459 508.329346
1038.724609 50.288746
1038.756348 590.920959
1038.788086 986.999084
1038.819946 1144.357544
1038.851685 925.854187
1038.883423 470.30072
END IONS
