BEGIN IONS
PEPMASS=1011.38
CHARGE=1
MSLEVEL=2
SOURCE_INSTRUMENT=LC-ESI-Hybrid FT
FILENAME=f.novakj/siderophores/Ferri_ferrirubin.mzXML;
SEQ=*..*
IONMODE=Positive
ORGANISM=GNPS-LIBRARY
NAME=Ferrirubin [M+Fe-2H] M+H
PI=Havlicek
DATACOLLECTOR=
SMILES=OCC\C(=C\C1=[O][Fe]2345[O]=C(\C=C(/C)CCO)N(CCCC6NC(=O)CNC(=O)C(NC(=O)C(NC(C(CCCN1O2)NC(C(CCCN(C(\C=C(/C)CCO)=[O]3)O4)NC6=O)=O)=O)CO)CO)O5)C
INCHI=
INCHIAUX=
PUBMED=27956353
SUBMITUSER=novakj
TAGS=
LIBRARYQUALITY=3
SPECTRUMID=CCMSLIB00001059077
SCANS=1
288.345337 8535156.0
510.177063 23915084.0
520.161316 13569170.0
527.130798 8410880.0
538.171875 88213800.0
539.175354 19343618.0
577.1828 11729083.0
595.19342 62998556.0
596.196716 15441337.0
607.193298 21905124.0
625.203918 14606751.0
639.194397 11601671.0
643.228455 9342457.0
657.204834 7911129.0
664.214722 36959560.0
665.218262 9134399.0
676.214661 9153229.0
682.225464 93130352.0
683.228699 23715642.0
703.225769 9563833.0
705.241272 7893730.0
706.225403 10532018.0
715.225586 9022441.0
716.209595 9723722.0
721.236389 17870576.0
723.251953 8753874.0
733.236328 73734768.0
734.220337 22388866.0
734.239563 21409006.0
750.262695 10189113.0
751.246948 104564440.0
751.255249 10951314.0
752.250183 31881862.0
768.273071 10365864.0
769.249146 11027887.0
769.257324 174397312.0
769.265808 15187579.0
770.260742 50999300.0
786.283691 12445279.0
792.298401 13676387.0
815.289429 9076711.0
819.309265 9451272.0
823.240356 15429472.0
833.299988 13257686.0
833.312683 9218617.0
837.320068 11581156.0
845.299988 18520488.0
846.283997 8264076.0
851.310303 10576027.0
863.310364 41413312.0
864.314087 15003371.0
881.321106 76950816.0
882.324646 27686570.0
899.331726 61936060.0
900.335266 22622002.0
906.341553 9031868.0
945.352112 13082941.0
947.368164 8982689.0
957.352234 33564228.0
958.355896 13493899.0
963.363037 17151972.0
965.37854 11004522.0
975.349548 8772567.0
975.36261 140446320.0
975.37616 9423857.0
976.366577 59661244.0
977.369263 10359810.0
978.438843 8078482.0
983.388977 10632946.0
993.352234 11424867.0
993.35968 23954898.0
993.37323 372173216.0
993.387268 24780686.0
993.394653 10997834.0
994.36377 15295283.0
994.377014 161094576.0
994.390625 12760601.0
995.379761 28004308.0
1010.408386 12904839.0
1011.383972 86792112.0
END IONS
