BEGIN IONS
PEPMASS=823.31
CHARGE=1
MSLEVEL=2
SOURCE_INSTRUMENT=LC-ESI-qTof
FILENAME=f.Esposito/E-dendroides-ref/2,5,8,9-tetracetoxy-15-hydroxy-3-benzoyloxyacetoxy-7-isobutyroyloxy-14-oxojatropha-6(17),11E-diene.mgf;
SEQ=*..*
IONMODE=Positive
ORGANISM=GNPS-LIBRARY
NAME=2,5,8,9-tetracetoxy-15-hydroxy-3-benzoyloxyacetoxy-7-isobutyroyloxy-14-oxojatropha-6(17),11E-diene M+Na
PI=Litaudon and Paolini
DATACOLLECTOR=Esposito
SMILES=C[C@@]1(OC(C)=O)C[C@](O)(C([C@@H](C)/C=C/C(C)(C)[C@H](OC(C)=O)[C@H](OC(C)=O)[C@@H](OC(C(C)C)=O)C([C@@H]2OC(C)=O)=C)=O)[C@]2([H])[C@H]1OC(COC(C3=CC=CC=C3)=O)=O
INCHI=
INCHIAUX=
PUBMED=
SUBMITUSER=Esposito
TAGS=
LIBRARYQUALITY=3
SPECTRUMID=CCMSLIB00004680106
SCANS=1
69.033157 316.995514
71.048363 540.855713
83.048218 224.217606
95.085304 365.057495
105.032585 3015.261963
107.084625 304.649902
109.100494 621.577576
123.042671 295.103607
123.079124 446.216614
133.099258 339.855591
141.088852 204.116592
143.083374 204.674896
153.051376 242.056595
157.099731 419.759308
159.079224 543.13147
163.037704 3034.385986
169.099228 252.940994
171.078415 198.959503
171.114563 502.794312
173.094849 266.177612
175.073471 283.587006
185.130966 339.861603
187.073318 622.461426
187.10968 375.344208
189.125351 301.905304
195.115356 385.042297
205.120804 197.641602
207.113815 290.642609
209.094177 312.782013
209.129944 518.933228
211.108871 203.918304
213.125305 313.299408
215.06781 225.522705
223.109177 411.407013
223.146835 277.881287
225.12529 280.846191
227.105392 259.440887
237.126022 864.895386
237.161636 1170.598022
241.120178 298.347687
247.146469 660.548279
251.140564 478.969788
255.135452 422.789612
255.171844 797.459717
265.156891 4336.850098
266.159485 527.487183
267.135376 224.6539
269.151428 361.253601
275.140503 369.672302
283.167145 4230.755859
284.170227 352.354401
293.151703 3307.029053
294.154327 198.311295
301.177979 625.307373
311.162018 5625.834961
312.164886 332.9823
325.177551 1556.567017
329.172546 1432.175049
333.143402 672.822021
335.161011 276.962006
343.187897 1108.354004
353.172638 1417.563965
371.183014 1225.149048
375.154663 585.541626
381.20224 283.268707
385.197968 938.405029
393.1651 969.077271
399.213226 232.221207
403.202179 274.615601
413.193817 682.056213
421.19577 320.127899
431.20343 701.903687
435.174774 1464.069946
441.223816 240.648697
445.218567 537.095825
453.185486 2080.974121
454.18988 229.551193
463.205872 949.364319
471.196136 221.547501
473.201111 358.256805
481.216858 306.440887
491.20575 397.910492
495.196625 1339.43396
496.198029 247.987793
501.245514 383.55899
523.227112 5979.976074
524.229797 736.3255
541.237854 258.567505
555.221741 1580.744019
556.228516 265.673798
573.207275 282.416992
583.248779 32368.009766
584.252197 4279.257812
601.243225 211.163193
615.217224 345.614502
621.286255 393.299011
643.270142 104328.101562
644.272827 16178.400391
675.237488 842.302307
703.269226 1631.699951
704.272949 312.815613
735.259277 1065.20105
763.290466 33576.03125
764.292908 6523.073242
823.311157 194598.203125
824.31488 39203.140625
824.468628 287.014404
824.90155 259.598694
824.994263 206.148102
825.074219 277.472809
END IONS
