BEGIN IONS
PEPMASS=793.346
CHARGE=1
MSLEVEL=2
SOURCE_INSTRUMENT=LC-ESI-Orbitrap
FILENAME=Cpd_8_793.mgf
SEQ=*..*
IONMODE=Positive
ORGANISM=GNPS-LIBRARY
NAME=euphodendroidin M M+Na
PI=LITAUDON/TOUBOUL
DATACOLLECTOR=Esposito
SMILES=C[C@@]1(OC(C)=O)C[C@](O)(C([C@@H](C)/C=C/C(C)(C)[C@H](OC(C)=O)[C@H](OC(C)=O)[C@@H](OC(C(C)C)=O)C([C@@H]2OC(C(C)C)=O)=C)=O)[C@]2([H])[C@H]1OC(C3=CC=CC=C3)=O
INCHI=
INCHIAUX=
PUBMED=N/A
SUBMITUSER=lfnothias
TAGS=
LIBRARYQUALITY=1
SPECTRUMID=CCMSLIB00000840541
SCANS=1
237.125961 29456.195312
237.164597 24332.535156
241.12175 20796.921875
247.14888 27576.023438
251.142929 64411.683594
252.168686 21098.589844
265.160065 289213.96875
275.144073 64187.558594
283.168793 156277.140625
293.155212 269364.75
294.418579 18928.683594
309.52121 20471.777344
311.165558 353600.71875
325.181793 43902.734375
329.175446 54066.414062
335.767426 21245.53125
343.19278 26680.195312
343.394653 19979.292969
353.173096 46550.359375
353.213226 45192.570312
355.167725 55301.695312
369.71228 23503.433594
371.183258 67181.210938
373.180023 37283.257812
373.299927 24749.828125
381.206696 37145.359375
385.083221 36505.601562
385.203186 55420.8125
393.163086 41466.492188
397.176056 28407.417969
405.203552 30092.476562
413.197479 31449.316406
415.191345 488245.28125
421.201569 40624.0625
431.722717 37798.683594
433.19751 354219.5
435.180237 50408.59375
445.230133 20471.308594
453.187256 149637.796875
463.207428 52389.542969
475.211121 57294.597656
493.219788 37782.125
501.238037 33171.425781
503.194275 21610.53125
503.245453 47948.546875
519.264709 28647.019531
523.230713 356955.78125
535.236755 40482.085938
551.262146 207369.609375
564.160522 43404.574219
583.254517 207042.609375
585.239502 58681.839844
611.285278 3128662.0
613.277466 44414.628906
623.280151 54184.742188
645.270752 261280.203125
651.320618 79217.273438
671.302246 3094351.0
673.304626 594411.75
693.306274 28848.8125
705.282104 232517.03125
711.336487 4197264.5
728.249084 31326.363281
728.724609 37511.601562
732.051086 29438.550781
732.290649 24222.371094
732.320557 28102.535156
732.380493 36185.148438
732.44043 25767.058594
732.470398 39691.125
732.500305 31227.539062
732.530273 32629.953125
732.560242 52153.382812
732.620178 51635.09375
732.650146 39505.871094
732.680176 39248.425781
732.710144 44387.269531
732.740112 59964.753906
732.770081 47887.285156
732.800049 56576.132812
732.830017 62631.621094
732.860046 70186.507812
732.890015 75101.007812
732.919983 66124.710938
732.950012 90393.796875
732.97998 91940.765625
733.01001 87955.601562
733.039978 117134.859375
733.069946 119706.5625
733.099976 140961.421875
733.130005 141125.984375
733.159973 185162.8125
733.219971 164449.609375
733.325012 28844268.0
733.460144 212252.296875
733.490112 147150.46875
733.520142 138572.671875
733.550171 136380.453125
733.5802 101246.203125
733.610229 105856.992188
733.640259 92510.554688
733.670288 92716.351562
733.700378 86982.546875
733.730408 68163.648438
733.760437 57934.730469
733.790466 73089.78125
733.820496 64911.371094
733.850586 53813.230469
733.880615 50924.609375
733.910645 49260.65625
733.940735 47771.441406
733.970764 49143.804688
734.000793 51886.117188
734.060913 37731.945312
734.091003 36418.027344
734.121033 49776.855469
734.151123 30830.816406
734.181213 26888.035156
734.211243 32399.417969
734.241333 35293.292969
734.271423 27942.898438
734.301453 34543.46875
734.331543 22690.605469
734.361633 35819.96875
737.969177 32346.414062
738.272278 29158.863281
END IONS
