BEGIN IONS
PEPMASS=709.284
CHARGE=1
MSLEVEL=2
SOURCE_INSTRUMENT=LC-ESI-qTof
FILENAME=13b_17-O-diacetoxy-5a-O-benzoyloxy-7b_15b-dihydroxy-3b-O-propanoyloxy-14-oxopremyrsinol.mgf
SEQ=*..*
IONMODE=Positive
ORGANISM=GNPS-LIBRARY
NAME=13,17-O-Diacetyl-5-O-benzoyl-7-hydroxy-3-O-propanoyl-14-oxopremyrsinol M+Na
PI=LITAUDON/TOUBOUL
DATACOLLECTOR=Esposito
SMILES=O[C@H](C[C@@]1([H])[C@]2([H])C1(C)C)[C@@]([C@]2([H])[C@@]3(OC(C)=O)C)(COC(C)=O)[C@H](OC(C4=CC=CC=C4)=O)[C@@]5([H])[C@@H](OC(CC)=O)[C@@H](C)C[C@]5(O)C3=O
INCHI=
INCHIAUX=
PUBMED=N/A
SUBMITUSER=lfnothias
TAGS=
LIBRARYQUALITY=1
SPECTRUMID=CCMSLIB00000840344
SCANS=1
69.069359 243.061203
74.736862 62.264709
77.038742 339.451813
81.069214 321.183899
83.010796 384.14679
85.024437 52.71627
85.063454 124.122704
87.042381 110.844002
89.060051 82.330879
97.063477 331.797791
102.567909 258.580688
105.034424 2981.258057
105.069565 445.437805
105.461647 38.227268
106.035652 285.946686
106.188057 48.791672
107.047569 175.105804
107.083717 87.625
107.54425 43.027439
109.064941 118.947098
113.020493 332.405701
115.036072 126.760101
118.0485 120.859596
119.084358 57.5
123.079834 53.53186
124.039833 161.7397
124.081833 140.104004
125.059105 228.278107
125.07914 40.160709
131.085434 113.947098
132.088516 132.373199
133.083176 43.005951
133.098557 243.140701
133.320084 35.6875
135.216934 33.281979
137.068756 43.022732
137.093994 123.222198
141.066879 111.840599
143.086258 338.71051
145.100952 117.675697
147.077606 113.013901
149.091858 123.379501
151.076096 200.514297
154.075882 66.17794
154.30899 41.0
157.102051 96.03125
159.117081 239.548706
161.056549 84.002449
162.104065 57.210529
167.088272 218.190506
171.115753 110.155899
173.096893 204.380997
173.131241 268.614685
174.098938 84.775642
174.132507 62.516129
175.109375 103.253899
177.090088 68.280739
179.085373 65.199997
180.089493 38.227268
181.101334 727.062927
182.104507 242.404999
183.052719 46.0
183.114182 172.173798
183.383423 33.347221
184.085678 148.183701
185.092758 52.200001
187.109833 87.68145
188.035904 69.599998
188.118103 188.546799
189.088379 109.1978
192.0914 67.889076
192.134018 150.806
193.100052 159.969299
193.669006 47.164471
194.105835 59.160709
195.082855 165.235596
195.117691 496.1203
196.116409 113.182899
197.093353 264.106201
197.131042 296.608002
197.583099 37.723209
197.62175 35.244999
199.110962 120.677803
199.584091 32.76862
201.091141 171.314301
203.107391 71.545464
204.089081 124.152397
205.086472 50.520828
205.119827 96.072731
206.107162 38.938831
206.516708 38.002911
207.072525 62.81757
207.116608 515.150513
208.1026 84.050003
208.93956 38.594391
209.096634 144.605606
209.132019 610.278687
209.210983 36.00658
209.632751 40.020828
210.131393 63.13306
211.110809 395.074402
211.14476 103.5
212.114075 73.574997
213.091385 70.06649
213.123978 368.53479
213.161942 58.625
215.103439 177.4086
215.372864 58.045292
216.108414 43.92046
217.046616 122.629997
217.123932 94.916656
220.126907 62.275002
223.114273 442.102295
224.117065 50.145409
224.783249 41.125
225.090454 59.599998
225.126953 449.569611
225.163696 746.994873
225.521149 45.125
227.106125 451.765808
227.646622 36.260422
228.110626 148.311203
230.121185 39.009998
231.100357 108.490196
233.095245 136.367401
233.133209 40.445
234.13681 173.659393
235.113373 138.959702
235.149567 277.167786
237.125 195.161301
237.162704 35.400002
239.103943 89.877213
240.175278 49.61731
241.12117 257.024994
241.157654 163.979996
243.136612 58.67046
245.131454 76.878052
246.141464 129.341293
249.128845 39.160709
249.164169 571.906799
250.167816 449.922913
251.142365 151.008301
251.179108 213.378998
252.114029 102.9067
252.148819 162.072601
252.182266 101.121201
253.123138 368.031708
253.158798 1094.063965
253.450134 71.324333
253.466751 46.5625
253.714386 42.25
253.800034 44.80278
254.123001 75.764709
254.230835 65.125
255.692261 44.206631
259.144989 171.565094
260.152588 43.089291
262.134186 253.371597
263.142334 51.209999
264.146942 53.00227
265.158661 469.564606
265.427277 38.791672
265.893951 42.375
266.164124 200.644806
266.696045 33.0
266.750946 41.445648
267.174683 2108.593018
267.244751 37.165539
267.471497 38.728451
267.513306 73.10714
267.542816 48.047619
268.177368 418.7659
269.158142 111.920502
269.178619 137.143906
274.131104 330.85849
277.119843 51.360001
277.158325 1070.890015
278.046356 41.625
278.161743 358.197601
279.134644 64.972977
279.163269 98.321426
281.151703 98.066589
283.089996 63.021221
283.170197 88.26667
283.57016 36.680561
285.111786 37.81686
285.184296 99.920464
286.126709 97.375
286.179321 82.196808
286.591187 45.00893
288.545837 56.223209
289.122498 150.960007
290.15686 160.635193
291.168396 136.288101
293.155396 372.038513
294.152679 65.691902
295.04187 34.08696
295.171509 1187.900024
295.592102 44.57143
295.910126 61.336109
296.170898 535.80957
296.226746 51.0
297.178925 45.25
299.018555 59.168919
299.144958 92.045464
301.143402 172.520401
304.143188 138.938293
305.151031 140.289505
306.156372 80.35601
309.136749 42.25
311.15799 120.314102
313.180206 671.641174
314.175354 55.209911
317.150543 420.097809
317.693176 33.680561
318.157349 250.183807
318.274414 33.200001
318.331573 39.764832
319.74295 39.799999
320.17276 86.001808
321.145508 222.0672
323.151459 56.012501
325.135864 41.210529
325.181854 134.909103
328.196899 79.0
333.110687 156.007095
333.143402 110.617302
334.182404 55.845001
335.160583 212.989594
339.196411 182.934204
343.187775 40.291672
351.11496 80.574333
355.190338 328.889099
358.204224 61.033329
359.208954 64.695312
361.201019 59.002659
363.159515 89.893623
367.189484 275.765411
368.159851 257.688995
370.184967 56.026161
372.896332 65.325577
377.174957 1053.395996
378.170471 87.111839
378.562958 35.33654
379.185822 50.88044
381.126099 58.153851
385.20105 187.964294
386.198486 38.444771
393.201324 182.027695
394.171234 93.223213
395.182465 291.582214
396.178101 211.523804
397.859772 58.816669
403.2099 153.764893
407.184601 1215.312988
407.512939 57.041672
408.190155 399.33609
409.18985 68.0625
410.201904 48.259621
411.138947 279.208313
417.223877 88.0
418.229858 91.938293
421.177094 131.531906
423.167206 39.689999
423.209839 58.14286
425.094513 34.640148
425.19281 348.291107
426.192139 140.166199
427.198059 52.032139
431.107513 41.049999
431.975037 68.002121
437.19397 385.314087
438.19632 98.007584
439.197723 438.023987
440.207062 106.690002
445.219513 43.112499
450.195801 42.336109
451.171478 127.898903
455.200867 83.297623
467.203247 1601.762939
467.910126 41.907261
468.205078 538.002319
488.466919 35.112499
490.174896 59.001869
499.214844 1110.453003
499.357941 50.720242
499.620178 39.00219
499.677124 40.960529
500.232849 114.199997
501.234802 233.918701
501.69928 40.055561
502.074432 41.375
502.230743 35.787159
506.731964 39.431122
517.214844 48.228779
527.227051 854.992371
528.232056 333.875
529.220154 2704.531006
529.426208 81.550003
529.848267 55.458328
529.974609 43.083328
530.223938 1088.982056
530.362427 39.408779
530.653076 34.291672
531.224243 167.050003
531.313232 35.654411
534.168457 39.862068
545.250305 48.041672
547.247375 52.58036
549.250305 77.008057
559.230286 387.906708
560.105164 73.799049
560.235718 160.087006
560.865417 33.5625
561.59314 35.066181
567.255859 102.894699
568.263733 85.132248
585.825806 101.563004
585.869995 43.671299
586.382019 36.695511
587.250732 47.529411
589.241577 15629.830078
589.373413 127.199997
589.417786 49.273651
589.463562 57.34375
589.507874 41.240379
589.549133 46.083328
589.621033 65.003571
589.689331 38.00544
589.742676 95.510246
589.775391 78.571426
589.845276 90.141296
589.889709 58.049419
590.03772 68.012497
590.2453 7859.153809
590.368164 119.001801
590.511841 53.333328
590.582153 39.075001
590.758179 80.314293
590.84491 38.694439
590.869019 49.148811
590.937378 50.23547
591.040894 41.73476
591.246826 1450.359009
591.372559 53.206631
591.519958 33.840912
592.125549 47.232689
592.171631 46.44907
592.193298 53.001709
592.24823 516.522583
592.747925 49.263161
593.482971 43.011909
594.206909 75.011902
600.287659 40.215431
607.244751 65.177643
607.57251 88.350731
608.252014 147.375
621.267639 191.204102
621.633301 37.530659
622.273743 63.240379
622.630493 56.125
623.271057 83.614998
627.271423 33.805
649.26239 32600.900391
649.528381 69.708504
649.602234 131.203094
649.66626 159.298599
649.736145 134.914597
649.780151 147.3535
649.821838 195.412399
649.893677 123.9198
649.959656 108.436096
649.999268 78.819832
650.087036 57.65443
650.265198 14841.94043
650.511108 282.696198
650.667908 66.64286
650.69696 99.415421
650.796387 109.924698
650.856567 102.371399
650.912292 106.558601
650.953491 148.509903
651.009216 85.041969
651.087097 72.013893
651.267761 4412.980957
651.406433 97.491791
651.483276 34.2197
651.541016 96.984039
651.65686 63.142941
651.71405 65.159447
651.774536 66.111839
651.924683 33.75
652.04303 65.125
652.137451 45.115742
652.269653 820.088379
652.377441 88.480263
652.537048 74.29657
652.613464 47.0
652.649475 45.351749
652.773987 35.013889
652.86731 61.273651
652.950745 47.5984
653.154602 38.0
653.57428 36.721149
653.689697 43.84808
660.828796 55.493851
664.437866 33.721149
668.277344 86.539833
672.700378 34.462841
691.293518 38.760422
693.367249 49.083328
707.13031 51.264709
709.282959 7484.225098
709.574585 48.80278
709.72522 52.224998
709.828613 119.2817
709.923889 34.777779
710.024109 83.355766
710.06366 57.049419
710.287415 4003.739014
710.418579 114.380997
710.491943 111.388397
710.69104 78.189392
710.779785 42.657612
711.288025 1717.160034
711.369263 129.048904
711.478699 45.46154
711.580444 60.516129
711.684265 74.578583
712.290955 292.92041
713.242126 40.16
713.279907 35.852268
713.353699 50.0
713.781433 48.23148
763.535828 41.920921
END IONS
