BEGIN IONS
PEPMASS=778.33
CHARGE=1
MSLEVEL=2
SOURCE_INSTRUMENT=LC-ESI-qTof
FILENAME=f.mernst/3DModels/spectral_data_ms2_v110.mgf;
SEQ=*..*
IONMODE=Positive
ORGANISM=GNPS-LIBRARY
NAME=Miliiamine C 20-Ac, N-de-Me - Ingenol diterpenoid M+H
PI=Dorrestein
DATACOLLECTOR=mernst
SMILES=CC(C(OC(C1=CC=CC=C1/N=C(O)/C2=C(/N=C(O)/C3=C(NC)C=CC=C3)C(O)=CC=C2)=O)C4(O)C5O)=CC46C(CC(C(C)7C)C7C(C6=O)C=C5COC(C)=O)C
INCHI=InChI=1S/C44H47N3O10/c1-22-20-43-23(2)18-30-34(42(30,4)5)29(37(43)51)19-25(21-56-24(3)48)36(50)44(43,55)38(22)57-41(54)27-13-8-10-16-32(27)46-40(53)28-14-11-17-33(49)35(28)47-39(52)26-12-7-9-15-31(26)45-6/h7-17,19-20,23,29-30,34,36,38,45,49-50,55H,18,21H2,1-6H3,(H,46,53)(H,47,52)
INCHIAUX=
PUBMED=
SUBMITUSER=lfnothias
TAGS=
LIBRARYQUALITY=3
SPECTRUMID=CCMSLIB00004678653
SCANS=1582
70.207199 152.0
96.08287 184.0
105.067818 244.0
106.069412 164.0
116.045967 524.0
120.042747 4324.0
121.054794 588.0
122.094124 208.0
123.079201 1200.0
127.041725 200.0
131.083847 704.0
133.096985 320.0
133.910522 152.0
134.057953 43444.0
134.258148 196.0
135.066528 4520.0
135.395172 152.0
136.034882 1224.0
137.095673 160.0
138.054428 3160.0
139.061081 220.0
139.112686 656.0
143.080856 612.0
145.099945 992.0
146.052139 236.0
147.109482 592.0
149.115829 304.0
151.075989 476.0
152.067047 1092.0
153.070618 296.0
155.079666 524.0
157.095322 348.0
159.080612 1072.0
160.077301 232.0
161.101181 600.0
162.015732 860.0
163.020126 256.0
163.107483 1012.0
164.105392 320.0
167.0784 336.0
169.100052 448.0
170.094162 156.0
171.094925 2284.0
172.11969 432.0
173.105927 2164.0
175.09404 1076.0
176.06601 948.0
177.085846 1008.0
179.099854 376.0
181.097153 496.0
181.689972 212.0
182.094238 296.0
183.103394 932.0
184.109085 616.0
184.487076 196.0
184.848099 208.0
185.092087 688.0
186.088303 224.0
187.098724 452.0
188.234787 152.0
189.117828 1744.0
189.530502 280.0
190.099411 192.0
191.108734 1652.0
192.099472 236.0
193.103073 1448.0
194.076736 164.0
195.101334 1424.0
196.101868 324.0
197.123138 1416.0
197.460999 160.0
198.127075 320.0
199.10083 1568.0
201.086609 1200.0
202.101639 280.0
203.133728 1052.0
205.081314 736.0
206.075195 188.0
207.111465 2696.0
208.088852 768.0
209.118622 2088.0
210.114319 560.0
211.107544 1876.0
212.118332 632.0
213.112427 2740.0
214.113129 372.0
215.12645 732.0
216.084946 256.0
217.111801 1996.0
218.119705 312.0
218.923508 180.0
219.117752 1092.0
220.568176 188.0
221.108704 908.0
222.07991 1288.0
223.088089 4020.0
224.094727 516.0
225.116714 5172.0
226.110825 756.0
227.134293 2364.0
228.125732 332.0
229.111847 1304.0
230.117523 232.0
230.660706 156.0
231.103302 260.0
233.11203 452.0
234.117783 336.0
234.310806 208.0
235.113449 1880.0
236.105301 224.0
236.167648 320.0
237.122772 3208.0
238.124512 380.0
239.106277 4232.0
240.159195 920.0
241.139862 1068.0
241.991333 236.0
242.141556 368.0
242.587143 172.0
243.105667 1368.0
244.109055 384.0
245.113724 1320.0
246.126541 360.0
248.113403 344.0
249.159531 6116.0
250.070541 404.0
250.161148 1800.0
250.776825 260.0
251.07695 53544.0
251.454391 264.0
252.081696 8772.0
253.116974 7400.0
253.600403 356.0
254.121246 1244.0
254.978806 228.0
255.073486 23092.0
255.49736 156.0
255.604752 276.0
256.077362 3332.0
256.342163 188.0
257.121155 1788.0
258.185486 220.0
259.140106 748.0
261.109711 468.0
262.131592 452.0
262.343323 236.0
262.62973 180.0
265.156952 616.0
266.165863 240.0
267.068909 2760.0
267.166901 16524.0
267.718262 6488.0
267.816223 5684.0
267.932953 4568.0
268.180664 5776.0
268.414703 972.0
268.565308 1128.0
268.942413 18596.0
269.08847 2560352.0
269.323303 16212.0
269.499268 13688.0
269.672363 8980.0
269.863434 6608.0
270.090759 576744.0
270.284729 2288.0
270.370239 2492.0
270.448547 2612.0
270.647339 1900.0
271.090973 53832.0
271.314545 672.0
271.424103 1028.0
271.565796 632.0
271.720276 744.0
271.879639 848.0
272.095093 2424.0
272.342804 604.0
272.624268 700.0
272.895569 484.0
273.082367 6008.0
273.249512 340.0
273.392334 320.0
273.564484 268.0
273.759979 360.0
274.081055 1556.0
274.614532 500.0
274.740906 460.0
274.983643 348.0
275.106232 468.0
275.199585 368.0
275.54425 280.0
275.825653 240.0
275.948914 260.0
276.220215 152.0
276.345215 236.0
276.689606 452.0
276.823059 448.0
277.153992 15644.0
277.32724 256.0
277.429047 320.0
277.863861 260.0
278.014526 156.0
278.154999 3300.0
278.76413 300.0
279.150299 772.0
279.641418 260.0
279.746735 284.0
280.056305 252.0
280.158325 320.0
280.534058 328.0
280.897095 296.0
281.085907 1904.0
282.079895 616.0
282.685181 176.0
283.161469 2324.0
284.170349 568.0
284.334259 184.0
284.501465 272.0
285.177124 5452.0
286.187042 932.0
293.158081 156.0
293.732819 172.0
294.097015 428.0
295.16272 72288.0
295.624847 324.0
295.997681 288.0
296.165192 14452.0
297.079132 728.0
297.161133 1256.0
297.305756 180.0
299.070679 564.0
301.905121 156.0
307.100159 172.0
308.130066 188.0
309.176514 764.0
310.483795 204.0
311.09613 1604.0
312.097687 432.0
312.961548 836.0
313.173737 198964.0
313.72702 660.0
314.063232 608.0
314.178772 41728.0
314.625336 288.0
314.94101 304.0
315.17981 3052.0
315.993469 172.0
316.589325 164.0
317.133789 372.0
317.414398 196.0
319.179657 324.0
320.168182 264.0
321.156494 188.0
323.168488 300.0
327.187927 916.0
328.193359 468.0
331.190918 416.0
332.167236 156.0
337.17157 5228.0
338.168518 752.0
339.153656 1140.0
341.126892 152.0
344.137939 284.0
345.151703 168.0
347.126495 280.0
349.509338 164.0
350.854187 364.0
355.183838 15564.0
355.499115 224.0
356.194275 3740.0
356.380035 308.0
357.180054 552.0
360.68399 152.0
368.195496 248.0
370.114075 552.0
371.143555 228.0
372.155853 204.0
373.194916 9400.0
374.196838 2464.0
377.224854 204.0
380.556549 224.0
383.18689 212.0
386.165955 208.0
387.214935 220.0
388.121765 17264.0
389.12915 4212.0
389.923706 180.0
390.131409 484.0
390.486572 156.0
392.21402 168.0
394.04184 216.0
396.198608 560.0
397.162537 172.0
399.555878 200.0
402.222168 476.0
402.857971 188.0
403.215027 160.0
403.881104 248.0
404.093964 476.0
404.229248 664.0
405.068634 192.0
405.686768 528.0
405.852386 752.0
405.943817 964.0
406.133026 182044.0
406.655182 696.0
406.934479 392.0
407.136047 45776.0
407.564941 224.0
407.797974 324.0
408.141479 4916.0
410.194519 684.0
411.224152 172.0
412.207428 212.0
413.186279 296.0
414.199158 3624.0
415.196991 736.0
416.225891 236.0
418.07547 192.0
419.698456 152.0
420.139313 296.0
424.261383 224.0
427.094696 160.0
428.211029 2488.0
429.225311 1064.0
430.188934 348.0
430.461243 176.0
431.169891 312.0
431.821198 284.0
432.207214 8572.0
433.213013 2640.0
434.292297 196.0
438.45697 152.0
445.14093 188.0
446.225555 5876.0
446.442139 212.0
447.234955 1828.0
448.213287 372.0
448.970459 220.0
450.217712 14844.0
451.223572 5280.0
452.252106 296.0
456.964294 184.0
458.17688 200.0
458.686279 296.0
459.180054 208.0
460.199799 208.0
460.686951 168.0
464.247559 304.0
467.624298 228.0
469.603333 172.0
471.607178 308.0
472.170868 324.0
474.2164 1612.0
475.236572 528.0
482.646149 224.0
484.148407 168.0
487.822021 248.0
488.232178 700.0
489.223999 332.0
489.517365 208.0
490.19455 636.0
491.185028 244.0
492.228333 9396.0
493.233582 2720.0
494.24173 608.0
505.226013 156.0
506.242188 420.0
507.240448 284.0
508.242798 240.0
510.239166 32448.0
511.240662 8428.0
512.251709 1208.0
512.588867 168.0
517.239319 212.0
526.221985 224.0
527.242371 224.0
531.227722 204.0
532.23053 152.0
535.255188 240.0
540.606384 160.0
545.228394 1816.0
546.232483 556.0
547.240601 272.0
549.22345 1708.0
550.238892 1340.0
551.242126 196.0
563.248169 3024.0
564.235535 1120.0
567.236328 1176.0
568.231506 316.0
575.860413 164.0
581.252014 5084.0
582.251831 1908.0
583.261108 236.0
585.237793 668.0
586.21936 432.0
605.251648 500.0
609.235046 272.0
612.452576 192.0
617.613525 200.0
623.261902 2064.0
624.260925 304.0
625.952637 172.0
627.260437 968.0
628.264954 276.0
630.042297 160.0
632.666992 244.0
639.411987 184.0
641.277344 2204.0
642.290161 396.0
644.12793 348.0
645.260071 896.0
646.265869 356.0
647.308899 392.0
655.463257 152.0
664.267334 520.0
665.250183 364.0
680.246399 180.0
682.292419 1404.0
683.290955 852.0
684.256531 208.0
691.738403 168.0
699.033997 308.0
700.295898 3948.0
701.293335 2356.0
702.311523 268.0
713.62085 172.0
714.537048 324.0
715.788513 172.0
717.508606 212.0
718.303589 39924.0
719.307983 19052.0
720.312805 4548.0
721.325134 384.0
724.268066 296.0
724.759277 188.0
734.60968 236.0
735.733398 152.0
736.011719 184.0
742.301819 644.0
744.295044 176.0
759.738281 296.0
760.319153 7248.0
761.321411 2904.0
762.330078 1028.0
773.686951 584.0
773.853882 740.0
774.110107 1416.0
774.286133 1784.0
774.765259 1076.0
774.832092 1128.0
775.078857 1288.0
775.451843 848.0
775.70105 1044.0
776.032227 748.0
776.325439 692.0
776.517212 1292.0
776.961792 520.0
777.587341 3556.0
777.914429 3776.0
778.051208 4080.0
778.331726 795904.0
778.68811 4844.0
779.051392 4012.0
779.335083 394796.0
779.637878 3192.0
779.996826 2456.0
780.333801 98580.0
780.813049 776.0
781.011292 940.0
781.332825 10244.0
781.894043 492.0
782.327332 772.0
782.539246 356.0
783.131104 264.0
783.307434 264.0
783.79187 252.0
784.059509 400.0
784.732361 492.0
786.445374 216.0
786.7052 288.0
787.729492 260.0
787.961914 192.0
788.608521 188.0
791.291931 152.0
793.039734 260.0
794.010803 156.0
794.462585 152.0
794.732788 236.0
798.613098 208.0
799.026489 176.0
801.499878 248.0
806.253113 240.0
808.166199 152.0
847.19519 200.0
848.364746 260.0
850.459961 152.0
879.388855 168.0
880.946655 196.0
886.159912 240.0
923.966003 180.0
953.549927 160.0
982.081543 184.0
1004.319519 216.0
END IONS
