BEGIN IONS
PEPMASS=667.0
CHARGE=0
MSLEVEL=2
SOURCE_INSTRUMENT=LC-ESI-qTof
FILENAME=20120412_PAVL_FT_Hectochlorin_MCl37H_667_qb.1.1..mgf
SEQ=*..*
IONMODE=Positive
ORGANISM=GNPS-LIBRARY
NAME=Hectochlorin M+H
PI=Gerwick
DATACOLLECTOR=PAVL
SMILES=C[C@H]1[C@H](CCCC(C)(Cl)Cl)OC(=O)C2=CSC(=N2)[C@@H](OC(C)=O)C(C)(C)OC(=O)C2=CSC(=N2)[C@@H](OC1=O)C(C)(C)O
INCHI=InChI=1S/C27H34Cl2N2O9S2/c1-13-17(9-8-10-27(7,28)29)38-23(34)15-11-42-21(30-15)19(37-14(2)32)26(5,6)40-24(35)16-12-41-20(31-16)18(25(3,4)36)39-22(13)33/h11-13,17-19,36H,8-10H2,1-7H3/t13-,17-,18+,19+/m0/s1
INCHIAUX=N/A
PUBMED=N/A
SUBMITUSER=mwang87
TAGS=
LIBRARYQUALITY=1
SPECTRUMID=CCMSLIB00000001552
SCANS=1
200.205383 7905.953125
201.312088 2282.589844
202.184189 2641.422119
205.254974 581.435303
206.982574 379.518494
209.032486 1169.384399
218.05217 6432.016602
219.180054 1744.249756
220.168564 6760.512695
242.027893 7910.174805
243.193573 1459.626221
244.113144 919.381775
254.144806 620.508362
275.189453 1406.236694
276.259613 729.785583
277.170776 110.534981
283.131226 521.71582
288.080658 103.833778
310.139099 292.213348
319.200684 885.143799
339.240112 791.940735
345.345703 371.740692
346.210876 493.784088
352.478333 659.311462
363.149353 2321.227783
364.372101 1041.24939
368.109222 647.620544
370.071411 20604.804688
371.081238 12483.442383
372.117126 20494.234375
380.917419 2175.933594
382.427826 894.706909
383.200317 699.094421
388.262695 916.860291
389.123352 1416.532715
390.22522 2869.912109
406.049622 40515.605469
407.048828 46765.414062
408.105499 149047.75
416.402466 611.547852
423.149506 903.423096
424.263 3908.566895
425.219299 6609.915039
425.968079 14881.638672
430.053955 2113.797852
431.029572 802.430115
432.186523 709.077515
436.881104 224.39534
440.986481 900.254395
449.141693 573.384155
458.337006 106.115013
460.371857 393.492645
465.396118 1405.191895
466.358398 8831.212891
467.167389 13780.266602
468.067596 17249.638672
469.29068 188.135635
503.287231 492.797577
504.178986 1070.433228
505.224945 436.725647
507.081726 1693.182495
508.185944 1185.526855
509.079987 3777.662842
511.124298 1534.680908
512.039185 1589.400024
512.984985 421.006287
525.199768 6306.969238
526.47644 2364.611572
527.241821 2761.420166
537.352112 364.821228
544.256226 2726.925293
545.137817 7638.5
547.123718 1689.227783
548.071167 6429.34082
549.103882 16055.711914
552.041504 159.86586
553.132324 894.180359
561.092285 1931.5271
562.148865 12955.956055
563.066345 37420.46875
565.9552 887.740967
567.140869 2663.555908
569.247192 29138.105469
570.125854 17584.548828
571.176636 35376.488281
573.120789 402.811432
587.070068 2855.422852
588.076172 2921.956787
588.984314 18578.496094
589.602722 1700.54126
605.033691 34160.875
606.080688 398522.9375
607.065552 869706.875
607.994751 4770.470215
609.033203 6662.820801
610.75116 668.346741
623.19751 5448.85791
624.035645 12635.942383
624.927429 41709.058594
625.57019 185.915268
629.005005 23515.316406
630.078735 33397.664062
631.136719 33436.390625
648.021484 4314.759766
648.940125 7562.575195
649.588867 505.956726
END IONS
