BEGIN IONS
PEPMASS=715.269
CHARGE=1
MSLEVEL=2
SOURCE_INSTRUMENT=LC-ESI-qTof
FILENAME=f.Esposito/E-dendroides-ref/euphodendroidin O.mgf;
SEQ=*..*
IONMODE=Positive
ORGANISM=GNPS-LIBRARY
NAME=euphodendroidin O M+Na
PI=Litaudon and Paolini
DATACOLLECTOR=Esposito
SMILES=C[C@@]1(OC(C)=O)C[C@](O)(C([C@@H](C)/C=C/C(C)(C)[C@H](OC(C)=O)[C@H](O)[C@@H](OC(C2=CC=CC=C2)=O)C([C@@H]3OC(C4=CC=CC=C4)=O)=C)=O)[C@]3([H])[C@H]1O
INCHI=
INCHIAUX=
PUBMED=
SUBMITUSER=Esposito
TAGS=
LIBRARYQUALITY=3
SPECTRUMID=CCMSLIB00004680109
SCANS=1
60.316051 10.225
87.161423 65.657784
92.124374 24.04167
109.168144 15.625
145.116226 11.0
151.485321 39.03125
173.128677 68.675003
201.081161 120.862198
201.109451 20.025
211.368896 17.0
226.946655 51.003571
268.958527 78.121269
269.386749 61.329922
283.167419 30.46944
319.189178 12.16667
323.160278 70.205002
333.490753 15.20833
351.146088 60.578571
379.827789 17.20455
411.176331 445.127289
411.717255 13.36029
414.093262 13.02778
443.197296 93.370613
471.197327 89.680817
473.192322 62.92593
505.218323 152.066696
515.20166 58.640148
533.210876 1202.584961
533.415222 19.48077
533.479492 15.0
533.656738 14.01389
533.953125 38.888889
534.213135 92.20417
544.398132 100.555702
590.303101 10.44643
593.233521 1353.449951
593.299561 139.960007
593.457092 42.002659
593.730103 58.806252
594.184265 18.778851
594.229065 47.003201
595.225098 115.122498
655.245605 806.317871
655.35437 13.1
655.692993 14.0
656.022766 17.405001
656.256653 21.225
656.468506 16.008329
656.763733 57.441181
657.994812 15.79605
658.377686 12.05
698.25177 14.25
715.271973 698.501282
715.510559 13.40833
715.67804 69.045288
716.305176 27.445
718.760742 17.08333
805.818298 25.47368
813.68042 14.075
834.891174 35.34914
910.876892 20.004999
END IONS
