BEGIN IONS
PEPMASS=853.42
CHARGE=1
MSLEVEL=2
SOURCE_INSTRUMENT=LC-ESI-Hybrid FT
FILENAME=f.novakj/siderophores/Desferri_TAFC.mzXML;
SEQ=*..*
IONMODE=Positive
ORGANISM=GNPS-LIBRARY
NAME=Triacetylfusarinin C M+H
PI=Havlicek
DATACOLLECTOR=
SMILES=CC(=O)NC1CCCN(O)C(=O)C=C(C)CCOC(=O)C(CCCN(O)C(=O)C=C(C)CCOC(=O)C(CCCN(O)C(=O)C=C(C)CCOC1=O)NC(C)=O)NC(C)=O
INCHI=
INCHIAUX=
PUBMED=27956353
SUBMITUSER=novakj
TAGS=
LIBRARYQUALITY=3
SPECTRUMID=CCMSLIB00001059079
SCANS=1
267.133118 47371628.0
285.143646 147676672.0
286.147003 13112915.0
379.180145 21991000.0
379.185486 297635424.0
379.190796 21546584.0
380.180695 26264194.0
380.188812 41776772.0
397.196045 133235080.0
398.199341 19012024.0
457.220734 15001947.0
457.228424 190665056.0
457.236145 13244764.0
458.23175 27467696.0
551.259155 22461848.0
551.270386 289283488.0
551.281677 20254106.0
552.273804 54529492.0
568.273193 19634010.0
569.281006 576078208.0
570.284546 114471368.0
663.32312 40930224.0
681.333618 16213987.0
741.366333 13715942.0
835.40863 35938776.0
836.412476 12332231.0
853.419189 152513104.0
854.422546 48749364.0
END IONS
