BEGIN IONS
PEPMASS=1132.59
CHARGE=1
MSLEVEL=2
SOURCE_INSTRUMENT=LC-ESI-qTof
FILENAME=3239_1132.mzXML
SEQ=*..*
IONMODE=Positive
ORGANISM=GNPS-LIBRARY
NAME=Stenothricin D M+H
PI=Dorrestein
DATACOLLECTOR=Peng
SMILES=CC1OC(CN(C(C(NC(C(NC(C(NC(/C(NC(C(NC(C(NC(C1NC(C(NC(CC(CCCCCCCCC(C)CC)=O)=O)CS(O)(=O)=O)=O)=O)CO)=O)CN)=O)=C/C)=O)C(C)C)=O)CO)=O)CCCCN)=O)C)=O
INCHI=InChI=1S/C49H85N11O17S/c1-8-29(5)18-14-12-10-11-13-15-19-31(63)22-38(64)52-37(27-78(74,75)76)46(70)59-41-30(6)77-39(65)24-60(7)49(73)33(20-16-17-21-50)54-44(68)35(25-61)56-47(71)40(28(3)4)58-42(66)32(9-2)53-43(67)34(23-51)55-45(69)36(26-62)57-48(41)72/h9,28-30,33-37,40-41,61-62H,8,10-27,50-51H2,1-7H3,(H,52,64)(H,53,67)(H,54,68)(H,55,69)(H,56,71)(H,57,72)(H,58,66)(H,59,70)(H,74,75,76)/b32-9-
INCHIAUX=N/A
PUBMED=N/A
SUBMITUSER=y6peng
TAGS=
LIBRARYQUALITY=2
SPECTRUMID=CCMSLIB00000075071
SCANS=1
319.570526 0.661197
320.213593 0.439623
338.144867 0.892483
339.892883 1.732731
341.407562 0.7504
342.133667 0.345185
343.335938 0.228147
344.608307 0.253909
353.751099 1.233108
354.387604 3.832023
355.914551 2.195316
360.282379 1.835134
363.317657 1.510335
367.228027 1.155263
370.379456 0.626195
371.291565 1.383535
374.047485 1.701782
377.426056 1.467892
380.666504 0.532727
381.453247 0.653835
387.089325 0.406064
389.325317 0.49735
390.111511 0.543378
391.07428 0.818737
395.125092 1.134176
396.442322 0.269354
397.451294 1.02682
402.298737 0.366955
404.038361 0.435471
405.618561 0.243027
406.288391 1.956491
412.450439 0.827661
413.73996 0.664463
417.093658 1.130451
420.223602 1.14645
421.056091 0.708755
422.267822 0.284735
422.985077 1.734636
428.284607 0.594913
429.248505 1.487221
429.89325 0.271487
431.374451 0.846863
434.140472 0.714704
439.392426 1.458926
442.483887 0.816449
443.312866 0.613905
444.239868 0.456249
445.485474 0.846298
452.12677 0.70461
452.951904 1.209746
453.639587 0.809927
457.063782 0.248203
459.096161 1.264743
461.721069 0.233371
463.457855 0.277213
464.687866 0.483833
466.230957 1.461993
470.321411 1.465518
471.329041 0.261897
479.373108 0.549672
480.032471 1.018534
481.256866 0.618724
483.047882 1.164745
487.287598 5.11646
489.628601 0.932728
490.581238 1.854781
491.312958 0.296633
493.277618 1.753429
498.347229 0.177226
499.27832 0.215239
501.324707 7.720431
502.319305 1.496881
503.93222 1.09704
507.14798 0.645257
511.094604 25.739479
511.708618 1.271716
512.318665 0.235866
516.831055 1.199016
520.961731 0.378784
522.271606 1.111162
524.118164 1.112161
524.745605 1.871722
525.528015 0.602692
527.090576 0.23353
528.2276 0.693798
530.474792 0.845507
537.362244 1.246207
539.484131 0.354043
540.460327 0.564657
541.257019 1.827842
542.23877 1.767728
543.353271 1.024156
544.443604 4.504472
545.255859 1.139273
546.170837 6.523929
547.28894 1.395301
548.227051 2.659055
549.975098 1.567192
551.382019 0.690694
553.26123 1.819197
555.270752 2.286627
556.373169 1.576169
559.389221 0.235615
562.209473 1.868863
564.160461 1.494905
567.275513 1.609602
568.309448 1.048793
570.361206 1.454778
572.302429 2.4419
574.326904 1.461656
575.315063 2.943321
577.068176 0.525231
579.59314 0.667147
580.314697 2.741606
581.136536 0.798803
582.22644 0.166947
583.065918 0.646512
584.541931 0.969572
585.439941 1.303417
586.919067 2.31735
587.54187 0.896493
590.195618 3.799826
591.375732 1.305856
592.292969 0.58391
593.565308 1.887115
594.276733 6.513054
595.915039 1.102145
596.916992 1.881106
598.008057 2.087431
599.321899 2.678729
603.423889 1.90765
604.698486 2.686815
605.391602 0.193291
607.925293 3.174629
613.411865 4.776735
614.446533 1.338692
615.270874 1.845845
616.854004 0.559678
619.217773 1.81901
620.275757 0.987531
621.568359 2.985033
622.306152 2.66665
623.145874 0.343391
625.401001 0.193604
626.410522 1.138889
627.532959 1.97529
628.387451 0.788398
631.361694 23.381371
632.282837 1.344081
633.336853 2.626112
634.114075 0.839127
635.176819 2.623636
638.198486 1.564343
639.440796 8.237894
644.348511 0.502926
645.422424 0.758834
646.54895 0.811436
648.303406 8.153878
649.63031 2.152483
650.289795 6.046255
651.83197 4.472887
653.306763 2.431136
656.547546 2.910914
657.628479 1.743439
659.258606 0.758171
660.943542 2.979426
661.656616 0.343319
662.708313 0.380795
664.672241 1.003226
667.01062 5.253034
668.330688 1.068654
671.294189 0.449248
672.602051 0.766109
673.372925 0.362479
674.398682 15.277308
675.279663 1.782474
676.19104 8.202811
677.137451 2.791799
678.139526 1.108405
679.27417 11.557114
680.109741 1.047968
681.21991 0.91474
683.0578 1.188049
684.302185 0.281715
685.495483 0.463966
686.407593 1.985708
688.425049 1.184266
689.301514 1.373869
690.398071 0.291507
691.433655 0.308859
692.477905 1.032375
693.212585 12.100184
694.417603 1.870528
696.288452 4.990096
697.321045 1.538254
699.247742 1.043609
700.440979 2.384505
702.149353 0.972754
703.321045 1.272761
704.288818 6.280337
705.424744 0.803804
706.398926 0.849475
707.208679 1.223927
708.285034 2.891675
709.323853 0.69043
710.452759 0.552972
711.531738 0.666321
713.198486 0.394895
714.426636 26.702133
715.218323 0.66021
716.453369 1.386846
717.205566 1.5188
717.972717 0.237121
719.421997 0.529482
720.341064 1.017707
721.565674 3.020303
722.37854 1.202222
724.259277 1.969115
725.242432 2.633166
726.349609 2.81355
727.550293 0.450339
728.491882 2.656601
729.220215 1.603546
730.412598 0.810822
731.36377 0.988459
733.206299 0.364776
734.597656 5.746815
735.302002 39.061424
736.328125 0.13968
737.443054 3.22874
738.385193 0.791251
739.486206 7.701727
740.433289 6.686507
741.460449 0.661704
742.280762 1.319949
743.399292 2.091415
744.462524 3.265535
745.414124 2.584206
746.444824 0.927508
748.449768 2.360698
749.366394 0.499026
750.208435 0.620217
751.11377 0.473533
753.131592 1.591079
754.468262 3.431691
757.407349 28.906857
758.096313 0.222118
762.463623 0.49584
763.402954 5.927441
764.268066 0.717617
765.643982 0.613796
766.277222 1.322536
767.597412 0.25698
768.75116 0.750652
769.385864 0.495891
772.249084 11.665564
773.513733 2.348705
774.460449 2.707546
775.263794 19.316521
776.14624 4.524558
778.265381 1.352354
779.369141 4.187755
780.561218 1.231153
783.657104 1.16262
785.155945 3.820258
787.28186 0.173504
788.068298 1.178277
788.677124 0.698423
789.550659 1.799725
790.376709 1.567646
791.337402 1.208901
793.376343 1.296837
795.279663 2.42165
797.296753 0.848777
798.060242 1.718489
799.679871 2.926663
800.645874 2.217969
801.348999 0.940075
802.383667 0.604242
803.165894 1.82798
804.304321 1.146446
805.124573 1.488594
807.411987 3.308238
808.317139 2.086745
809.45105 6.083756
810.341187 2.753075
811.267029 0.889043
811.911743 1.668681
814.041504 2.165059
816.244751 0.654329
817.183716 0.234164
818.2771 2.297019
819.211304 2.836538
820.112183 1.393409
821.433594 2.928577
822.976318 2.880545
825.330566 0.249359
826.064575 3.14388
826.990112 1.145782
828.2229 6.099561
830.098511 10.918148
830.821655 0.30525
831.550049 0.454796
832.461304 0.311153
833.390625 0.57852
835.433472 0.546626
837.836304 1.265914
840.188721 0.647147
842.289917 1.093605
844.302002 5.670047
845.451416 2.949174
846.15686 2.887524
847.425293 6.624014
848.277954 4.897554
849.321167 0.895236
850.385498 0.88025
851.354736 0.579529
853.39978 0.91555
854.230225 2.33193
855.461426 5.472566
856.444336 3.897401
858.350342 0.745023
859.105713 1.149456
860.28833 2.607901
861.140747 3.075816
862.317383 6.551965
863.267212 9.851314
865.359131 76.614395
866.353638 0.147248
867.585327 0.615737
868.240112 0.572902
871.084595 4.530242
872.326904 82.706238
873.345947 35.921185
874.305542 23.113699
875.31604 0.691885
876.270996 2.924736
877.40332 1.271272
878.450806 2.257933
879.38855 3.613933
880.460938 2.96921
881.219238 0.55035
883.674561 0.454645
885.323975 5.093315
886.145874 2.153122
887.121826 2.535894
887.751587 0.298958
889.646362 21.882359
890.344727 106.395035
891.421509 65.918724
892.536255 0.334651
894.213745 8.964289
895.155151 3.241319
896.219116 2.661462
897.251343 3.028481
898.1604 0.301369
899.386963 3.328332
900.308472 2.715425
901.199829 0.306093
902.071411 0.547867
903.271484 13.086966
904.325806 0.458655
906.357056 1.582602
908.265991 620.108582
909.09314 5.031827
909.737915 1.792827
911.313477 0.253172
913.352173 1.335588
914.493164 3.220691
915.320557 4.506915
917.402588 11.584951
918.336914 1.897605
920.470703 4.16122
921.503784 3.318296
922.309814 0.491706
923.63208 4.37911
925.443237 2.253644
926.266479 2.181318
927.161987 2.29538
927.863525 1.677405
928.578979 2.158973
929.300049 1.33334
931.321777 0.170246
932.322632 3.584885
933.036255 0.657674
933.696533 0.787917
934.83667 2.909416
935.477295 16.030716
936.525757 2.626796
937.324707 0.712925
938.456177 2.09099
939.580933 2.258185
940.391113 1.944985
942.078857 0.832635
943.293823 5.620463
944.306519 1.823472
945.492798 4.064793
946.361084 1.020932
947.449219 0.570856
949.431885 2.791837
950.431274 5.864118
951.310669 3.762871
952.060181 0.525589
952.869873 2.581708
954.373535 1.643865
955.368408 3.236297
957.455933 1.708861
958.7052 1.73076
961.250122 16.442064
962.458862 2.977889
963.575439 0.647761
964.384033 0.658299
965.43042 0.341313
966.509644 1.652637
967.530396 1.116865
968.450317 0.817766
969.269165 3.430733
970.470459 9.037334
971.62439 1.059507
972.578491 2.189635
973.913452 1.350187
976.284424 0.506692
977.714844 0.59716
978.927979 1.430535
980.720459 0.624156
981.758667 0.216681
983.196655 1.009698
984.395142 6.713725
985.435303 1.496942
986.447998 1.316317
987.563599 2.703926
988.293335 5.627389
989.515015 5.265094
990.674805 3.741645
993.009399 1.073781
993.842529 0.606529
995.879517 1.118034
996.616333 0.519857
997.532471 2.680712
999.106934 0.5117
1000.876343 3.635593
1002.090576 4.770484
1003.26355 2.321465
1004.445923 2.886461
1006.265991 0.894879
1007.772339 4.155496
1010.394165 2.846489
1011.25061 2.229633
1012.684937 0.915312
1014.401123 5.972444
1015.317017 3.956981
1016.295288 2.83375
1017.022339 4.389482
1018.381714 2.042252
1020.434082 0.439886
1022.86499 1.743745
1024.187378 3.323194
1025.39856 1.132308
1026.643555 0.52554
1027.628784 4.344388
1028.464966 1.255603
1029.160889 1.355663
1030.291992 1.82264
1031.992432 4.143007
1032.680664 4.93523
1033.384644 7.550845
1034.530396 9.435585
1035.835205 2.111207
1037.450439 2.433623
1038.133789 1.093677
1039.182983 0.502505
1040.041382 0.599261
1041.403076 1.752885
1042.255737 1.334758
1043.50354 7.057015
1044.542725 1.246207
1045.874146 0.287024
1046.886475 0.69642
1049.648682 3.337064
1050.578491 6.534021
1051.644409 0.531345
1053.522217 4.422992
1054.192627 2.191144
1054.96936 2.171029
1056.742065 1.113724
1057.389526 0.585348
1058.65564 3.500358
1059.701782 2.330756
1061.223511 8.821194
1064.284424 2.754261
1065.300171 4.021871
1066.162354 1.94077
1067.088257 1.917003
1068.317261 5.970235
1069.177612 0.721349
1070.67627 4.802011
1071.35144 27.0585
1072.510376 4.916984
1073.393799 9.586238
1074.079102 1.189746
1075.332397 1.222407
1076.493164 2.346397
1077.389648 1.424058
1078.207275 4.434323
1079.232056 2.154929
1081.798706 3.564754
1082.927979 1.897679
1083.586792 9.262086
1084.571533 8.079948
1085.37915 14.809258
1086.718994 7.342097
1087.611816 13.149339
1089.280884 167.631348
1090.162354 2.4783
1090.946411 6.753623
1091.88916 1.730082
1094.636841 2.920434
1096.333252 77.500389
1097.427979 41.125191
1099.169189 4.569742
1100.251953 11.880786
1101.451172 10.459057
1102.83606 8.694334
1103.568726 13.730953
1104.386597 3.793599
1105.411499 4.229607
1106.499878 2.792733
1109.333252 9.672205
1110.473267 6.587527
1111.30957 2.730967
1112.61145 8.457129
1113.930542 80.077988
1114.58313 147.300583
1115.492065 30.06171
1116.758057 3.766596
1117.661133 2.312326
1118.574829 1.17079
1119.967773 2.439744
1122.278076 3.419445
1123.036377 0.770192
1123.665527 1.015048
1131.550415 0.607327
1132.348511 0.764903
1133.133423 0.593593
1134.231812 4.109432
1135.336304 1.958478
1140.305786 0.821714
1144.495605 1.917638
1145.528564 0.575556
1148.774658 1.181733
1149.935181 1.767828
1152.103394 1.930799
1153.16394 0.967936
1161.716675 0.873008
1162.457031 9.872695
1163.512329 4.343817
1164.800049 0.19662
1165.641846 2.040244
1166.873535 0.565874
1172.218994 1.75817
1173.059937 0.356529
1177.525879 0.607219
1186.144287 0.292698
1193.207275 2.202082
1204.358276 1.186667
1211.7146 4.192071
1212.68457 0.273095
1218.021118 1.138273
1218.790527 0.889211
1219.584839 0.343529
1225.207397 1.917554
1229.264893 3.350486
1231.935181 0.647772
1257.70105 1.249286
1259.474854 0.184938
1268.128662 0.53694
1272.085449 1.16645
1273.878174 0.233433
1275.419189 14.28555
1276.355469 7.167145
1277.38208 0.5123
1287.765991 0.283213
1291.003418 0.216973
1292.499878 1.04124
1293.401367 0.915561
1294.326416 0.380814
1300.593628 0.988465
1306.795288 0.567413
1310.328125 4.94301
1311.485352 2.909151
1312.673828 0.620856
1328.516602 6.668152
1329.495117 2.374876
1345.932373 0.237673
1357.361694 0.528509
1363.346802 0.516563
1364.236206 1.153179
1374.510132 1.142713
1375.38147 0.374318
1377.939819 2.464004
1380.776489 0.272548
1381.793335 0.260338
1382.996948 1.266361
1389.631592 0.4575
1410.445679 0.64819
1422.661255 1.48453
1428.661255 0.673063
1438.618896 2.095895
1439.346313 1.360539
1441.033569 0.659727
1455.10791 0.970833
1473.506592 5.267241
1474.694336 1.42053
1484.361084 0.407801
1491.506226 6.575848
1492.352295 1.488398
1495.128662 0.291733
1497.503052 0.32735
1501.528076 1.116351
1502.547363 0.418165
1505.535522 0.78831
1514.524902 0.726821
1530.827515 0.977955
1531.981934 0.290197
1533.752319 0.821622
1539.699219 0.844274
1540.768677 2.438624
1548.13562 0.5368
1556.540527 0.947118
1561.709106 0.638959
1567.165039 3.930367
1567.922607 1.525127
1568.548706 1.341812
1570.401367 1.503693
1574.173584 0.673773
1574.899902 0.939414
1577.50415 3.300817
1578.256958 0.75169
1578.907593 0.597543
1579.751099 1.569515
1582.062622 0.497248
1596.672241 6.091663
1597.992432 4.01627
1598.687988 0.298556
1600.220215 0.246757
1601.376465 2.116936
1604.44519 0.742689
1611.308472 1.452552
1619.193237 1.679379
1631.595825 0.982914
1636.884766 0.931087
1646.050903 0.922689
1647.527344 0.614563
1649.798218 0.524574
1650.690918 0.25673
1659.631104 0.325591
1664.407959 3.884733
1665.01355 0.144892
1666.196045 2.645126
1667.317871 0.484831
1677.693726 0.491695
1680.985229 0.825293
1692.022949 0.397788
1693.25769 0.659464
1703.74939 0.235399
1706.623779 0.364777
1716.733765 1.264228
1718.456665 3.005612
1726.55957 1.651607
1727.909302 0.677322
1734.952759 2.254373
1742.853394 0.379902
1744.495117 7.843904
1745.588501 3.526667
1746.647339 1.310852
1750.853394 0.592807
1759.834717 2.9329
1760.700928 2.825956
1762.513306 4.792152
1763.907959 0.447091
1768.647339 2.724135
1769.525269 0.276418
1795.5802 1.788538
1811.781372 0.687236
1828.710815 1.569714
1829.635742 1.650367
1846.615479 2.307305
1847.642456 3.050431
1848.992798 0.364316
1872.72876 0.338443
1873.691284 0.255337
1881.303223 0.97693
1891.704224 12.208236
1892.727173 1.255787
1894.393188 0.382151
1898.351318 0.491662
1909.709717 5.934769
1910.516235 5.121289
1911.456787 0.34912
1940.442505 0.392977
1958.046021 0.400509
END IONS
