BEGIN IONS
PEPMASS=509.27
CHARGE=2
MSLEVEL=2
SOURCE_INSTRUMENT=LC-ESI-Orbitrap
FILENAME=f.Rolandoo1/20190519 Moroidin paper GNPS/Moroidin-[QLLVWRSH].mzXML;
SEQ=*..*
IONMODE=Positive
ORGANISM=GNPS-LIBRARY
NAME=Moroidin-[QLLVWRSH] M+2H
PI=Jing-Ke Weng
DATACOLLECTOR=Roland Kersten
SMILES=O=C1CC[C@@H](C(N[C@H](C(N[C@@H](CC(C)C)C(N[C@@H](C(C)C)C(N[C@@](C(N[C@H](C(N[C@@H](CO)C(N[C@@H](CC2=CN3C=N2)C(O)=O)=O)=O)CCCNC(N)=N)=O)([H])CC4=C3NC5=C4C=CC6=C5)=O)=O)=O)[C@@H]6C(C)C)=O)N1
INCHI=
INCHIAUX=
PUBMED=
SUBMITUSER=Rolandoo1
TAGS=
LIBRARYQUALITY=3
SPECTRUMID=CCMSLIB00005435906
SCANS=1
70.89917 2946.561523
70.899742 6210.041504
70.900307 7631.898438
70.900871 7375.914062
70.901436 5634.352539
70.902 2063.031738
72.075737 3621.286865
72.076317 27354.171875
72.076897 43235.765625
72.077477 75267.273438
72.078056 96216.765625
72.078636 237090.671875
72.079224 812125.875
72.079803 1903217.25
72.080383 3159221.75
72.080963 3655265.75
72.081543 2754426.5
72.082123 1526664.5
72.082703 547128.0
72.083282 149522.671875
72.083862 62013.675781
72.084442 36080.386719
72.085022 9978.643555
72.085602 2221.286133
72.086182 33.394024
72.668869 4205.29541
72.669456 10830.612305
72.670044 15620.022461
72.670631 15459.086914
72.671219 10548.064453
72.671806 3995.491943
73.081787 952.215637
73.082382 5460.329102
73.08297 16411.787109
73.083565 30006.402344
73.08416 38262.929688
73.084747 32365.730469
73.085342 19491.238281
73.085938 7861.428711
73.086525 955.34845
84.038078 112.451378
84.038803 4608.599609
84.039536 6194.460449
84.040268 32228.900391
84.041 56200.742188
84.041725 149815.46875
84.042458 501924.90625
84.04319 1106371.125
84.043922 1785211.75
84.044647 1968648.5
84.04538 1437669.25
84.046112 764184.0625
84.046844 260276.5
84.047577 64742.851562
84.048302 31348.564453
84.049034 23958.640625
84.049767 21510.541016
84.050499 4422.742188
84.051224 24.160658
84.078995 818.725159
84.079727 1936.464111
84.08046 2867.7854
84.081192 2936.608154
84.081924 2105.060547
84.082657 996.126892
84.083382 21.536186
86.089584 3681.689697
86.09034 24509.142578
86.091095 56600.390625
86.091858 149467.484375
86.092613 210734.109375
86.093369 489909.1875
86.094131 1611643.875
86.094887 4308234.5
86.095642 7513093.0
86.096397 9558435.0
86.09716 7771966.0
86.097916 4652648.0
86.098671 1776368.125
86.099434 482232.46875
86.100189 162970.640625
86.100945 120258.03125
86.1017 45433.664062
86.102463 11584.989258
86.103218 625.55365
86.721687 4237.276367
86.72245 7657.450684
86.723221 9531.700195
86.723984 9007.361328
86.724747 6127.319336
86.725517 1086.685913
87.095818 49.784603
87.096588 4580.227051
87.097359 15141.829102
87.098129 55336.726562
87.0989 103659.382812
87.09967 137133.296875
87.100441 117079.054688
87.101212 72038.96875
87.101982 28169.535156
87.102753 9715.413086
87.103523 1596.717041
87.104294 7.339135
88.674591 2448.677734
88.675377 7013.898926
88.67617 11395.395508
88.676964 11971.759766
88.677757 8137.933594
88.678551 3134.298828
88.679337 377.342072
88.68409 9974.641602
88.684883 23689.847656
88.685677 33467.949219
88.68647 33012.515625
88.687256 23285.128906
88.688049 8273.775391
88.688843 876.01416
88.703102 1414.160645
88.703888 2462.550537
88.704681 3246.659912
88.705475 3162.911621
88.706268 2157.59082
88.707062 1264.038452
88.707855 654.315735
88.708641 883.710083
88.709435 964.230896
88.710228 785.112976
88.711021 453.227295
88.711815 75.182449
88.730042 4417.855957
88.730835 12649.616211
88.731621 20282.183594
88.732414 21911.345703
88.733208 16438.591797
88.734001 8063.691406
88.734795 1542.360596
92.380707 3272.505615
92.381546 16532.882812
92.382393 37209.464844
92.383232 29821.910156
92.384071 6191.498047
92.384918 351.527985
93.276237 326.766632
93.277092 623.011047
93.277946 777.413696
93.278801 747.414368
93.279655 575.196106
93.28051 96.565567
97.062492 905.235596
97.063393 1884.878296
97.064301 2511.544922
97.065208 2228.347656
97.066116 1194.231079
97.067024 32.574474
100.072151 27.416239
100.073105 1341.255859
100.074051 3152.434814
100.074997 4772.923828
100.075951 4944.70459
100.076897 3506.856445
100.07785 1546.031738
100.078796 47.445824
101.213303 3671.379883
101.214264 7030.86377
101.215233 8872.999023
101.216194 8279.918945
101.217163 5766.107422
101.218132 931.817505
103.588928 420.615753
103.589928 793.721375
103.590927 913.295532
103.591927 713.840271
103.592926 370.763092
103.593925 47.667561
110.065804 14.256733
110.066902 890.047668
110.067993 7822.628418
110.069092 19263.007812
110.070183 30246.335938
110.071281 34057.5625
110.072372 26166.552734
110.073471 14514.930664
110.074562 2958.845703
110.075661 769.136902
112.081436 63.041267
112.082558 1291.718018
112.083687 21652.533203
112.084808 61863.847656
112.085938 102091.34375
112.087059 118133.710938
112.088188 87798.679688
112.08931 46294.894531
112.090439 14101.556641
112.09156 1753.824097
112.099442 334.721985
112.100563 641.333557
112.101692 809.226868
112.102814 733.095154
112.103943 455.298248
112.105064 46.895378
113.065605 41.104965
113.066742 742.946899
113.067886 2188.358643
113.069023 4267.719238
113.07016 6196.624023
113.071304 9607.353516
113.072441 6549.777344
113.073586 3014.924805
113.074722 1263.223877
114.052399 263.347229
114.053551 672.569275
114.05471 1007.520325
114.055862 1035.990601
114.057014 744.628113
114.058174 356.101501
114.059326 31.206772
114.085899 19.390265
114.087051 841.389526
114.088211 2402.8396
114.089363 4649.233398
114.090523 6504.833984
114.091675 6775.480957
114.092834 5199.416016
114.093987 2800.893066
114.095139 788.617065
119.114113 2867.007568
119.115349 6099.095703
119.116577 8408.223633
119.117813 8596.59375
119.119049 6553.109863
119.120277 3521.243408
119.121513 516.620667
120.152596 385.297913
120.153847 666.787354
120.155098 801.588318
120.156342 747.308777
120.157593 559.53717
120.158844 33.123093
121.477211 4653.868652
121.478485 8250.835938
121.479752 9631.013672
121.481018 8181.712402
121.482292 4857.861328
121.483559 712.558899
122.669113 9259.80957
122.670403 15147.023438
122.671692 16475.558594
122.672981 12728.12207
122.674271 6489.160156
122.67556 761.361328
127.244179 122.345741
127.245537 1280.462891
127.246902 2325.726318
127.24826 2815.388672
127.249619 2423.799316
127.250984 1398.491699
127.370842 3523.151855
127.372208 8254.493164
127.373573 10825.658203
127.374931 9893.751953
127.376297 7013.725586
127.377663 1918.015625
127.379021 1120.531494
127.380386 11997.888672
127.381752 14394.125977
127.38311 11297.182617
127.384476 5826.637207
127.385841 718.079102
129.059906 1218.116577
129.061295 8851.15918
129.062683 29150.134766
129.064072 63283.136719
129.06546 95528.953125
129.066849 88444.921875
129.068237 54165.070312
129.069626 19497.597656
129.07103 2646.969727
134.642746 9689.745117
134.644226 15918.578125
134.645706 17899.302734
134.647186 14565.436523
134.648666 8145.520996
134.650146 1127.44104
140.138535 270.084656
140.140106 1895.404541
140.141693 3459.212158
140.143265 4441.023926
140.144836 4131.033203
140.146408 2742.958984
140.14798 1159.046387
141.496414 3187.15625
141.498016 6209.567383
141.499603 7612.961426
141.501205 6181.37207
141.502808 2943.825928
141.504395 265.377563
149.467514 4848.178223
149.469254 8191.904297
149.470978 10219.188477
149.472717 9642.607422
149.474457 6669.511719
149.476181 2971.202393
149.477921 79.340172
151.611115 3727.354736
151.612885 6497.125488
151.614655 7951.582031
151.616425 7144.494141
151.618195 4595.202148
151.619965 137.893784
153.723419 371.596619
153.725235 1831.394897
153.727036 2368.273682
153.728851 2221.536621
153.730652 1635.663696
153.732452 865.312317
156.068588 251.944626
156.070435 1995.213989
156.072281 9199.706055
156.074127 19871.013672
156.075974 27832.009766
156.07782 27411.074219
156.079681 17687.230469
156.081528 5983.916504
156.083374 1421.704102
157.101578 504.933746
157.103439 5747.128418
157.105316 9721.108398
157.107178 11437.668945
157.109039 10036.970703
157.110916 6494.234863
158.90947 435.036987
158.911362 4279.614258
158.913269 8041.162109
158.915161 9752.510742
158.917068 8182.343262
158.918961 4388.375
159.044418 510.168701
159.04631 4873.231445
159.048218 8505.833008
159.050125 10262.029297
159.052017 8584.476562
159.053925 4407.081543
159.561066 78.341049
159.562988 2681.062744
159.564896 6131.603027
159.566803 8945.238281
159.56871 18369.572266
159.570633 21312.017578
159.57254 18409.919922
159.574448 13522.074219
159.576355 5481.112305
159.612686 62.878906
159.614594 2502.363037
159.616516 8565.282227
159.618423 16207.72168
159.620331 24201.978516
159.622253 38978.445312
159.624161 54179.242188
159.626068 82166.65625
159.627975 96648.351562
159.629898 76756.898438
159.631805 44323.0625
159.633713 19587.601562
159.635635 7502.259766
159.679626 44.845203
159.681549 619.83667
159.683456 2000.285889
159.685364 3365.32251
159.687286 4092.394043
159.689194 3629.151855
159.691101 2264.030518
159.693024 749.876465
167.111801 472.104797
167.113846 2188.32666
167.115891 3574.250488
167.11795 4268.185059
167.119995 3768.027588
167.12204 2356.287598
167.124084 857.709167
168.132446 305.649231
168.134521 1391.84314
168.136581 2284.571289
168.138657 2645.390869
168.140717 2212.817383
168.142792 1117.292969
172.042236 993.332336
172.044373 5622.174805
172.046509 8493.431641
172.048645 9172.551758
172.050797 7294.391602
172.052933 3814.668701
175.062027 101.871475
175.064224 583.481934
175.066406 849.869568
175.068604 858.684509
175.070801 611.476501
175.072998 264.654572
175.112549 233.756866
175.114746 1185.474976
175.116943 2429.438477
175.119141 3145.119629
175.121338 2783.371094
175.123535 1642.534546
175.125732 514.382202
180.082794 514.12384
180.085083 1940.341187
180.087372 2893.076904
180.089661 2842.968994
180.091949 1774.228638
180.094238 550.355042
185.145798 3083.934814
185.148178 12503.895508
185.150574 9829.859375
185.152954 13514.640625
185.15535 41275.5
185.15773 165283.671875
185.160126 428919.96875
185.162506 720951.5
185.164902 877657.9375
185.167297 698278.6875
185.169678 393628.6875
185.172073 149215.84375
185.174454 39512.707031
185.176849 9530.563477
185.179245 2198.739014
185.181625 317.986908
186.160385 527.877075
186.162796 2126.894531
186.165207 3780.626465
186.167618 4803.108398
186.170013 4444.881836
186.172424 2906.869873
186.174835 1101.034424
188.175583 129.822266
188.17804 600.225342
188.180481 982.953979
188.182922 1120.166382
188.185379 931.307617
188.18782 577.007874
188.190277 237.20047
190.430328 784.138794
190.432831 4554.08252
190.435318 6938.624512
190.437805 7420.283691
190.440308 5704.24707
190.442795 2765.054199
197.080658 735.432922
197.083282 4065.929443
197.085907 6462.916504
197.088531 7517.957031
197.091141 6398.785156
197.093765 3402.918457
198.107788 451.908173
198.110428 1499.336792
198.113068 2200.851562
198.115723 2229.010254
198.118362 1596.867432
198.121002 639.153625
199.110992 1667.927246
199.113647 6847.6875
199.116318 11755.9375
199.118988 14105.060547
199.121643 12065.485352
199.124313 6296.300293
199.126968 595.117615
199.578018 1411.31311
199.580688 6175.810547
199.583374 10338.848633
199.586044 10688.895508
199.588715 7346.015625
199.591385 2892.833496
201.040359 109.623581
201.04306 434.703644
201.045761 712.088135
201.048462 841.240295
201.051163 770.600769
201.053879 570.132751
201.05658 273.914856
203.701797 1125.607666
203.704559 5320.087402
203.707306 7357.173828
203.710068 7507.227051
203.71283 5708.139648
203.715576 2790.172852
206.582443 781.080383
206.585266 3895.516357
206.588074 7003.505859
206.590897 8383.361328
206.593704 6933.01416
206.596527 3506.210205
212.245438 190.997025
212.248383 619.255615
212.251312 866.333801
212.254242 856.939148
212.257172 605.969727
212.260101 241.691254
213.145477 385.110992
213.148422 2097.724121
213.151382 16265.097656
213.154327 50904.226562
213.157288 90241.070312
213.160233 106871.0
213.163177 84865.171875
213.166138 46657.953125
213.169083 16787.837891
213.172043 3383.348145
213.174988 296.499512
216.136063 627.62085
216.139084 1901.346802
216.14209 2906.75
216.145111 3165.631836
216.148117 2489.044189
216.151138 1322.9729
216.154144 356.112061
223.949417 299.703552
223.952606 783.658691
223.95578 931.13855
223.958954 832.500916
223.962128 553.992981
223.965317 211.52948
225.091415 870.274719
225.09462 2240.731445
225.097824 2853.08667
225.101028 2345.075684
225.104233 1159.572021
225.107437 257.71814
227.106186 901.026855
227.109421 2182.383057
227.112671 2781.084473
227.115921 2576.809082
227.119156 1793.890015
227.122406 634.073303
235.277557 2192.586182
235.280991 6409.716309
235.284409 9568.029297
235.287827 10472.505859
235.291245 8690.203125
235.294678 3695.739502
243.09819 3579.189941
243.101791 10120.036133
243.105392 15661.010742
243.108978 17679.853516
243.112579 14337.96582
243.116165 7046.371582
243.119766 1330.458618
243.123352 298.55307
244.13295 751.52887
244.136566 1811.95874
244.140198 2512.141357
244.143814 2636.709961
244.14743 2124.122803
244.151047 704.758423
245.112473 1034.285767
245.116104 2865.008057
245.119751 4804.65332
245.123383 5916.461426
245.127014 5403.186523
245.130661 3653.848633
245.134293 1798.036743
245.137939 443.290405
262.139862 1048.854736
262.14389 2724.015625
262.147919 4034.113525
262.151947 4079.7229
262.155975 2878.873291
262.160004 1349.28418
262.164032 266.650391
272.123108 639.807129
272.12735 1895.718018
272.131622 3117.952148
272.135864 3389.880127
272.140137 2540.650635
272.144379 1264.91333
272.148651 243.906403
283.917511 220.243195
283.922058 600.630859
283.926575 903.506653
283.931122 899.799988
283.935669 592.255493
283.940186 151.745132
293.650482 498.356415
293.655243 1785.7771
293.660034 3301.9729
293.664795 4006.350098
293.669556 3439.526367
293.674347 2143.664795
293.679108 359.555511
296.640961 1321.344482
296.645782 2466.31543
296.650635 2956.87915
296.655487 2640.626953
296.660339 1726.036499
296.665161 277.083984
299.65274 1013.623718
299.657654 2152.887207
299.662567 3053.251465
299.66748 3122.016602
299.672424 2152.754883
299.677338 321.169281
311.153168 1130.020142
311.158386 2543.626953
311.163574 3519.674561
311.168793 3180.841797
311.173981 1731.073975
311.179199 80.613876
317.171997 330.257904
317.177368 759.02356
317.182709 1021.839111
317.18808 905.070068
317.19342 497.536346
317.198792 89.036469
319.141449 3745.732422
319.146851 29108.917969
319.152252 85706.140625
319.157654 150697.21875
319.163055 196973.8125
319.168488 168761.296875
319.173889 105054.835938
319.179291 41758.40625
319.184692 8450.280273
319.190094 459.184753
319.65564 1791.714111
319.661041 3343.484619
319.666473 3910.219482
319.671875 3114.922852
319.677307 1689.184204
319.682739 156.656021
323.163269 4417.341797
323.168793 13149.148438
323.174286 30452.341797
323.17981 55187.128906
323.185303 65273.253906
323.190826 47277.574219
323.19632 21275.761719
323.201843 6155.915039
323.207367 578.006409
324.422882 9018.44043
324.428436 23619.558594
324.43396 37780.664062
324.439514 39903.585938
324.445068 20831.564453
324.450592 3422.24292
324.661285 527.004639
324.666809 977.428345
324.672363 1095.782471
324.677917 838.247253
324.683472 418.144012
324.688995 54.249847
325.138824 144.047623
325.144379 1851.556763
325.149933 11910.970703
325.155518 24631.896484
325.161072 35052.316406
325.166626 33648.390625
325.17218 22376.939453
325.177734 10793.987305
325.183319 1982.621826
325.188873 105.910027
329.167328 1009.67157
329.172974 5189.046875
329.17865 9225.879883
329.184296 12069.791016
329.189972 10280.951172
329.195618 4679.317871
329.201294 1783.981323
333.652222 235.772034
333.65799 11575.550781
333.663757 39240.6875
333.669556 71718.445312
333.675323 100021.96875
333.681122 86343.507812
333.68689 52133.25
333.692657 19226.945312
333.698456 4135.724121
333.704224 1333.147583
333.710022 58.56617
334.167114 1762.397583
334.172913 3058.321777
334.178711 3483.263184
334.184509 2794.591797
334.190308 1470.057007
334.196075 63.765106
334.52655 1987.282349
334.532349 5962.57666
334.538147 9402.826172
334.543945 9735.480469
334.549744 6921.716309
334.555542 3248.969238
334.56134 837.189819
337.164337 6787.162109
337.170227 20017.613281
337.176086 33265.96875
337.181976 38216.863281
337.187836 28849.253906
337.193695 15957.450195
337.199585 5609.206055
337.205444 418.236664
337.675659 601.828857
337.681549 10207.99707
337.687408 23449.912109
337.693298 32176.8125
337.699188 30951.384766
337.705078 20341.064453
337.710968 9319.875977
337.716827 1082.661499
337.722717 19.961742
342.67276 1181.362183
342.678772 2262.625488
342.684784 3118.644531
342.690796 3041.919434
342.696808 1905.17041
342.70282 62.567368
343.166504 1014.351318
343.172516 7821.323242
343.178558 13898.499023
343.18457 16837.017578
343.190613 15109.988281
343.196625 9625.574219
343.202667 2382.637695
343.208679 54.265285
343.667358 1343.048462
343.673401 2731.696289
343.679443 3621.858643
343.685486 3378.133545
343.691528 2366.438232
343.697571 1475.942627
343.703613 43.065395
345.176514 933.267578
345.182587 2061.016602
345.18866 2649.064209
345.194763 2331.046143
345.200836 1500.561768
345.206909 36.101021
345.67569 1251.245972
345.681763 7001.389648
345.687866 15411.269531
345.69397 24370.244141
345.700043 18607.71875
345.706146 10689.504883
345.71225 2516.348389
345.718353 63.127071
346.16983 655.792114
346.175934 2217.773438
346.182037 3693.066895
346.188141 3968.44751
346.194244 2970.830566
346.200348 1622.319702
347.646332 165.122574
347.652496 1924.338989
347.65863 13359.439453
347.664795 29250.970703
347.670929 43244.625
347.677063 43980.265625
347.683228 28727.027344
347.689362 12277.771484
347.695526 2662.221436
347.70166 325.889954
347.707825 4.855223
349.683502 1847.482056
349.689697 11375.810547
349.695892 17954.191406
349.702087 18841.257812
349.708313 13452.882812
349.714508 5955.80127
349.720703 361.363129
351.157623 3180.40625
351.163849 10027.581055
351.170105 19532.560547
351.176331 25858.371094
351.182587 24353.634766
351.188812 16246.575195
351.195068 6470.962402
351.201294 460.68631
351.66983 1102.810791
351.676086 2071.954834
351.682343 13930.060547
351.688599 25543.326172
351.694824 32524.458984
351.70108 25703.822266
351.707336 13636.396484
351.713593 2664.273438
351.719849 1133.140503
351.726105 1.210589
352.164337 0.535629
352.170624 5543.172363
352.17688 14550.53125
352.183136 27346.949219
352.189423 48182.410156
352.195679 37193.609375
352.201965 24196.105469
352.208221 9868.824219
352.214478 1342.910156
353.181702 4.564061
353.187988 1147.895386
353.194305 2296.170166
353.200592 3037.564209
353.206879 2651.152344
353.213165 1408.092773
355.159882 16.668552
355.166229 2069.014893
355.172577 3860.086426
355.178925 4447.399902
355.185272 3348.033936
355.19162 1525.297485
355.197968 28.721889
356.183868 16.847013
356.190247 1180.445557
356.196625 2223.69043
356.203003 2956.285645
356.209381 3129.617432
356.215759 2561.476807
356.222107 1409.574951
359.1922 634.172302
359.198669 1073.545776
359.205109 1137.783569
359.211578 842.761658
359.218018 432.436066
359.224487 18.160746
359.670349 36.398701
359.676819 1413.406128
359.683289 3441.812744
359.689758 4472.972168
359.696228 3907.453369
359.702698 2271.343018
359.709167 470.373505
359.715637 19.169552
360.188324 294.100281
360.194824 8539.399414
360.201294 15739.19043
360.207764 18564.478516
360.214264 15379.759766
360.220734 9106.779297
360.227234 1864.051025
360.233704 24.470928
360.668457 20.177086
360.674957 3857.45874
360.681458 15492.811523
360.687958 45492.285156
360.694458 78090.257812
360.700928 96537.507812
360.707428 74239.90625
360.713928 42608.683594
360.720428 14983.142578
360.726929 4901.837402
360.733429 166.202271
361.182098 52.385567
361.188599 1682.280518
361.195129 2419.731934
361.20163 2537.353027
361.20813 2284.196289
361.21463 1783.90918
363.188568 41.256332
363.195129 1132.702393
363.201691 2607.836182
363.208252 3526.038086
363.214813 3241.474854
363.221405 2055.101074
363.66156 43.576637
363.668152 1148.278198
363.674713 10944.680664
363.681305 25737.568359
363.687866 54681.992188
363.694458 68899.898438
363.701019 55872.382812
363.707611 33061.929688
363.714172 10653.256836
363.720764 436.65213
364.696167 31.754162
364.702759 1317.797363
364.709381 2783.093506
364.715973 4131.288574
364.722595 4637.405762
364.729187 3942.138184
364.735779 2382.256104
364.742401 878.340942
365.662231 21.107456
365.668884 797.091064
365.675507 2442.257568
365.682129 6680.309082
365.688782 10805.179688
365.695404 11818.414062
365.702026 8553.744141
365.708649 2713.234375
365.715302 752.780029
366.160004 191.05928
366.166656 2201.427002
366.173309 12735.977539
366.179932 27119.904297
366.186584 39664.609375
366.193237 38491.144531
366.19989 26006.09375
366.206512 12952.571289
366.213165 1899.500977
366.658783 36.221287
366.665466 1203.668823
366.672119 2766.047852
366.678772 4459.560547
366.685425 5415.862793
366.692078 5070.957031
366.69873 3575.244629
366.705414 1777.615479
367.165283 6312.19043
367.171936 11313.668945
367.178619 13179.100586
367.185272 10777.486328
367.191956 6218.273926
367.198639 255.858444
367.679474 42.95874
367.686157 1323.886841
367.692841 11775.049805
367.699524 22942.449219
367.706207 31091.298828
367.712921 27783.300781
367.719604 15948.961914
367.726288 3309.285156
367.732971 1026.753418
368.18808 40.990025
368.194763 1168.064087
368.201477 2350.916504
368.20816 3013.749756
368.214874 2657.461182
368.221558 1472.062134
368.65744 12.992687
368.664154 1214.063354
368.670868 27934.542969
368.677582 124823.789062
368.684296 376246.84375
368.69101 657663.875
368.697723 858072.875
368.704437 688231.875
368.711151 408837.90625
368.717865 146287.90625
368.724579 40875.390625
368.731293 10325.443359
368.738007 2645.06958
368.74472 126.029083
369.16806 190.695892
369.174805 3102.117676
369.181519 32118.888672
369.188232 83364.460938
369.194977 133502.9375
369.201691 160199.53125
369.208435 136956.96875
369.215149 91506.015625
369.221893 46573.730469
369.228607 9517.639648
369.235321 435.924561
372.192902 479.082794
372.199738 988.596985
372.206543 1388.508789
372.213348 1433.850708
372.220154 1091.864502
372.226959 591.448547
372.233765 10.281486
372.669983 48.916687
372.676788 1026.018433
372.683624 2431.306641
372.69043 4244.65918
372.697266 5606.691895
372.704071 5486.266602
372.710907 3688.190186
372.717712 1430.175415
373.702179 41.744923
373.709015 877.279541
373.715881 2931.086914
373.722717 4851.254883
373.729584 5320.980957
373.73642 4254.636719
373.743286 2554.008301
373.750122 1131.062866
373.756989 34.078743
374.182129 6998.392578
374.188995 24721.568359
374.195862 51091.757812
374.202728 77588.398438
374.209595 73968.507812
374.216461 45839.898438
374.223328 17903.1875
374.230194 6197.258789
374.237061 307.19516
374.656158 96.973839
374.663025 1992.418335
374.669891 15196.264648
374.676788 78447.445312
374.683655 238920.453125
374.690521 418742.78125
374.697418 550253.8125
374.704285 452801.25
374.711151 269344.84375
374.718048 101161.203125
374.724915 24225.416016
374.731781 5430.917969
374.738678 55.493809
375.165497 79.550972
375.172394 1053.050781
375.179291 12012.518555
375.186188 34376.28125
375.193054 59648.257812
375.199951 75898.03125
375.206848 57230.933594
375.213745 27979.816406
375.220642 9824.209961
375.227539 1034.708984
376.699829 63.983356
376.706757 1081.216919
376.713684 2381.926758
376.720642 3213.405762
376.72757 2809.364502
376.734497 1456.928955
377.192535 5916.625977
377.199463 9397.408203
377.206421 10460.114258
377.213379 9303.408203
377.220306 6899.674805
377.227264 213.575836
379.187012 85.664696
379.194 1354.080933
379.201019 4442.264648
379.208008 10412.395508
379.215027 13408.693359
379.222015 11654.983398
379.229034 7501.334961
379.236023 2948.35791
379.243011 848.941589
380.155029 83.626671
380.162079 1230.326294
380.169098 3037.12085
380.176117 7655.515137
380.183167 12672.333008
380.190186 13139.254883
380.197205 8243.399414
380.204254 3997.330566
380.211273 1430.049683
380.218292 1675.623657
380.225342 2962.815918
380.232361 4393.935059
380.23941 4969.240723
380.246429 4181.239746
380.253448 2480.685791
380.260498 956.490845
380.661591 76.069832
380.66861 1415.495972
380.675659 3193.5896
380.682709 5125.40332
380.689758 6049.964355
380.696777 5114.495117
380.703827 2895.170898
380.710876 967.243652
382.158936 115.483597
382.166016 1491.496582
382.173096 2390.348145
382.180176 2874.130615
382.187256 2498.251709
382.194366 1271.896362
383.152588 257.727448
383.159698 2840.431396
383.166809 5280.768555
383.17395 13630.868164
383.181061 42352.171875
383.188171 185108.265625
383.195282 603861.0625
383.202393 1114165.375
383.209503 1567071.125
383.216614 1372625.75
383.223724 838406.6875
383.230835 351480.5
383.237946 98024.0
383.245056 31416.261719
383.252167 18176.076172
383.259308 9434.479492
383.266418 4339.165527
383.273529 744.52655
383.672272 65.186974
383.679382 909.302063
383.686523 16029.27832
383.693634 65301.515625
383.700775 157855.578125
383.707886 254560.8125
383.715027 279351.09375
383.722137 194843.890625
383.729279 101304.953125
383.73642 29660.830078
383.74353 2977.222656
385.696869 369.564758
385.704071 5536.453613
385.711243 18732.820312
385.718414 35309.429688
385.725616 46356.386719
385.732788 40677.132812
385.73999 24294.609375
385.747162 9685.050781
385.754333 1186.544556
386.192932 110.380188
386.200134 1346.28772
386.207336 3734.344971
386.214539 17593.693359
386.221741 29686.992188
386.228943 32662.335938
386.236115 24066.113281
386.243317 15212.885742
386.250519 2562.154297
386.257721 1266.111572
386.264923 165.521759
386.704376 19.568644
386.711609 679.954407
386.718811 1152.481812
386.726013 1456.698608
386.733246 1429.62854
386.740448 1058.444824
386.74765 541.174133
388.172302 11.887885
388.179565 1978.692871
388.186798 13727.361328
388.194061 27754.025391
388.201294 40180.75
388.208557 41084.269531
388.21582 28159.248047
388.223053 13389.84082
388.230316 1570.556152
388.673157 192.305222
388.68042 2236.518799
388.687683 11641.800781
388.694946 16906.738281
388.702209 17808.740234
388.709473 13606.898438
388.716736 7083.047852
389.153137 450.114899
389.1604 12422.171875
389.167694 67402.789062
389.174957 237340.453125
389.182251 483178.8125
389.189514 731173.1875
389.196808 730546.9375
389.204102 475288.75
389.211365 232962.671875
389.218658 65149.46875
389.225922 14458.915039
389.233215 8032.395508
389.663177 197.95462
389.670471 2492.786621
389.677765 14706.219727
389.685059 30340.279297
389.692352 43459.855469
389.699646 40526.742188
389.70694 24999.626953
389.714233 10258.808594
389.721527 2283.770264
390.700928 110.566582
390.708252 1153.652954
390.715576 2288.86499
390.7229 2774.184814
390.730194 2211.672363
390.737518 1111.85791
392.692932 104.685188
392.700317 1118.881226
392.707703 2896.90332
392.715088 4668.155762
392.722443 5007.04834
392.729828 3592.226074
392.737213 1587.084473
393.173004 40.031487
393.180389 1109.769409
393.187775 23666.865234
393.19516 82456.015625
393.202576 180460.203125
393.209961 285941.96875
393.217346 305106.375
393.224731 211199.546875
393.232147 108561.429688
393.239532 28677.505859
393.246918 1961.098145
393.683563 137.669128
393.690948 1884.344482
393.698364 8686.106445
393.70578 21000.392578
393.713196 34820.382812
393.720581 43886.890625
393.727997 39301.558594
393.735413 25994.453125
393.742828 12083.397461
393.750214 992.034363
394.165436 197.926849
394.172852 2084.277588
394.180267 3141.874268
394.187683 3339.126953
394.195099 2604.105713
394.202545 1836.94104
394.209961 7560.442383
394.217377 19476.486328
394.224792 36571.582031
394.232208 59234.308594
394.239655 45487.269531
394.24707 29608.070312
394.254486 13925.679688
394.261902 1716.467285
394.700226 126.704147
394.707672 1495.40625
394.715118 4472.222168
394.722534 17546.332031
394.72998 29482.574219
394.737427 33603.105469
394.744843 26202.419922
394.752289 15550.151367
394.759735 6872.834961
395.18396 224.596725
395.191437 2846.732178
395.198883 7902.013672
395.206329 12998.626953
395.213776 13715.18457
395.221222 8494.141602
395.228668 2362.956055
395.236115 566.665955
396.184052 26.972921
396.191528 674.410461
396.199005 1075.059448
396.206482 1110.753174
396.213959 865.278625
396.221436 1212.788208
396.228912 2652.055176
396.236389 4192.820312
396.243866 4396.599121
396.251343 3323.889648
396.25882 1711.425049
397.172882 120.671562
397.180389 3641.885498
397.187897 11152.091797
397.195404 20861.859375
397.202911 28998.148438
397.210419 30400.927734
397.217926 23271.324219
397.225433 12097.258789
397.232941 3776.624512
398.173004 114.444038
398.180511 1533.297852
398.188049 11502.286133
398.195587 23850.410156
398.203125 33924.457031
398.210663 32351.111328
398.218201 20661.40625
398.225739 7961.053223
399.17688 140.903854
399.184418 1663.760742
399.191986 7859.369141
399.199554 18316.882812
399.207123 27893.130859
399.214691 29273.125
399.22226 23476.986328
399.229797 12274.303711
399.237366 2768.731445
399.244934 685.834778
399.691589 320.514526
399.699158 6754.210449
399.706757 16116.399414
399.714325 27219.517578
399.721893 30763.056641
399.729492 23670.525391
399.737061 11876.842773
399.744629 2968.54541
399.752228 1186.675415
401.707062 209.105759
401.714691 4380.271973
401.722321 9138.025391
401.72995 11816.336914
401.737579 10337.347656
401.745239 5996.893066
402.701355 30.459253
402.709015 523.157349
402.716675 1105.09082
402.724335 3196.222168
402.731995 5283.958984
402.739655 5600.885742
402.747314 3881.249756
402.754974 1557.409912
403.153809 366.88385
403.161499 4420.934082
403.169159 39557.804688
403.176849 123104.03125
403.184509 215254.375
403.1922 276607.71875
403.19986 219050.5625
403.20755 127124.773438
403.21524 47160.660156
403.2229 15925.914062
403.230591 19560.421875
403.238251 24390.796875
403.245941 25094.484375
403.253632 17906.710938
403.261292 9296.368164
403.268982 943.191956
403.660889 206.11174
403.668579 2498.770752
403.67627 14546.6875
403.68396 26136.599609
403.69165 32842.085938
403.699341 27682.40625
403.707031 16326.3125
403.714722 5589.492188
406.210602 307.366943
406.218353 3035.266846
406.226105 7681.717285
406.233887 11482.416016
406.241638 11942.664062
406.24942 8182.83252
406.257172 4146.070801
406.264954 1248.522705
406.700104 272.405273
406.707886 2207.864014
406.715668 3774.939209
406.723419 4652.277344
406.731201 4223.108398
406.738983 2909.831055
406.746765 1486.247803
407.174927 803.342285
407.182709 8967.77832
407.190491 45081.527344
407.198273 103595.507812
407.206085 157765.875
407.213867 170447.359375
407.221649 121855.304688
407.229462 63275.238281
407.237244 20121.580078
407.245026 4557.865234
407.252838 277.920013
407.681793 30.889332
407.689575 674.388062
407.697388 2761.843506
407.7052 4235.929688
407.713013 4830.899902
407.720795 4004.656006
407.728607 2152.158691
408.158325 46.532478
408.166138 622.861206
408.17395 869.109131
408.181763 1041.521606
408.189575 996.611877
408.197418 730.894897
408.205231 961.991272
408.213043 17586.1875
408.220856 69427.734375
408.228699 125686.257812
408.236511 169766.703125
408.244324 151539.1875
408.252167 96657.875
408.259979 41276.777344
408.267792 5067.473633
408.275635 153.864197
408.698364 766.460938
408.706177 7027.611816
408.71402 30114.447266
408.721863 58895.792969
408.729675 79317.234375
408.737518 76329.039062
408.745361 52781.011719
408.753204 25435.013672
408.761017 2703.530029
408.76886 268.725952
409.208069 288.428345
409.215912 2244.301758
409.223755 3828.484375
409.231598 4329.564453
409.239471 3514.143799
409.247314 2069.172363
409.255157 781.031128
410.198853 459.924835
410.206726 6323.594727
410.2146 10322.041992
410.222473 12607.883789
410.230347 11164.983398
410.23822 6455.562988
410.679779 197.030273
410.687683 1762.222412
410.695587 3370.962891
410.703461 4234.961426
410.711365 3653.114502
410.719238 2023.94104
411.177399 465.305115
411.185303 5511.099121
411.193207 15093.575195
411.201111 25261.326172
411.209045 28459.691406
411.216949 20305.683594
411.224854 8936.225586
411.232758 1034.448242
413.695038 287.473694
413.703033 2132.494629
413.710999 3990.686768
413.718964 5126.87793
413.726959 4633.831543
413.734924 2937.124756
413.74292 1237.306152
413.750885 143.908859
415.688873 358.435211
415.696899 6447.302246
415.704956 17998.541016
415.712982 41376.539062
415.721008 67326.789062
415.729065 76166.484375
415.737091 53830.253906
415.745117 23560.976562
415.753174 6714.736328
416.179504 719.193054
416.187561 11007.143555
416.195618 43920.371094
416.203674 106281.664062
416.211731 161640.484375
416.219757 175700.140625
416.227814 132937.984375
416.23587 76456.648438
416.243927 27941.193359
416.251984 3896.019531
417.19574 439.705872
417.203827 9055.142578
417.211884 30926.857422
417.219971 116613.898438
417.228058 298211.5
417.236145 494435.59375
417.244202 601334.1875
417.252289 446827.53125
417.260376 243140.5625
417.268463 69390.296875
417.27655 10436.347656
417.284637 1765.526489
417.292725 658.815491
417.713348 544.55365
417.721436 6104.364258
417.729523 21819.621094
417.73761 52609.921875
417.745728 68994.664062
417.753815 57103.460938
417.761902 33553.398438
417.769989 13833.991211
417.778107 71.754318
420.209656 389.293427
420.217804 3810.315186
420.225983 15751.164062
420.234131 24062.583984
420.24231 24857.205078
420.250488 16865.302734
420.258667 7559.375977
420.266815 628.30658
421.175079 357.484161
421.183289 2761.188721
421.191498 7055.805176
421.199677 11491.725586
421.207886 14255.470703
421.216064 11725.711914
421.224274 6801.717773
421.232483 2569.825439
421.240662 1069.915771
422.193207 48.08395
422.201447 2547.135498
422.209686 17095.095703
422.217896 51272.496094
422.226135 91479.265625
422.234344 122183.179688
422.242584 103356.671875
422.250793 60062.320312
422.259033 22926.816406
422.267273 5970.518066
422.695435 1025.998413
422.703674 9483.103516
422.711914 25255.027344
422.720154 43965.097656
422.728394 65804.773438
422.736633 51822.863281
422.744873 27004.607422
422.753113 10348.504883
422.761353 878.677185
423.198547 216.125687
423.206787 1487.731079
423.215057 3193.460205
423.223297 4729.02002
423.231567 4912.328125
423.239807 3471.150146
423.248077 1446.201294
423.355438 1195.383179
423.363678 20309.207031
423.371948 38602.757812
423.380219 49154.609375
423.388458 45117.75
423.396729 31962.960938
423.404999 16267.677734
423.413239 18839.402344
423.421509 26729.037109
423.429779 31761.503906
423.438049 27473.580078
423.446289 16296.515625
423.454559 5699.760742
424.696655 2944.428711
424.704956 29591.599609
424.713257 79367.96875
424.721558 147129.03125
424.729858 174702.34375
424.738159 134853.640625
424.74646 71243.625
424.754761 27585.871094
424.763062 5545.304688
425.203339 570.509583
425.21167 4579.975586
425.219971 17511.236328
425.228271 31357.179688
425.236603 40337.070312
425.244904 36095.15625
425.253235 23195.183594
425.261536 9361.318359
425.269867 454.182007
425.7276 325.345642
425.735931 2031.175049
425.744263 3630.615723
425.752594 4533.773926
425.760925 3986.03418
425.769257 2418.060791
425.777588 910.351074
427.222443 391.833923
427.230804 2466.54834
427.239166 3788.52832
427.247559 4307.083984
427.25592 3598.850342
427.264313 1921.727051
428.716736 204.089386
428.725159 2529.067871
428.733582 18537.767578
428.741974 35468.394531
428.750397 43390.972656
428.75882 34660.125
428.767242 19356.128906
428.775665 1470.602783
429.222198 356.125336
429.230621 2255.207031
429.239075 3765.413574
429.247498 4293.348633
429.25592 3535.338867
429.264374 1682.281128
429.68634 2225.82959
429.694763 16608.328125
429.703217 58774.179688
429.71167 107885.195312
429.720123 137482.828125
429.728577 118771.726562
429.737 71638.640625
429.745453 29991.193359
429.753906 6196.222168
429.76236 421.721832
430.176605 480.159668
430.185059 5901.867676
430.193512 30715.498047
430.201965 71763.21875
430.210449 112840.375
430.218903 129045.023438
430.227356 96897.765625
430.235809 54834.679688
430.244293 19903.025391
430.252747 4602.893555
430.2612 679.546265
430.718536 706.694458
430.72702 6108.357422
430.735504 21717.007812
430.743988 34852.308594
430.752441 41725.789062
430.760925 36383.175781
430.769409 22144.572266
430.777893 8871.006836
431.176605 1319.356201
431.18512 12544.50293
431.193604 28229.179688
431.202087 62458.652344
431.210571 213045.453125
431.219055 664982.0
431.22757 1349972.625
431.236053 2014892.125
431.244537 2019201.875
431.253021 1313896.625
431.261536 645079.75
431.27002 180897.15625
431.278503 46029.554688
431.286987 25504.060547
431.295502 18386.279297
431.303986 22060.185547
431.312469 1131.656982
431.320984 41.130871
431.694946 391.066956
431.703461 11298.132812
431.711945 47056.167969
431.720459 142371.265625
431.728973 296930.46875
431.737457 454244.34375
431.745972 466476.6875
431.754486 309068.125
431.763 146967.671875
431.771484 39483.160156
431.779999 5093.256348
431.788513 1204.112427
434.206268 788.027405
434.214844 7415.630859
434.223419 15558.999023
434.232025 21787.746094
434.240601 21807.089844
434.249176 14969.18457
434.257751 6092.546387
435.720154 239.300369
435.72879 4527.858398
435.737396 28654.789062
435.746033 57516.652344
435.754639 90766.367188
435.763275 88713.882812
435.771912 53150.890625
435.780518 24956.646484
435.789154 1846.35144
436.220795 412.710205
436.229431 2269.69043
436.238068 3244.600342
436.246704 3739.532227
436.255341 4079.198242
436.263977 4370.650391
436.272614 4039.734863
436.28125 2802.043701
436.289917 1258.186035
436.69632 203.820618
436.704956 1315.761475
436.713623 2827.268066
436.72226 4026.05127
436.730927 3919.476318
436.739594 2564.753174
436.74823 965.184753
438.658508 582.337463
438.667206 5328.21875
438.675934 22416.648438
438.684631 43757.726562
438.693329 154538.46875
438.702057 546834.1875
438.710754 1442888.875
438.719482 2367662.25
438.72821 2895551.75
438.736908 2217018.0
438.745636 1257137.125
438.754333 424384.15625
438.763062 111448.710938
438.771759 34855.875
438.780487 21618.074219
438.789185 5614.114746
439.172913 414.878693
439.181641 2507.584473
439.190369 14660.313477
439.199097 71513.03125
439.207825 228073.9375
439.216553 449252.21875
439.225281 653876.25
439.234009 625533.3125
439.242737 395342.21875
439.251465 184803.484375
439.260193 48428.816406
439.268921 7386.185059
439.277679 1460.672241
439.70575 312.996552
439.714478 6413.903809
439.723236 52231.933594
439.731964 162802.234375
439.740723 329262.875
439.749451 485680.6875
439.758209 470937.6875
439.766937 298922.90625
439.775696 139963.734375
439.784424 38074.96875
439.793182 7707.672852
439.801941 747.936707
440.213257 19.050825
440.222015 1876.515381
440.230774 12012.762695
440.239532 28186.763672
440.248291 46144.179688
440.25705 62787.605469
440.265808 50065.035156
440.274567 26209.748047
440.283325 11982.889648
440.292084 4139.489258
440.712891 661.882751
440.721649 5533.65625
440.730438 11121.102539
440.739197 14527.519531
440.747955 13758.147461
440.756744 9116.087891
440.765503 1672.993164
441.222137 561.03009
441.230927 4691.974609
441.239716 10354.601562
441.248505 15222.172852
441.257294 15394.354492
441.266083 10433.397461
441.274872 3980.884521
441.732269 757.483582
441.741089 5951.460938
441.749878 10771.983398
441.758698 12032.858398
441.767487 9094.433594
441.776306 4385.12793
442.216858 222.316086
442.225677 1343.690063
442.234497 2800.288818
442.243317 3985.018799
442.252136 4021.122314
442.260956 2881.396729
442.269775 1302.711792
442.71106 873.331116
442.719879 7100.847168
442.728729 18760.277344
442.737549 32560.316406
442.746399 39562.09375
442.755219 33048.789062
442.764069 19097.373047
442.772888 7409.65332
442.781738 1157.015259
443.188385 1123.257935
443.197235 7769.171875
443.206085 13971.949219
443.214935 18412.230469
443.223785 18826.728516
443.232635 14534.668945
443.241486 7384.444824
443.250336 801.925171
443.684235 1135.47583
443.693085 9147.589844
443.701965 26176.900391
443.710815 53832.53125
443.719666 67576.523438
443.728546 55221.101562
443.737396 30967.941406
443.746277 9528.8125
443.755127 477.4198
444.180908 2095.219971
444.189758 12562.708984
444.198639 26496.910156
444.20752 38058.34375
444.2164 40160.261719
444.225281 30748.970703
444.234161 17181.076172
444.243042 6260.768066
444.251923 625.859314
444.705078 1051.040771
444.713959 8423.30957
444.72287 23484.441406
444.73175 50322.855469
444.740631 68495.507812
444.749542 67469.109375
444.758423 45687.632812
444.767334 23058.8125
444.776215 6362.079102
445.185638 104.935905
445.19455 2500.555664
445.203461 24138.208984
445.212372 102580.179688
445.221252 250223.640625
445.230164 397347.6875
445.239075 460662.46875
445.247986 349681.15625
445.256897 193762.859375
445.265808 68548.867188
445.274719 18079.640625
445.28363 2418.671875
445.702667 3457.753662
445.711609 23517.292969
445.72052 61629.492188
445.729431 103418.3125
445.738373 130926.445312
445.747284 113224.46875
445.756195 70337.679688
445.765137 31906.537109
445.774048 7284.52832
445.78299 55.704891
446.21167 472.999878
446.220612 2527.493408
446.229553 4285.189453
446.238495 5048.92627
446.247437 4405.696777
446.256348 2824.188721
446.265289 1131.513062
449.238892 458.914734
449.247925 2407.389893
449.256958 3777.878662
449.265991 4338.615234
449.275024 3618.292725
449.284058 1786.516235
449.70874 103.376709
449.717804 3394.753662
449.726837 26314.599609
449.73587 71834.789062
449.744934 130128.695312
449.753967 162042.046875
449.763 138330.875
449.772064 84770.539062
449.781097 36058.375
449.790161 5701.243652
449.799194 18.773991
449.808228 2.48775
450.22464 1533.90918
450.233673 15997.561523
450.242737 34356.277344
450.251801 52926.984375
450.260864 64728.5
450.269928 64195.917969
450.278992 31604.783203
450.288055 16778.650391
450.297089 5590.699219
450.73233 251.727341
450.741394 1553.653442
450.750458 3722.700684
450.759552 6547.161621
450.768616 8959.269531
450.777679 5847.674316
450.786774 2476.741211
450.795837 676.297668
451.713867 285.459717
451.722961 4260.400879
451.732086 18141.425781
451.74118 33514.914062
451.750275 40897.796875
451.759399 34078.613281
451.768494 19769.068359
451.777588 6996.727539
451.786713 575.271179
452.187622 144.975479
452.196716 7989.419434
452.205841 45288.808594
452.214966 109635.554688
452.224091 179312.671875
452.233215 203185.921875
452.24231 143860.015625
452.251434 80277.3125
452.260559 29410.039062
452.269684 4184.475098
452.278809 621.627014
452.662109 667.612549
452.671234 3948.148193
452.680359 15462.176758
452.689484 71986.0
452.698639 262822.5625
452.707764 684560.0
452.716888 1127343.25
452.726013 1375235.875
452.735168 1053748.625
452.744293 595997.375
452.753418 198711.640625
452.762573 46619.25
452.771698 13847.924805
452.780823 7863.577148
453.17392 326.348053
453.183075 4147.202148
453.1922 25135.976562
453.201355 98302.054688
453.21051 230079.1875
453.219666 353988.5
453.228821 387579.1875
453.237946 271953.125
453.247101 140161.078125
453.256256 39102.128906
453.265411 7403.043457
453.274567 527.255798
453.69577 1922.960327
453.704926 11679.754883
453.714111 28348.449219
453.723267 101758.46875
453.732422 274849.375
453.741577 473192.65625
453.750763 607191.125
453.759918 493629.28125
453.769073 284121.375
453.778259 101908.796875
453.787415 20467.357422
453.79657 3626.303955
454.209351 439.456635
454.218536 11253.577148
454.227692 39680.652344
454.236877 77811.960938
454.246063 115426.25
454.255249 116681.828125
454.264435 77624.40625
454.273621 38386.742188
454.282776 8690.233398
454.291962 279.009888
454.7146 265.305328
454.723785 2300.41626
454.733002 8718.036133
454.742188 16615.380859
454.751373 20972.025391
454.76059 15080.807617
454.769775 6756.793945
454.778961 1189.241943
455.229919 573.630615
455.239105 2607.75293
455.248322 3689.752441
455.257538 4007.377686
455.266754 3151.137939
455.27597 1504.685059
457.235016 352.915039
457.244293 1714.550781
457.253571 2815.302734
457.262848 3097.4021
457.272095 2413.401367
457.281372 1196.097778
458.237885 273.945709
458.247192 1518.473389
458.2565 3182.582275
458.265808 4218.561523
458.275116 3890.963867
458.284424 2541.880127
458.293701 1028.770142
458.712616 118.018951
458.721954 2456.309814
458.731262 12558.265625
458.74057 25774.378906
458.749878 36021.734375
458.759216 36428.011719
458.768524 27433.115234
458.777832 15868.558594
458.78717 5700.208496
458.796478 810.618164
459.24408 365.794983
459.253418 1749.753296
459.262756 2854.824219
459.272064 3095.643799
459.281403 2360.934082
459.290741 1154.433228
459.682983 219.765884
459.692322 4724.754395
459.701691 28649.8125
459.711029 93307.484375
459.720367 173903.203125
459.729706 231511.515625
459.739075 211467.78125
459.748413 134870.5625
459.757751 62448.195312
459.76712 14707.685547
459.776459 4683.546875
460.197418 256.458801
460.206757 3232.006348
460.216125 13821.306641
460.225494 24831.679688
460.234863 32320.970703
460.244202 28766.785156
460.253571 17053.011719
460.262939 6344.554199
460.272308 813.222839
463.217041 408.521729
463.226501 3592.028809
463.235931 18603.558594
463.245392 42587.878906
463.254852 65851.0625
463.264313 70334.578125
463.273773 48720.753906
463.283203 22207.996094
463.292664 7732.982422
463.302124 706.098755
463.699524 706.71228
463.708984 7204.037109
463.718445 24171.839844
463.727936 78198.421875
463.737396 186003.171875
463.746857 291072.5
463.756348 328518.21875
463.765808 236519.4375
463.775269 126528.71875
463.78476 38320.199219
463.79422 5101.365234
463.80368 1107.525146
464.211212 31.021921
464.220703 1863.291626
464.230194 19471.621094
464.239655 52704.882812
464.249146 92452.898438
464.258636 127221.007812
464.268127 124860.703125
464.277618 84445.484375
464.287109 36718.820312
464.29657 10365.455078
464.714264 240.017151
464.723755 1404.082886
464.733246 6941.752441
464.742767 32285.669922
464.752258 58718.800781
464.761749 73943.679688
464.771271 63153.804688
464.780762 36483.355469
464.790253 12998.739258
464.799774 1257.298096
465.227631 1336.185669
465.237152 8139.884277
465.246674 13451.945312
465.256165 15712.045898
465.265686 12695.352539
465.275208 6096.101074
465.713257 308.659515
465.722809 2484.700195
465.73233 8913.34082
465.741852 18617.583984
465.751373 26823.697266
465.760925 23745.777344
465.770447 13361.736328
465.779968 4971.050293
467.6922 247.582626
467.701782 1903.835693
467.711365 12499.59082
467.720978 59171.1875
467.73056 153909.5625
467.740143 256023.6875
467.749756 313437.1875
467.759338 242717.40625
467.768921 135640.15625
467.778534 44462.324219
467.788116 10346.549805
467.797699 327.943176
468.21051 961.191528
468.220123 6466.481445
468.229736 16668.275391
468.239349 28806.443359
468.248932 33547.703125
468.258545 26178.578125
468.268158 15976.37207
468.277771 6269.790039
471.222168 876.429565
471.231873 5295.310059
471.241577 9834.494141
471.251282 11938.993164
471.260986 9676.6875
471.270691 4619.217773
472.213074 917.864929
472.222809 10569.936523
472.232513 43077.34375
472.242249 127430.039062
472.251984 262113.515625
472.261719 388488.0625
472.271454 395868.84375
472.281189 262787.71875
472.290924 128849.765625
472.300659 31806.644531
472.310394 3229.860107
472.320099 581.106506
472.709686 75.690605
472.719421 3839.523682
472.729187 28681.011719
472.738922 91908.945312
472.748657 187923.828125
472.758423 264552.15625
472.768158 252063.234375
472.777893 160457.25
472.787659 74085.5
472.797394 19375.884766
472.807159 2030.480103
473.226593 662.714905
473.236359 9331.089844
473.246124 38329.855469
473.25589 87244.710938
473.265656 137455.734375
473.275421 155220.421875
473.285187 113726.539062
473.294952 61499.445312
473.304688 18590.775391
473.314453 3162.504639
474.223816 367.602295
474.233612 1727.518311
474.243408 3114.335938
474.253204 3990.878174
474.263 3702.354248
474.272797 2474.587402
474.282593 1039.766968
477.204803 159.986771
477.214691 4496.709961
477.224579 28908.644531
477.234467 89849.789062
477.244354 198652.625
477.254242 289429.34375
477.26413 285871.53125
477.274017 186646.734375
477.283905 90531.289062
477.293793 23734.623047
477.30368 4607.272949
477.313568 13.256913
477.70932 14.800908
477.719238 4918.433105
477.729126 27499.728516
477.739014 62254.714844
477.748932 93385.945312
477.75882 103274.867188
477.768738 74192.71875
477.778625 35174.742188
477.788544 8285.398438
477.798431 555.143921
478.21463 528.621094
478.224548 2602.482666
478.234467 5231.606445
478.244385 6946.495605
478.254303 6588.341309
478.264221 4483.04541
478.274139 1884.377075
480.693298 128.094482
480.703308 3057.722168
480.713287 14546.863281
480.723297 26025.541016
480.733276 35042.382812
480.743286 34701.976562
480.753265 23667.140625
480.763275 11200.954102
480.773254 127.9627
481.233398 771.593323
481.243408 9258.756836
481.253418 34016.601562
481.263428 60280.984375
481.273438 78873.28125
481.283447 59645.800781
481.293457 30819.853516
481.303467 7285.625
481.313477 1447.963013
486.186218 1979.752319
486.196381 11042.481445
486.206543 19011.642578
486.216705 38464.078125
486.226898 133262.8125
486.237061 438983.15625
486.247223 998942.375
486.257385 1535989.625
486.267548 1689143.125
486.27771 1195272.875
486.287872 628106.3125
486.298065 190730.78125
486.308228 49986.949219
486.31839 14266.487305
486.328552 6628.95752
486.705048 181.353058
486.71524 6944.975586
486.725403 49369.625
486.735596 177743.21875
486.745789 412797.25
486.755951 641156.25
486.766144 725109.375
486.776337 536162.875
486.786499 294021.75
486.796692 97720.0625
486.806885 19694.304688
486.817047 778.917053
487.214508 328.781158
487.224701 3000.426025
487.234894 13388.22168
487.245117 36282.761719
487.25531 54112.023438
487.265503 56535.726562
487.275696 43801.832031
487.285889 24385.279297
487.296112 6826.859375
487.306305 299.340363
487.704346 235.570175
487.714569 1275.666504
487.724762 3036.122803
487.734985 4669.700195
487.745209 4951.260254
487.755402 3664.149414
487.765625 1601.079468
488.215363 2149.97168
488.225616 11266.889648
488.23584 21825.484375
488.246063 29531.609375
488.256287 29666.484375
488.26651 23174.388672
488.276764 13420.039062
488.286987 4727.266113
489.188538 1828.805298
489.198822 8977.207031
489.209076 15829.133789
489.21933 19552.105469
489.229584 17439.083984
489.239838 11224.59082
489.250122 4485.883789
491.226227 142.553574
491.236542 1303.206909
491.246887 3441.639404
491.257202 4607.897461
491.267517 4682.759277
491.277832 3338.381104
491.288177 1240.630371
493.214325 258.02298
493.224731 3608.726318
493.235107 15281.554688
493.245483 31497.742188
493.25589 45345.230469
493.266266 34408.570312
493.276672 17561.322266
493.287048 6707.351562
493.297424 593.996765
494.233765 664.681091
494.244171 2478.108398
494.254608 3433.135498
494.265015 3207.233154
494.275421 1918.94104
494.285858 578.351746
495.183197 208.856857
495.193634 2277.711426
495.204102 13977.567383
495.214539 43506.210938
495.225006 108567.445312
495.235443 396344.15625
495.24588 1089693.25
495.256348 2018939.125
495.266785 2740241.75
495.277252 2489568.5
495.287689 1536197.125
495.298157 700233.8125
495.308594 198125.859375
495.319061 61290.105469
495.329498 30209.1875
495.339966 13000.629883
495.350403 1338.255981
495.695557 259.575867
495.706024 1364.961304
495.716492 5784.877441
495.726959 29071.837891
495.737427 112367.960938
495.747894 303894.6875
495.758362 550676.3125
495.768829 731731.375
495.779297 643299.375
495.789764 386962.46875
495.800232 167564.484375
495.810699 43000.175781
495.821167 6381.152344
495.831635 3526.21582
495.842102 3056.54541
495.85257 2172.573486
500.194366 391.374908
500.204956 2552.219971
500.215576 14996.157227
500.226166 77186.515625
500.236786 228766.078125
500.247406 457149.25
500.257996 661935.5
500.268616 656662.625
500.279236 428707.03125
500.289825 206918.96875
500.300446 51661.464844
500.311066 9148.655273
500.321655 3499.094971
500.332275 1383.679932
500.703888 239.744308
500.714508 4137.59375
500.725159 28316.191406
500.735779 92969.21875
500.746399 178711.734375
500.757019 246461.03125
500.767639 235015.109375
500.778259 154539.09375
500.78891 74933.210938
500.79953 20064.357422
500.81015 1932.13916
501.214233 574.308838
501.224854 4931.693848
501.235504 15456.076172
501.246155 23649.148438
501.256775 24837.126953
501.267426 17382.404297
501.278076 7737.696777
501.288696 802.16864
501.714661 279.321106
501.725311 1408.31189
501.735992 3806.556641
501.746643 7415.909668
501.757294 9317.164062
501.767944 6993.588867
501.778595 2964.777832
501.789276 873.548828
508.724213 1776.625122
508.735077 10464.628906
508.745972 22460.652344
508.756836 33201.300781
508.767731 35068.84375
508.778595 26766.261719
508.78949 14218.378906
508.800385 4395.077148
508.963654 1936.998535
508.974548 4296.143066
508.985413 1012.968689
509.137878 23154.103516
509.148773 47934.824219
509.170563 185.38269
509.181458 22206.650391
509.192352 221785.578125
509.203247 689933.5625
509.214142 1210419.875
509.225037 3554131.75
509.235931 11656415.0
509.246826 27833840.0
509.257751 44517692.0
509.268646 52159848.0
509.279541 39899532.0
509.290436 22176300.0
509.301331 7953360.0
509.312225 2234522.0
509.32312 874963.0
509.334015 612090.1875
509.34494 182692.046875
509.355835 45061.722656
509.672089 105.142746
509.682983 5807.85791
509.693909 57688.671875
509.704803 179385.3125
509.715729 333733.21875
509.726624 1072624.375
509.737549 3530913.75
509.748444 8304491.5
509.759369 13104422.0
509.770294 15117148.0
509.781189 11402590.0
509.792114 6276786.0
509.80304 2196823.25
509.813934 613593.5
509.82486 229146.40625
509.835785 145676.84375
509.84668 26348.6875
509.857605 834.485046
516.204041 567.133362
516.215149 2151.166748
516.226257 3509.345947
516.237366 4119.516602
516.248474 3694.979248
516.259644 2585.256104
516.270752 1121.994141
518.211609 323.873993
518.222778 1502.824463
518.233948 3158.60791
518.245117 4365.630859
518.256348 4352.642578
518.267517 3265.835938
518.278687 1472.346924
535.230347 605.384216
535.242065 2190.516113
535.253845 3919.499756
535.265564 5446.821289
535.277283 5807.791504
535.289062 4574.57959
535.300781 2450.787598
535.312561 697.027466
542.237427 393.189758
542.24939 3682.101074
542.261414 12252.046875
542.273376 21892.982422
542.285339 27775.171875
542.297302 25205.949219
542.309265 15861.381836
542.321289 6250.958496
542.333252 794.511292
552.941162 1169.72583
552.953491 4848.902832
552.96582 7989.640137
552.978149 9104.089844
552.990479 7662.988281
553.002808 4407.530273
553.015137 1172.081909
553.027466 3463.282959
553.039795 9648.858398
553.052124 12660.614258
553.064453 12498.541016
553.076782 10169.114258
553.089111 6155.759766
553.10144 2077.766113
553.11377 852.652283
562.203857 847.987427
562.216492 2652.344238
562.229126 4046.250244
562.24176 4388.540527
562.254395 3314.432617
562.267029 1335.730225
570.226562 1731.425293
570.239441 9074.773438
570.25238 26819.234375
570.265259 52910.191406
570.278198 67563.101562
570.291077 56248.710938
570.304016 30905.111328
570.316956 10517.175781
570.329834 1092.78186
586.216675 1012.198181
586.230103 2944.503906
586.243591 4145.92627
586.257019 3919.681885
586.270508 2489.223633
586.283936 808.58667
598.241821 650.567505
598.255676 2106.611328
598.269531 3556.248779
598.283447 4258.508789
598.297302 3870.104736
598.311157 2762.338135
598.325073 1044.956543
604.266846 3112.273438
604.280945 8277.094727
604.294983 10706.165039
604.309082 10594.147461
604.323181 7462.961914
604.33728 2741.961182
620.238708 543.66687
620.253357 4306.594238
620.268005 12612.607422
620.282654 21211.419922
620.297302 23427.662109
620.311951 16961.708984
620.326599 6745.936523
620.341248 794.520203
632.259827 2528.266357
632.274902 7730.334961
632.289978 11649.990234
632.305054 11754.889648
632.320129 8268.741211
632.335205 2944.15918
637.248718 80.034988
637.263977 1216.467041
637.279236 10328.191406
637.294495 27979.236328
637.309753 45506.0
637.325012 56605.550781
637.340271 45437.03125
637.35553 23061.449219
637.370789 6912.260742
637.386047 255.287231
638.287231 1351.237183
638.30249 3137.982666
638.31781 3739.373047
638.333069 3047.73877
638.348389 1644.812012
638.363647 425.543549
638.409546 1234.067871
638.424866 4838.599121
638.440125 8734.603516
638.455444 14908.902344
638.470764 23201.412109
638.486023 26290.308594
638.501343 26867.341797
638.516602 26844.464844
638.531921 21452.486328
638.547241 16726.019531
638.562561 13259.753906
638.57782 5880.04541
638.59314 726.607361
649.252258 2962.789307
649.267944 14501.12793
649.28363 45407.574219
649.299316 88010.71875
649.315002 116619.4375
649.330688 109326.5625
649.346375 71177.375
649.362061 30283.904297
649.377747 6376.842285
649.393433 236.639191
666.269897 192.187927
666.286255 4957.366211
666.302551 30243.625
666.318848 73042.28125
666.335144 114232.328125
666.35144 128457.914062
666.367798 97099.726562
666.384094 48938.820312
666.400391 15045.086914
666.416687 3032.766602
667.298462 1130.18103
667.314819 2958.851318
667.331177 4591.240234
667.347473 5238.089844
667.363831 4416.23291
667.380188 2723.852295
667.396545 773.801514
669.116455 3227.200439
669.132874 7451.01709
669.149292 8815.056641
669.16571 8184.354492
669.182068 5777.638184
669.198486 2081.670166
672.295166 4950.382324
672.311707 12708.421875
672.328247 17271.064453
672.344788 16163.003906
672.361328 10172.101562
672.377808 3018.758789
677.281372 1239.178955
677.298096 2933.279297
677.314819 3884.26416
677.331543 3544.899414
677.348267 2144.639893
677.36499 565.153259
700.156921 3582.438232
700.1745 11581.540039
700.192017 19709.738281
700.209595 22888.939453
700.227173 18884.818359
700.244751 10915.244141
700.262329 3120.251221
700.279907 4501.707031
700.297485 12234.867188
700.315063 18006.335938
700.332642 18644.402344
700.350159 13584.203125
700.367737 4557.73877
703.329712 1298.183594
703.347351 2439.652588
703.365051 2851.085693
703.382751 2662.237549
703.400452 1829.665283
703.418152 499.690094
709.310181 1341.530762
709.328125 2924.118652
709.346008 4001.878662
709.363953 4221.177734
709.381836 3327.631348
709.39978 1830.819824
709.417664 429.70697
714.280029 877.239258
714.298096 6150.706543
714.316223 14941.24707
714.33429 23170.0625
714.352417 24605.681641
714.370544 17763.367188
714.388611 6982.697754
714.406738 1748.588257
714.424805 389.045349
715.294739 6612.148926
715.312866 14364.625977
715.330994 18075.662109
715.349182 16820.175781
715.36731 11283.931641
715.385437 3216.143799
716.293457 1042.633057
716.311646 2393.423584
716.329834 3152.647705
716.348022 3041.376465
716.366211 2218.842041
716.384338 609.024719
719.320496 1537.021973
719.338806 3294.527344
719.357117 4184.502441
719.375427 3734.638916
719.393677 2215.373779
719.411987 523.661072
720.327698 423.406494
720.346008 911.697632
720.36438 1153.014038
720.38269 1100.58313
720.401001 773.951599
720.419373 227.668198
722.329956 1148.549316
722.348389 2932.062256
722.366821 4424.45752
722.385193 4655.251465
722.403625 3424.093506
722.422058 1675.891846
722.44043 350.608063
726.341125 1702.110596
726.35968 3568.31958
726.378235 4424.007324
726.39679 3927.440186
726.415405 2506.166992
726.43396 619.59668
731.303772 1093.211426
731.32251 7974.347168
731.341248 18340.697266
731.360046 27406.501953
731.378784 27781.710938
731.397522 19334.318359
731.416321 7174.093262
731.435059 1544.105713
731.453796 344.836578
732.279846 437.562866
732.298645 2649.707031
732.317444 13739.605469
732.336243 27982.583984
732.355042 36184.09375
732.373779 31451.126953
732.392578 19131.609375
732.411377 6683.894531
736.298523 366.087677
736.317444 5281.48877
736.336365 29628.007812
736.355347 61708.667969
736.374268 88442.617188
736.39325 89970.882812
736.41217 65874.3125
736.431152 31968.910156
736.450073 9780.233398
736.468994 1865.9104
737.360535 1670.219849
737.379517 3278.51123
737.398499 3782.735107
737.41748 3031.847412
737.436462 1581.97229
737.455444 329.960754
742.264099 767.106567
742.283264 8277.040039
742.30249 19676.958984
742.321655 29396.080078
742.34082 31415.855469
742.359985 24294.089844
742.379211 12703.18457
742.398376 3424.690186
742.417542 236.59584
743.262207 728.856995
743.281433 2247.785156
743.300659 3801.850342
743.319885 4346.159668
743.339111 3518.343018
743.358337 1929.251709
743.377502 450.452698
746.32666 416.307526
746.346008 849.052246
746.365356 1031.212769
746.384705 902.687134
746.403992 533.62561
746.42334 129.716431
748.302551 663.665466
748.32196 9511.399414
748.34137 33282.875
748.360779 63850.070312
748.380188 87611.28125
748.399597 79184.226562
748.419006 50014.25
748.438416 19481.695312
748.457825 4083.353516
748.477234 390.579071
749.312866 1300.412354
749.332336 5218.911621
749.351746 10164.25293
749.371216 14877.857422
749.390686 15172.047852
749.410095 10818.404297
749.429565 5307.231934
749.449036 1690.483521
749.468506 243.005295
754.316711 4487.071289
754.336365 10217.516602
754.356018 14033.657227
754.375671 14472.568359
754.395325 11286.429688
754.414917 6279.913086
754.43457 1485.269775
759.291504 4190.92334
759.31134 14360.007812
759.331177 34478.09375
759.351013 55603.835938
759.37085 59523.828125
759.390686 39130.484375
759.410522 18798.544922
759.430359 6087.626465
759.450256 160.475418
760.264526 2281.238525
760.284424 18426.941406
760.30426 66003.234375
760.324158 135660.703125
760.344055 195165.09375
760.363953 188689.109375
760.383789 125286.09375
760.403687 56385.476562
760.423584 12703.794922
760.443481 980.68866
761.299194 1286.336914
761.319092 9247.073242
761.33905 17675.111328
761.358948 21275.646484
761.378845 18220.210938
761.398804 10600.12793
761.418701 2918.082275
765.31842 1056.501099
765.338501 7567.09375
765.358582 41160.640625
765.378662 96757.453125
765.398743 154977.109375
765.418823 171062.9375
765.438904 129349.132812
765.458984 68892.3125
765.479065 23251.140625
765.499146 2828.835938
765.519226 83.706085
766.363403 1426.178101
766.383545 3912.488037
766.403687 6334.339355
766.423767 6999.838867
766.443909 5336.102539
766.46405 2623.445068
766.484131 483.180634
770.281006 1081.131836
770.30127 2448.998047
770.321533 3278.832031
770.341797 3142.181885
770.362061 2210.176758
770.382385 494.232666
771.315857 535.131226
771.336182 2756.250488
771.356506 13177.999023
771.376831 27122.101562
771.397095 37077.242188
771.417419 34973.164062
771.437744 23534.333984
771.458069 9804.856445
771.478394 1731.670898
774.228699 3864.750488
774.249084 8769.516602
774.269531 11820.105469
774.289978 11374.714844
774.310425 7665.541016
774.330811 1907.854614
775.353394 478.047272
775.37384 965.768738
775.394348 1138.670288
775.414795 947.695984
775.435303 531.070129
775.45575 116.986282
776.316467 5564.267578
776.336975 14884.227539
776.357483 25861.044922
776.377991 32462.980469
776.398499 29493.082031
776.419006 18706.580078
776.439514 5834.007812
776.460022 376.547882
777.260742 9953.208008
777.281311 26067.837891
777.30188 79790.804688
777.322388 266811.75
777.342957 586755.125
777.363525 947645.5
777.384033 1051140.0
777.404602 789496.875
777.425171 418511.46875
777.44574 146207.25
777.466248 30219.908203
777.486816 6856.59375
777.507385 2116.980713
777.527954 351.157318
778.289124 1349.879028
778.309753 16450.458984
778.330322 58886.132812
778.350891 117934.148438
778.371521 183039.1875
778.39209 178688.421875
778.412659 115420.6875
778.433289 51106.203125
778.453857 12209.585938
778.474487 743.850586
785.357422 1527.274048
785.378296 3564.634033
785.39917 7832.013672
785.420044 9703.121094
785.440918 7477.243164
785.461792 3902.769775
785.482666 1598.102783
785.50354 276.003021
787.301819 1539.844482
787.322754 5213.120117
787.34375 9679.605469
787.364685 11804.936523
787.38562 9249.092773
787.406555 3989.424805
787.427551 438.384979
788.266235 4648.0625
788.287231 29745.291016
788.308228 72449.15625
788.329224 122720.304688
788.35022 150172.84375
788.371216 126006.90625
788.392212 73587.921875
788.413147 25299.146484
788.434143 2248.513672
788.455139 140.158798
789.295532 1307.57666
789.316589 6323.760742
789.337585 16294.039062
789.358643 24442.265625
789.379639 25421.814453
789.400696 18378.386719
789.421692 10755.25
789.442749 2433.748535
796.322815 1327.670776
796.344116 3336.136719
796.365417 7651.039551
796.386719 10607.144531
796.408081 9328.019531
796.429382 4954.592773
796.450684 2139.942871
796.471985 375.071594
797.346558 5650.334961
797.36792 10742.753906
797.389282 13007.490234
797.410645 12380.022461
797.431946 9092.041016
797.453308 2223.427002
797.581482 7605.422363
797.602783 16961.392578
797.624146 21260.869141
797.645508 18061.740234
797.66687 10260.702148
797.688232 3357.732178
797.901917 3051.520752
797.923279 7390.279297
797.944641 10311.40625
797.966064 10116.287109
797.987427 7017.217773
798.008789 1630.023071
804.308838 5175.849609
804.330444 16881.857422
804.352051 36933.765625
804.373718 60395.582031
804.395325 63917.613281
804.416992 44546.195312
804.438599 20909.957031
804.460266 4997.067383
804.481873 335.055176
805.218018 803.848267
805.239685 3139.394775
805.261353 10161.450195
805.28302 37218.507812
805.304688 140870.453125
805.326355 396038.78125
805.348022 728227.25
805.36969 958445.8125
805.391357 831833.75
805.413025 517597.875
805.434692 213114.921875
805.45636 53305.359375
805.478088 11687.416016
805.499756 5011.20752
805.521423 2331.43457
805.543091 625.310486
806.280701 2689.279297
806.302368 18168.722656
806.324097 64111.929688
806.345825 127330.570312
806.367493 180506.4375
806.389221 175762.421875
806.41095 120149.664062
806.432678 54339.101562
806.454346 12977.811523
806.476074 463.516998
813.316528 76.750572
813.338562 1362.678833
813.360535 11343.882812
813.382507 23982.330078
813.404541 33846.308594
813.426514 31679.828125
813.448547 21010.619141
813.47052 7433.338379
813.492493 1487.466187
813.514526 228.64389
814.329163 729.249207
814.351196 9635.765625
814.37323 20047.177734
814.395264 28094.861328
814.417297 28450.523438
814.439392 21190.449219
814.461426 10206.806641
814.483459 1314.25769
821.292297 30.612329
821.314636 665.237732
821.336975 10394.578125
821.359253 25766.666016
821.381592 40489.238281
821.403931 45019.695312
821.42627 34574.578125
821.448547 19390.0
821.470886 5219.81543
821.493225 507.317291
822.364624 366.96106
822.386963 879.567322
822.409363 1238.177612
822.431702 1201.290405
822.454102 796.458374
822.47644 166.664444
824.335938 1933.514893
824.358398 3481.830078
824.380859 4194.522461
824.403259 3696.479004
824.42572 2232.922363
824.448181 379.427643
830.360718 903.608398
830.383423 7802.247559
830.406128 15606.304688
830.428833 21778.951172
830.451477 21344.960938
830.474182 12789.939453
830.496887 3772.865967
831.314453 6.438478
831.337219 591.393921
831.359924 9685.725586
831.382629 29639.898438
831.405396 50829.28125
831.428101 59885.171875
831.450867 47563.414062
831.473572 27102.230469
831.496338 6613.209961
831.519043 494.65567
832.383667 390.115387
832.406433 887.823853
832.42926 1289.989624
832.452026 1362.275879
832.474792 1038.129639
832.497559 540.849365
832.520325 98.548599
834.345459 337.885529
834.368347 895.477295
834.391174 1426.134277
834.414062 1629.046143
834.43689 1391.209961
834.459778 873.288574
834.482605 172.60556
841.33606 5748.850586
841.359192 18535.607422
841.382324 37939.339844
841.405457 53764.046875
841.428589 47627.769531
841.451782 27596.912109
841.474915 11651.493164
841.498047 1874.480591
842.355103 615.029114
842.378296 1204.026245
842.401489 1413.689453
842.424683 1157.306885
842.447876 657.93634
842.471008 120.777435
843.422485 7436.718262
843.445679 12764.71582
843.468933 14290.823242
843.492188 11851.84668
843.515381 6782.657715
843.538635 1261.0177
845.376831 1345.160156
845.400146 3126.096436
845.423462 4726.691895
845.446777 5142.166016
845.470093 4025.609863
845.493347 2221.830078
845.516663 307.251343
848.367981 5769.157227
848.391418 18338.308594
848.414856 35146.203125
848.438293 49845.472656
848.461731 48411.941406
848.485168 33259.480469
848.508606 16237.142578
848.532043 3642.817139
848.555481 259.080902
858.342651 4210.905762
858.366516 15062.69043
858.390381 48422.234375
858.414185 85715.953125
858.438049 98385.8125
858.461914 73423.15625
858.485779 36868.398438
858.509583 10698.986328
858.533447 1782.505737
859.321167 9629.642578
859.345032 35639.621094
859.368896 97566.429688
859.392822 176388.109375
859.416687 225303.734375
859.440552 191482.265625
859.464478 117129.148438
859.488342 47933.859375
859.512268 10845.018555
859.536133 666.945435
860.349121 1748.118286
860.373047 5887.652832
860.396973 10386.700195
860.420898 14131.333008
860.444885 13272.163086
860.468811 8888.31543
860.492737 4007.654297
860.516663 543.987183
861.402954 1451.708984
861.426941 3859.765381
861.450928 5841.299316
861.474854 6251.195312
861.49884 4946.76123
861.522827 2820.652832
861.546814 475.135529
869.34436 1425.947876
869.368652 3063.90332
869.392944 4292.319824
869.417297 4435.917969
869.441589 3361.77417
869.465881 1731.774902
869.490173 226.391068
872.390442 1396.091187
872.414856 2621.355469
872.43927 3499.908936
872.463745 3532.115723
872.488159 2605.817383
872.512573 369.190155
873.36853 1640.552124
873.393005 3585.39624
873.41748 5483.494629
873.441956 8757.972656
873.466431 5350.603516
873.490906 2670.296143
873.515381 498.504211
874.421875 7046.211914
874.44635 13039.347656
874.470886 14585.401367
874.495422 11375.904297
874.519958 5867.519531
874.544434 1398.171631
876.239014 18.214113
876.263611 2219.214844
876.288208 13724.189453
876.312805 27454.222656
876.337402 64709.039062
876.362 202561.234375
876.386597 638256.0625
876.411194 1257795.125
876.435791 1850437.875
876.460388 1803881.875
876.484985 1231274.5
876.509583 579453.3125
876.534241 177684.1875
876.558838 40466.652344
876.583435 11984.40918
876.608032 6102.327148
876.632629 5317.930176
876.657288 1687.48999
876.681885 247.875885
877.322144 61.100353
877.346802 8494.717773
877.37146 56239.78125
877.396057 174487.328125
877.420715 323095.03125
877.445374 430664.0
877.470032 365537.875
877.49469 226052.984375
877.519287 88583.65625
877.543945 22944.976562
877.568604 2590.900879
878.407349 957.218201
878.432007 3849.142578
878.456726 8613.744141
878.481384 13522.092773
878.506104 14287.960938
878.530762 10153.081055
878.555481 5365.607422
878.580139 2094.675049
878.604858 384.234467
886.335327 1326.642578
886.360352 13287.553711
886.385376 37266.066406
886.4104 61340.792969
886.435425 64554.136719
886.460449 44170.519531
886.485474 21523.814453
886.510498 4484.785645
886.535522 267.907227
887.311951 172.991714
887.336975 8742.661133
887.362061 44342.429688
887.387146 85625.21875
887.41217 111929.648438
887.437256 95749.921875
887.462341 58740.546875
887.487427 19247.644531
887.512451 2861.250488
887.537537 39.322441
889.420898 2362.906006
889.446045 3694.604248
889.471191 3851.494873
889.496338 3071.654297
889.521484 1897.113892
889.546692 352.098511
890.327026 1394.90564
890.352234 8366.583008
890.377441 34353.609375
890.402588 114341.820312
890.427795 229292.3125
890.453003 346252.21875
890.47821 332399.25
890.503418 220260.953125
890.528625 101959.65625
890.553772 31204.074219
890.578979 3897.739746
891.360718 977.04657
891.385986 8308.851562
891.411194 22232.53125
891.436462 37867.753906
891.46167 44651.648438
891.486938 35420.917969
891.512146 19078.716797
891.537415 6199.746582
891.562622 481.331207
901.360962 5845.891113
901.386597 14576.328125
901.412292 22693.5625
901.437927 25082.640625
901.463623 20400.734375
901.489258 12289.546875
901.514954 1837.841919
902.362488 1271.745728
902.388245 2862.700928
902.41394 4162.383301
902.439636 4269.433105
902.465332 3030.917969
902.491028 1397.250244
902.516724 199.74234
904.215942 998.711548
904.241699 3014.623779
904.267517 4412.116211
904.293274 27119.671875
904.319092 48565.328125
904.344849 142255.25
904.370667 480981.0
904.396423 1043423.125
904.422241 1683615.125
904.447998 1844792.75
904.473816 1348779.0
904.499573 722503.3125
904.525391 251794.34375
904.551208 62109.847656
904.576965 22183.121094
904.602783 10349.192383
904.628601 3086.19751
904.654358 527.054565
905.299744 1519.396362
905.325562 9650.273438
905.351379 36432.546875
905.377197 121842.578125
905.403076 260656.125
905.428894 412143.6875
905.454712 434443.46875
905.48053 308864.71875
905.506409 155459.03125
905.532227 49649.898438
905.558044 5858.541992
905.583923 54.623898
906.411377 3470.028076
906.437256 13301.089844
906.463135 24470.162109
906.489014 29929.455078
906.514893 25697.931641
906.540771 15355.918945
906.56665 5710.898438
906.592529 711.177185
912.183167 6237.444824
912.20929 17111.726562
912.235413 25752.558594
912.261536 25790.15625
912.287659 17487.962891
912.313782 6413.333008
914.355225 421.392212
914.38147 1028.249634
914.407654 1448.922485
914.433899 1377.854004
914.460083 901.277527
914.486328 192.306244
916.403564 1465.768921
916.429871 11382.769531
916.456177 22555.34375
916.482483 27389.306641
916.508789 22366.675781
916.535095 12372.181641
916.561401 1773.613037
918.247681 1680.6073
918.274048 12891.482422
918.300415 13646.797852
918.326782 16337.298828
918.35321 37637.636719
918.379578 127998.820312
918.406006 318348.78125
918.432373 553454.25
918.45874 681799.0
918.485168 554733.5
918.511536 322755.75
918.537964 122349.320312
918.564331 22374.601562
918.590759 3308.931152
918.617126 207.298431
919.356812 3075.791504
919.38324 24951.542969
919.409668 64815.320312
919.436096 109480.234375
919.462524 125764.71875
919.488953 93147.828125
919.515381 51379.984375
919.541809 15895.425781
919.568298 2253.288574
919.594727 26.320908
934.366394 4031.170898
934.393433 24566.900391
934.420532 88274.140625
934.447632 188517.140625
934.474731 300170.1875
934.501831 308274.125
934.52887 211968.40625
934.555969 102844.921875
934.583069 30236.240234
934.610168 3569.59668
934.637268 86.924774
935.396362 1472.655151
935.423462 9461.171875
935.450623 22895.3125
935.477722 36620.222656
935.504883 38566.984375
935.531982 27660.591797
935.559143 13338.40332
935.586243 1616.337524
935.613403 12.520004
END IONS
