BEGIN IONS
PEPMASS=821.403
CHARGE=1
MSLEVEL=2
SOURCE_INSTRUMENT=LC-ESI-qTof
FILENAME=f.philipwi/GNPS_Marine_Invertebrate_Secondary_Metabolites_UHManoa/GNPS_SpongeSpectraAlreadyConvertedTo_mzXML/PW-116_P2-B-7_Phakellistatin_13_798amu_Scan682_697_01_15583.mzXML;
SEQ=*..*
IONMODE=Positive
ORGANISM=GNPS-LIBRARY
NAME=Phakellistatin 13 M+Na
PI=Philip Williams
DATACOLLECTOR=Williams
SMILES=C[C@H]([C@H]1C(=O)N[C@H](C(=O)N[C@H](C(=O)N2CCC[C@H]2C(=O)N[C@H](C(=O)NCC(=O)N3CCC[C@H]3C(=O)N1)CC4=CC=CC=C4)CC5=CNC6=CC=CC=C65)CC(C)C)O
INCHI=
INCHIAUX=
PUBMED=
SUBMITUSER=philipwi
TAGS=
LIBRARYQUALITY=3
SPECTRUMID=CCMSLIB00000424967
SCANS=685
124.068062 136.0
153.026413 92.0
160.43129 64.0
170.066406 108.0
171.115417 68.0
176.078781 84.0
176.552765 112.0
179.273453 184.0
181.258972 52.0
181.576645 28.0
184.110687 80.0
191.421143 24.0
195.187622 144.0
195.954254 32.0
200.802277 44.0
204.058105 112.0
205.097458 164.0
205.417099 64.0
210.121307 80.0
211.046326 56.0
211.129669 68.0
217.117798 52.0
217.145981 80.0
221.602158 124.0
222.000885 32.0
223.123016 64.0
224.152527 88.0
227.601349 64.0
227.995789 32.0
228.140198 88.0
229.036469 64.0
230.321304 52.0
233.592957 140.0
236.034912 76.0
237.093765 132.0
238.125473 220.0
239.119995 224.0
239.159424 76.0
242.076309 264.0
245.13063 220.0
245.639893 60.0
245.669861 32.0
246.139664 104.0
246.559875 64.0
247.601929 80.0
248.113739 160.0
250.156174 52.0
250.347763 32.0
250.610077 76.0
251.094681 108.0
252.105774 104.0
253.08847 100.0
253.129044 108.0
253.149323 80.0
255.120712 68.0
255.15126 92.0
256.068451 84.0
256.139862 316.0
256.160278 136.0
256.180695 60.0
256.374573 20.0
257.140625 116.0
257.580353 64.0
258.061401 60.0
260.586578 108.0
261.606293 160.0
261.864105 20.0
262.16333 84.0
265.08194 108.0
266.422455 148.0
267.078339 88.0
267.119995 92.0
268.162842 64.0
268.496979 32.0
268.622345 44.0
268.695465 36.0
269.06131 32.0
271.996948 48.0
273.112457 148.0
273.165131 88.0
273.186188 92.0
275.085938 100.0
276.122986 100.0
276.610474 112.0
277.639771 92.0
277.692871 28.0
277.947876 32.0
279.150055 108.0
279.192657 96.0
279.640198 176.0
281.12381 88.0
281.626373 104.0
281.808258 48.0
282.343567 24.0
282.632812 84.0
283.608856 124.0
284.092133 108.0
284.124359 288.0
284.210327 92.0
284.618835 144.0
285.436737 32.0
285.856903 28.0
286.87088 40.0
289.077576 80.0
289.673981 48.0
290.129822 436.0
290.64035 292.0
292.109283 52.0
292.392609 40.0
293.199768 144.0
293.931519 44.0
294.128265 100.0
294.161072 132.0
294.204803 108.0
295.134888 212.0
295.156799 84.0
295.529266 164.0
296.011627 52.0
296.088409 84.0
296.121307 60.0
297.131317 116.0
297.636993 120.0
297.823975 16.0
298.121063 96.0
300.547333 36.0
301.76416 40.0
302.063232 84.0
302.151855 292.0
302.174011 28.0
303.149902 92.0
304.160736 84.0
304.2052 40.0
305.139832 160.0
305.964355 32.0
306.098175 36.0
306.120483 116.0
306.644897 96.0
307.1474 84.0
307.326172 32.0
308.086548 60.0
308.131287 124.0
309.643738 76.0
311.126129 72.0
311.632294 132.0
312.127625 144.0
312.183929 112.0
312.612061 144.0
313.15329 28.0
313.220978 76.0
314.124146 60.0
314.15802 32.0
314.180634 96.0
314.203217 44.0
314.972046 44.0
317.931641 48.0
318.136261 104.0
318.352325 44.0
318.443329 52.0
318.659485 176.0
319.137573 144.0
321.122101 112.0
321.624908 140.0
323.009644 76.0
323.135681 32.0
323.628571 96.0
323.88092 52.0
324.144836 56.0
324.190735 100.0
325.017639 44.0
325.615479 36.0
325.649994 108.0
326.133301 132.0
326.640015 140.0
327.147125 176.0
327.643097 80.0
328.127869 104.0
328.174072 124.0
328.254913 52.0
328.439697 32.0
329.156342 96.0
330.140106 112.0
331.635895 284.0
332.158478 88.0
332.495483 28.0
332.623352 124.0
332.646606 1152.0
332.693085 176.0
332.727966 56.0
332.960571 48.0
333.146698 340.0
333.169983 176.0
333.216522 80.0
333.379425 32.0
333.647186 88.0
334.148041 136.0
334.334503 80.0
334.649292 60.0
335.162567 100.0
335.185913 116.0
335.664551 20.0
336.143555 148.0
337.570892 80.0
338.109863 104.0
338.473297 72.0
338.649231 104.0
339.647064 136.0
340.117157 112.0
340.152405 148.0
340.634613 272.0
341.128906 108.0
341.152466 332.0
341.199554 56.0
341.36441 28.0
342.130371 64.0
342.153961 108.0
342.224701 108.0
342.897186 28.0
343.121521 64.0
343.499451 32.0
344.043121 56.0
345.131744 116.0
345.653015 416.0
346.008636 32.0
346.162811 216.0
346.684845 88.0
346.767914 24.0
347.136017 52.0
347.183502 92.0
347.670654 120.0
348.634064 272.0
349.134155 168.0
349.157959 208.0
349.837219 136.0
350.147278 96.0
351.126068 72.0
351.161896 124.0
351.197754 160.0
352.082306 32.0
352.154053 104.0
352.261719 44.0
352.608765 84.0
353.075745 28.0
353.17157 92.0
353.650909 436.0
353.674896 156.0
353.722839 28.0
354.01062 36.0
354.142578 224.0
354.250549 40.0
354.28653 36.0
354.298553 36.0
354.32254 64.0
354.370544 32.0
354.430542 32.0
354.6586 1728.0
354.790649 28.0
354.838684 56.0
355.030823 36.0
355.15094 772.0
355.199005 136.0
355.463348 32.0
355.667694 180.0
355.99234 52.0
356.064514 48.0
356.136688 40.0
356.172791 120.0
356.666199 104.0
357.20813 76.0
357.605804 48.0
358.160522 96.0
358.196716 120.0
359.077972 56.0
359.682159 128.0
360.165924 96.0
361.134369 132.0
361.437256 36.0
361.643311 104.0
361.970673 28.0
362.116241 20.0
362.650146 208.0
362.710846 160.0
362.795837 32.0
363.014435 24.0
363.184479 164.0
363.828613 120.0
363.913727 24.0
364.144806 76.0
365.155121 48.0
365.910736 24.0
366.142456 44.0
366.764801 24.0
367.094482 40.0
367.155548 76.0
367.179962 72.0
368.243408 96.0
370.509888 32.0
373.14032 48.0
374.175354 120.0
374.656403 196.0
375.038971 32.0
375.668823 32.0
375.693542 80.0
376.175568 76.0
376.200287 84.0
376.695007 28.0
377.140533 96.0
377.437683 96.0
378.143921 52.0
379.632874 144.0
380.142273 52.0
380.167114 76.0
381.112305 28.0
381.336334 20.0
382.133423 48.0
382.519806 68.0
382.956268 44.0
383.193329 308.0
383.417969 40.0
383.492859 36.0
383.680145 288.0
384.179749 248.0
384.667175 144.0
384.8172 32.0
385.129883 84.0
385.179932 152.0
386.181427 144.0
386.64505 128.0
387.20929 52.0
388.175751 248.0
388.552612 32.0
389.659149 96.0
389.696899 300.0
390.200409 56.0
390.79245 44.0
391.662415 120.0
392.141937 52.0
392.167175 80.0
392.280823 32.0
392.457581 20.0
392.520721 28.0
392.811249 28.0
393.152435 68.0
393.190369 72.0
393.215637 88.0
393.506409 32.0
394.189545 96.0
394.240173 80.0
394.936615 40.0
394.987274 36.0
395.113983 32.0
395.190002 64.0
395.202667 64.0
395.228027 128.0
395.430817 28.0
395.519562 36.0
396.03949 24.0
396.179047 308.0
396.204407 160.0
396.255188 72.0
396.407471 48.0
396.610565 40.0
396.648651 140.0
396.686737 128.0
396.737518 36.0
396.940674 36.0
396.966095 116.0
397.054993 44.0
397.169312 4824.0
397.25824 44.0
397.39801 44.0
397.614075 36.0
397.677643 1972.0
397.779327 152.0
397.893768 28.0
398.084503 32.0
398.122681 44.0
398.173553 780.0
398.2117 100.0
398.377106 28.0
398.593414 32.0
398.682495 88.0
398.707947 32.0
398.758881 40.0
398.898895 36.0
398.949829 24.0
399.115356 76.0
399.179047 260.0
399.739624 48.0
399.85434 36.0
399.930817 36.0
400.313354 40.0
400.657776 116.0
401.232147 84.0
401.653625 100.0
401.781403 32.0
401.98584 36.0
402.190369 104.0
402.215942 48.0
402.561188 36.0
403.162537 144.0
403.18811 52.0
403.469757 24.0
403.751495 144.0
404.174286 44.0
405.059021 40.0
405.1745 548.0
405.200165 748.0
405.482513 36.0
405.687927 300.0
405.764954 52.0
406.484344 40.0
406.690002 196.0
407.17865 208.0
407.75766 32.0
407.8349 20.0
408.156799 148.0
408.285583 28.0
408.362885 28.0
408.40152 32.0
408.530365 24.0
408.684967 48.0
408.929871 52.0
409.174805 124.0
409.574646 124.0
409.690765 96.0
409.75528 44.0
410.181183 1680.0
410.232849 76.0
410.310303 24.0
410.516937 32.0
410.60733 28.0
410.684845 1040.0
411.175873 232.0
411.214661 88.0
411.240509 100.0
411.486145 28.0
412.171783 108.0
412.340027 32.0
412.741394 52.0
413.168854 72.0
413.194794 92.0
413.220703 28.0
413.285492 24.0
413.816986 28.0
413.868835 64.0
414.128235 60.0
415.32254 32.0
416.219391 52.0
416.596619 28.0
416.752777 32.0
416.80481 60.0
416.843872 32.0
416.869904 108.0
416.895935 24.0
416.921967 72.0
417.000061 64.0
417.026093 136.0
417.052124 84.0
417.091187 76.0
417.182312 28.0
417.234406 144.0
417.2995 24.0
417.325531 32.0
417.351593 60.0
417.377625 36.0
417.45578 24.0
417.481812 28.0
417.507874 52.0
417.546967 36.0
417.59906 64.0
417.664185 80.0
417.690247 28.0
417.87265 80.0
417.924774 24.0
417.950836 32.0
418.042084 48.0
418.068146 92.0
418.237579 52.0
418.407074 64.0
418.511414 32.0
418.537476 52.0
418.576599 44.0
418.654846 72.0
418.694 104.0
418.733124 68.0
418.772247 56.0
418.850525 152.0
418.889679 64.0
418.954895 48.0
418.980988 112.0
419.020142 68.0
419.046234 68.0
419.072327 40.0
419.124542 28.0
419.189789 31116.0
419.255035 212.0
419.307251 240.0
419.346405 68.0
419.398621 124.0
419.424744 56.0
419.476959 248.0
419.542236 88.0
419.568359 32.0
419.594482 68.0
419.633636 40.0
419.685883 14432.0
419.738129 520.0
419.777283 212.0
419.803406 60.0
419.881775 156.0
419.920959 52.0
419.947113 60.0
419.960175 60.0
419.999359 144.0
420.051605 36.0
420.077728 64.0
420.116943 60.0
420.143066 152.0
420.182251 5024.0
420.247589 260.0
420.286804 44.0
420.312927 108.0
420.339081 32.0
420.365204 40.0
420.378296 40.0
420.404419 44.0
420.430573 56.0
420.482849 64.0
420.509003 96.0
420.535126 44.0
420.561279 60.0
420.613586 20.0
420.692017 1156.0
420.757385 40.0
420.796631 32.0
420.835846 104.0
420.875092 20.0
420.901245 28.0
420.914307 28.0
420.966614 56.0
421.005859 44.0
421.058197 116.0
421.175903 864.0
421.241333 24.0
421.293671 44.0
421.319824 72.0
421.372162 28.0
421.411438 28.0
421.476868 60.0
421.516113 28.0
421.647003 36.0
421.686279 372.0
421.751709 64.0
421.790985 56.0
422.092163 44.0
422.183838 76.0
422.249329 128.0
422.314819 24.0
422.49823 60.0
422.668579 84.0
422.799652 72.0
422.838989 60.0
422.970062 28.0
423.074951 28.0
423.17984 200.0
423.219177 104.0
423.573334 24.0
423.678284 36.0
423.809509 32.0
423.835754 28.0
424.006378 28.0
424.045746 48.0
424.229553 40.0
424.308319 28.0
424.387115 40.0
424.768036 52.0
424.807434 28.0
424.83371 44.0
424.899414 48.0
425.01767 64.0
425.582947 36.0
425.609253 32.0
425.780243 32.0
426.109131 36.0
426.18808 56.0
426.214417 100.0
426.332855 36.0
426.67514 100.0
427.162476 308.0
427.215149 100.0
427.51825 32.0
427.5578 124.0
427.689606 96.0
427.860992 48.0
428.164337 352.0
428.335815 28.0
428.441376 32.0
428.652496 44.0
428.810883 32.0
429.048523 40.0
429.867554 32.0
430.211243 32.0
430.250916 56.0
430.422821 20.0
430.819641 88.0
431.137268 40.0
431.20343 104.0
431.560913 44.0
431.772827 28.0
432.170258 40.0
432.196777 76.0
432.302795 148.0
432.395569 36.0
432.75354 52.0
433.191254 40.0
434.040771 36.0
434.18689 76.0
434.346283 36.0
434.399414 136.0
436.208191 72.0
436.248138 120.0
436.674286 28.0
436.767517 36.0
437.140625 72.0
438.180817 28.0
438.207489 132.0
440.10437 52.0
441.134705 40.0
441.188263 32.0
441.844574 32.0
442.461151 36.0
443.306305 28.0
445.617767 36.0
445.873474 64.0
446.169647 24.0
446.223511 80.0
447.207031 84.0
447.476685 44.0
448.19165 92.0
448.232117 180.0
449.082764 48.0
449.163818 36.0
449.204346 208.0
449.244873 52.0
449.569183 44.0
450.218201 196.0
451.219635 212.0
451.612396 16.0
452.167999 48.0
452.195099 144.0
452.235748 60.0
452.303558 168.0
452.452667 48.0
453.225891 120.0
454.121979 44.0
454.189911 60.0
454.244263 212.0
454.271423 52.0
455.19577 116.0
455.549438 84.0
455.91687 108.0
456.284424 44.0
457.224457 68.0
457.26535 36.0
458.588501 44.0
459.080078 124.0
460.132355 108.0
460.17337 96.0
461.185822 108.0
461.24057 108.0
462.213104 48.0
462.240509 64.0
463.241516 68.0
464.18866 100.0
464.408447 48.0
466.237274 68.0
466.719147 48.0
466.884399 64.0
467.173706 120.0
467.215027 80.0
467.683624 28.0
468.207611 44.0
468.442139 116.0
469.146027 76.0
469.491272 24.0
469.905731 24.0
470.237427 56.0
470.970306 32.0
471.21936 96.0
471.288544 160.0
471.4823 108.0
471.731476 116.0
472.174622 108.0
472.257751 108.0
473.200195 52.0
473.255676 116.0
473.435974 36.0
473.755035 116.0
473.866028 24.0
474.240753 96.0
474.58786 36.0
475.143494 52.0
475.254669 180.0
476.241852 76.0
477.202179 128.0
477.230042 128.0
477.425018 40.0
478.163513 36.0
478.205322 92.0
478.247131 84.0
479.209503 124.0
479.26532 36.0
480.214752 132.0
481.193054 72.0
482.242371 336.0
482.508392 36.0
482.816467 24.0
483.264801 92.0
483.573151 44.0
484.526825 100.0
486.26828 96.0
487.252747 76.0
488.153717 68.0
488.210052 48.0
488.23822 140.0
488.280457 152.0
489.252869 68.0
490.113342 108.0
492.161743 40.0
492.204163 108.0
492.246582 84.0
492.274872 72.0
493.18045 84.0
493.208771 184.0
493.237091 132.0
493.449463 28.0
494.186066 148.0
494.214417 164.0
494.242767 224.0
494.285278 48.0
494.483704 84.0
495.221069 180.0
495.604156 40.0
495.916412 44.0
496.186157 80.0
496.22876 56.0
497.194824 96.0
498.204498 60.0
498.289886 116.0
498.346802 76.0
499.286438 96.0
499.842102 36.0
500.184204 32.0
500.269745 96.0
501.082764 20.0
501.696503 56.0
502.239227 84.0
503.153931 80.0
504.141022 84.0
504.212585 96.0
504.241211 196.0
504.527527 24.0
504.599121 16.0
505.22937 104.0
505.258026 100.0
505.301025 80.0
505.55896 36.0
505.673645 32.0
506.218506 56.0
506.290222 76.0
506.419312 52.0
507.251678 104.0
508.127808 40.0
508.170929 48.0
508.242767 152.0
508.271515 100.0
508.760254 48.0
509.206055 116.0
509.263611 40.0
509.954346 24.0
510.112701 36.0
510.170288 56.0
510.242279 68.0
510.933655 108.0
511.193054 272.0
511.510193 24.0
512.029297 28.0
512.144714 64.0
512.231262 124.0
513.284973 48.0
513.400513 132.0
514.224182 80.0
514.253052 72.0
515.106323 24.0
515.222046 68.0
515.381226 24.0
515.800964 16.0
516.249878 64.0
516.293335 92.0
517.235229 36.0
517.307739 136.0
517.916809 48.0
518.221497 64.0
518.294067 60.0
519.005432 36.0
519.281372 104.0
519.484741 28.0
519.586487 40.0
520.095154 84.0
520.196899 36.0
520.24054 148.0
520.28418 84.0
521.200562 88.0
521.258789 208.0
521.710083 32.0
522.146973 36.0
522.2052 116.0
522.234375 212.0
522.613159 68.0
523.196228 64.0
523.225403 124.0
523.283691 60.0
525.414856 124.0
526.262634 68.0
526.99408 64.0
527.228271 80.0
527.272156 44.0
528.150757 52.0
528.282593 200.0
529.176758 92.0
529.264709 104.0
531.187561 108.0
531.363892 152.0
531.407959 76.0
532.172363 72.0
533.231689 36.0
534.247864 68.0
535.088013 28.0
535.235474 92.0
535.264954 72.0
536.164978 52.0
536.209229 44.0
536.23877 272.0
536.327332 84.0
536.430664 32.0
537.21344 256.0
537.257812 100.0
537.775024 32.0
538.218628 64.0
538.277771 476.0
538.322144 140.0
539.254333 304.0
539.965088 32.0
540.128052 32.0
540.202087 56.0
540.246521 84.0
540.276184 84.0
542.322815 108.0
542.664307 32.0
543.362488 76.0
543.436768 32.0
543.585388 48.0
543.748901 24.0
544.239502 112.0
544.269226 56.0
545.221436 80.0
545.281006 56.0
545.846741 44.0
546.29364 92.0
547.217773 64.0
547.292358 32.0
548.217346 64.0
548.291931 56.0
548.84436 136.0
549.24762 324.0
549.277527 448.0
549.307434 112.0
549.33728 124.0
550.02478 40.0
550.069641 32.0
550.174255 104.0
550.263977 284.0
551.251343 100.0
552.269531 84.0
552.314453 64.0
553.048767 20.0
553.258667 52.0
553.348633 24.0
554.203674 64.0
554.233704 56.0
555.269653 120.0
556.24646 64.0
557.239136 52.0
557.254211 52.0
557.314392 108.0
558.428589 92.0
559.287537 64.0
560.222595 96.0
560.252747 212.0
561.218811 108.0
561.264099 112.0
561.309448 60.0
561.747498 68.0
562.261292 204.0
563.274475 184.0
563.304749 184.0
564.015991 32.0
564.288574 332.0
564.333984 108.0
564.379395 80.0
564.636902 24.0
564.93988 24.0
565.227783 28.0
565.288391 196.0
565.409668 36.0
565.682495 40.0
566.152588 72.0
566.19812 108.0
566.258789 108.0
566.304321 80.0
566.395325 40.0
567.047852 36.0
567.275574 132.0
567.305908 124.0
568.080505 20.0
568.338867 76.0
569.311829 48.0
570.300903 84.0
571.245117 52.0
571.290833 64.0
571.473694 104.0
572.69342 24.0
573.135864 128.0
573.212219 100.0
573.257996 120.0
573.319031 56.0
574.326843 68.0
575.36615 32.0
575.794312 32.0
576.253296 240.0
576.283936 92.0
576.819641 48.0
576.911499 40.0
576.942139 32.0
577.263672 248.0
579.241089 68.0
579.287109 124.0
579.348511 76.0
579.440552 28.0
580.26947 188.0
580.315552 92.0
581.252625 68.0
581.498535 24.0
582.390442 32.0
583.252258 88.0
584.299561 120.0
584.345764 68.0
584.546143 64.0
585.316956 76.0
585.347778 228.0
585.394104 52.0
586.304382 48.0
586.335266 40.0
586.397034 92.0
587.308105 76.0
587.385315 64.0
587.678894 44.0
589.271667 48.0
589.302612 100.0
590.231445 104.0
590.277893 100.0
590.324402 124.0
591.254028 88.0
591.285034 56.0
591.31604 56.0
591.858643 40.0
591.967224 36.0
592.292969 140.0
592.323975 88.0
592.370544 52.0
593.193115 40.0
593.317322 68.0
594.218262 56.0
595.104309 24.0
595.166504 132.0
595.228699 96.0
595.290894 152.0
595.322021 296.0
595.368652 132.0
596.255554 72.0
596.333374 136.0
596.364563 32.0
597.252197 80.0
597.298889 56.0
597.345642 64.0
597.906677 36.0
599.279114 76.0
600.215759 120.0
600.809387 28.0
603.186707 76.0
603.343262 76.0
604.267395 312.0
604.314392 124.0
604.706238 28.0
605.113892 52.0
605.192261 36.0
605.270691 192.0
605.317749 460.0
605.364807 56.0
606.259094 108.0
606.306213 188.0
607.216919 84.0
607.264038 56.0
607.311157 448.0
607.34259 492.0
607.562561 24.0
607.672546 48.0
607.703979 144.0
608.254089 48.0
608.332703 228.0
609.024658 32.0
609.276367 32.0
609.323608 172.0
610.299561 48.0
611.307861 24.0
612.2854 92.0
612.332703 36.0
613.295288 104.0
613.326904 292.0
613.374268 180.0
613.595276 32.0
613.753174 40.0
613.942749 36.0
614.274475 128.0
614.30603 52.0
614.337646 80.0
615.254395 40.0
615.286011 84.0
615.349243 48.0
616.282532 84.0
616.836548 32.0
618.262268 68.0
618.880554 32.0
619.245361 76.0
619.308777 92.0
619.800659 36.0
619.991089 24.0
620.229248 56.0
620.276855 412.0
620.308594 256.0
620.356201 128.0
621.277466 72.0
621.913147 68.0
622.199341 80.0
622.326538 64.0
623.249207 112.0
623.281006 80.0
623.312866 108.0
623.838135 64.0
623.901855 108.0
624.299988 100.0
624.443298 108.0
625.335693 120.0
627.872803 40.0
628.240234 84.0
628.320129 88.0
629.279175 108.0
629.327148 40.0
629.886963 80.0
630.223022 80.0
630.255005 180.0
630.63916 40.0
631.279602 32.0
631.375732 76.0
632.321106 120.0
632.353149 60.0
633.49176 36.0
633.620117 24.0
633.78064 28.0
634.165833 60.0
634.230042 44.0
634.262146 68.0
634.310303 132.0
634.358459 80.0
635.032959 20.0
635.273926 124.0
635.322144 272.0
635.354309 52.0
635.514954 24.0
635.547119 24.0
636.029297 32.0
636.28656 436.0
636.383057 120.0
637.155151 44.0
637.299988 240.0
637.364319 48.0
638.153137 92.0
638.281982 60.0
638.346375 68.0
638.716858 164.0
640.264404 132.0
640.361206 36.0
640.65155 72.0
641.297119 96.0
641.34552 152.0
641.571594 24.0
641.942993 36.0
642.847778 32.0
643.235718 56.0
644.934387 64.0
645.322937 60.0
646.01947 68.0
646.278687 88.0
646.327332 76.0
646.359741 76.0
646.602844 172.0
647.283813 72.0
647.316284 72.0
647.364929 60.0
647.478455 56.0
647.835327 32.0
648.224792 48.0
648.273499 424.0
648.305969 284.0
648.435791 44.0
648.500732 64.0
648.971619 28.0
649.280151 224.0
649.312683 196.0
649.345154 52.0
649.751282 96.0
650.20636 40.0
650.255127 80.0
650.287598 284.0
650.320129 64.0
650.482727 28.0
651.751465 24.0
652.304871 180.0
653.950256 112.0
654.292603 32.0
655.418152 56.0
657.083801 112.0
658.277222 92.0
658.34259 72.0
659.389832 120.0
660.323181 72.0
660.618042 36.0
660.929382 24.0
660.962158 40.0
661.470276 48.0
662.159058 36.0
662.32312 68.0
662.913818 24.0
663.3078 252.0
663.340637 68.0
663.373413 68.0
663.718262 36.0
664.293213 1308.0
664.358887 156.0
664.408203 32.0
664.901245 28.0
665.279297 752.0
665.312195 340.0
665.345093 80.0
665.394409 96.0
665.509521 32.0
666.151001 28.0
666.299133 156.0
666.364929 60.0
666.381409 60.0
667.286743 104.0
667.86322 40.0
668.242126 40.0
668.308044 56.0
668.341003 156.0
669.31366 92.0
669.808533 156.0
670.303528 140.0
671.079407 64.0
672.285461 48.0
672.318481 56.0
673.343628 56.0
674.303406 32.0
674.336487 28.0
675.296936 56.0
675.976257 92.0
676.059143 36.0
676.324341 52.0
676.738892 84.0
677.253052 112.0
678.26532 68.0
678.315125 84.0
680.209106 88.0
680.258972 128.0
680.308838 352.0
680.441895 104.0
681.306824 168.0
681.340088 148.0
681.65625 36.0
682.005798 44.0
682.338806 64.0
682.455383 132.0
683.571533 76.0
684.355103 64.0
686.007019 24.0
686.257446 124.0
686.842041 40.0
687.259766 100.0
687.293213 156.0
688.614075 36.0
689.634827 40.0
689.869202 24.0
690.137085 112.0
690.287842 312.0
690.354797 24.0
691.293091 144.0
691.360107 84.0
691.695374 44.0
691.795959 28.0
692.299072 32.0
692.332581 316.0
692.399658 96.0
693.289001 16.0
693.339355 40.0
693.372925 80.0
694.313171 92.0
694.934814 56.0
695.439026 128.0
696.246155 40.0
696.313477 44.0
696.380737 72.0
696.868652 36.0
697.070618 52.0
697.373596 84.0
699.175964 116.0
701.301331 100.0
702.331482 64.0
703.514526 28.0
704.360168 44.0
704.478577 44.0
704.580078 96.0
705.240173 20.0
705.358643 56.0
705.544861 36.0
705.917419 124.0
706.307068 60.0
706.340942 124.0
706.391724 124.0
707.34082 44.0
708.307495 24.0
708.341431 148.0
709.512573 56.0
710.344788 216.0
710.412781 44.0
710.701599 120.0
715.399658 108.0
717.327576 88.0
718.318176 40.0
719.360718 52.0
719.463318 64.0
720.352661 136.0
720.506653 80.0
722.270142 92.0
722.527161 108.0
722.664246 80.0
723.315552 68.0
723.349854 32.0
724.190125 52.0
725.288452 32.0
725.357117 84.0
726.112732 28.0
727.246826 64.0
727.367188 124.0
727.418762 56.0
727.470337 24.0
727.625061 28.0
728.278625 80.0
731.257751 64.0
731.361145 108.0
731.39563 64.0
731.430115 52.0
732.016418 36.0
732.344116 80.0
732.413147 44.0
733.327759 40.0
733.414062 44.0
733.793884 36.0
733.914795 44.0
734.363831 44.0
734.398376 56.0
734.467468 28.0
735.296936 56.0
736.351746 52.0
736.386353 252.0
737.389954 212.0
738.238403 96.0
738.428955 52.0
739.780701 68.0
740.404968 64.0
741.966919 80.0
742.592102 48.0
746.505737 32.0
747.219971 60.0
747.568481 20.0
748.248413 104.0
748.475098 72.0
748.806458 24.0
748.911133 36.0
749.120483 28.0
749.260071 48.0
749.382202 2516.0
749.801086 56.0
749.835999 36.0
750.377197 864.0
750.516907 60.0
751.285522 48.0
751.39032 220.0
751.460205 64.0
752.281738 32.0
752.316711 36.0
752.351685 100.0
752.404114 80.0
753.208679 48.0
753.331116 56.0
753.41864 168.0
753.646118 32.0
753.891113 80.0
754.36377 72.0
754.416321 72.0
755.256958 84.0
755.362061 80.0
755.414612 108.0
755.887756 20.0
756.413574 184.0
756.448669 56.0
756.501282 88.0
756.869507 124.0
756.957214 32.0
757.343079 36.0
757.430786 60.0
757.957214 40.0
758.536438 28.0
759.344238 276.0
759.41449 88.0
759.449646 64.0
760.328247 80.0
760.380981 92.0
760.662231 44.0
761.049072 104.0
761.348083 76.0
761.38324 164.0
761.541565 128.0
762.192566 28.0
762.350952 136.0
762.438965 64.0
762.544556 80.0
763.336914 116.0
764.305847 44.0
764.358765 52.0
765.346008 144.0
766.38678 64.0
767.304749 72.0
768.364563 164.0
769.301331 36.0
769.601929 96.0
769.778809 144.0
770.114868 20.0
770.274048 80.0
770.344849 116.0
771.265137 44.0
771.424438 432.0
771.4953 92.0
771.548401 88.0
771.725464 44.0
772.079712 100.0
772.309937 108.0
772.363098 76.0
772.41626 220.0
773.408691 84.0
773.444153 76.0
773.568237 20.0
773.834229 28.0
773.86969 36.0
774.171143 28.0
774.313049 36.0
774.401733 84.0
774.969543 40.0
775.005005 36.0
775.342224 28.0
775.395447 504.0
775.484253 60.0
775.857056 36.0
776.247742 28.0
776.407593 296.0
776.460876 84.0
776.638489 36.0
776.798401 44.0
776.976074 68.0
777.011597 32.0
777.06488 28.0
777.100464 56.0
777.207092 52.0
777.242615 28.0
777.367004 5844.0
777.509216 104.0
777.544739 80.0
777.580322 32.0
777.704773 32.0
777.758057 32.0
777.829163 76.0
777.90033 40.0
777.989197 60.0
778.149231 108.0
778.202576 36.0
778.273682 28.0
778.380432 3564.0
778.46936 308.0
778.540466 88.0
778.593811 36.0
778.664978 40.0
778.6828 40.0
778.753906 28.0
778.807312 24.0
778.914062 20.0
779.002991 36.0
779.234314 52.0
779.341064 624.0
779.465637 80.0
779.554626 24.0
779.643616 36.0
779.714844 36.0
779.821655 52.0
780.106445 24.0
780.14209 64.0
780.266724 44.0
780.320129 104.0
780.355774 100.0
780.40918 136.0
780.569458 32.0
780.711914 56.0
780.765381 32.0
780.872253 36.0
780.996948 32.0
781.335449 140.0
781.460205 84.0
781.49585 68.0
781.816589 32.0
782.315735 40.0
782.422729 40.0
782.547546 44.0
782.815063 52.0
783.296692 100.0
783.385925 76.0
783.867676 112.0
784.02832 36.0
784.831726 156.0
784.956726 72.0
785.40332 64.0
785.599854 16.0
785.653442 48.0
787.69165 24.0
788.246338 36.0
788.35376 56.0
788.65802 24.0
788.729614 44.0
788.908691 40.0
789.051941 60.0
789.320557 76.0
789.410095 28.0
789.517517 160.0
789.696655 28.0
789.839966 44.0
790.037048 28.0
791.435242 152.0
791.632507 104.0
791.704224 44.0
791.81189 32.0
792.583374 40.0
792.637207 32.0
792.655151 32.0
792.726929 48.0
792.762817 36.0
792.8526 40.0
793.193665 84.0
793.229553 92.0
793.391113 2928.0
793.427063 2436.0
793.516846 72.0
793.570679 36.0
793.624573 24.0
793.696411 116.0
793.893982 36.0
793.96582 32.0
794.127502 36.0
794.325073 352.0
794.396973 1336.0
794.504761 176.0
794.576599 52.0
794.738342 20.0
795.097778 56.0
795.241638 52.0
795.313538 56.0
795.385437 316.0
795.421387 628.0
795.511292 28.0
796.248596 52.0
796.410461 184.0
796.752319 72.0
796.82428 40.0
796.878296 216.0
796.950256 92.0
797.004272 36.0
797.220215 52.0
797.310242 36.0
797.364197 176.0
797.400208 400.0
797.454224 168.0
797.5802 32.0
797.670227 52.0
797.706238 64.0
797.832275 36.0
798.372559 100.0
798.588684 36.0
798.660767 32.0
799.147217 60.0
799.201294 36.0
799.255371 24.0
799.291382 32.0
799.345459 784.0
799.417542 780.0
799.50769 40.0
799.561768 32.0
799.778076 28.0
800.300964 220.0
800.355042 344.0
800.409119 540.0
800.44519 488.0
800.643616 32.0
800.896118 32.0
801.004395 100.0
801.130676 20.0
801.401367 192.0
801.437439 376.0
801.545715 32.0
801.599854 36.0
802.051147 36.0
802.141357 84.0
802.358032 88.0
802.430298 24.0
802.827576 68.0
802.881775 28.0
803.116577 20.0
803.224976 44.0
803.279175 60.0
803.387573 2476.0
803.532166 96.0
803.568298 32.0
803.676697 36.0
803.71283 52.0
804.1828 76.0
804.345459 244.0
804.399719 1168.0
804.490112 116.0
804.562439 32.0
804.779419 36.0
804.906006 124.0
805.014526 64.0
805.10498 64.0
805.394409 380.0
805.521057 48.0
805.611511 72.0
805.738159 36.0
806.118164 36.0
806.190552 112.0
806.299194 52.0
806.335388 32.0
806.371582 88.0
806.425903 76.0
806.75177 36.0
806.969055 24.0
807.168274 24.0
807.295044 76.0
807.421814 40.0
807.657288 40.0
807.965332 36.0
808.092163 76.0
808.273376 100.0
808.327759 104.0
808.45459 104.0
808.726501 28.0
809.034729 64.0
809.270447 84.0
809.306702 296.0
809.361084 64.0
809.415527 136.0
809.451782 124.0
809.705688 28.0
809.905212 248.0
809.941528 88.0
810.249939 52.0
810.286255 92.0
810.395142 84.0
810.957764 60.0
811.084839 20.0
811.302734 172.0
811.393494 128.0
811.484314 36.0
812.301636 92.0
812.337952 56.0
812.428833 76.0
813.701172 44.0
813.864868 32.0
813.95575 36.0
813.992126 20.0
814.083069 44.0
814.210388 32.0
814.228577 32.0
814.301331 32.0
814.355896 36.0
814.392334 72.0
814.446899 80.0
814.483276 56.0
814.55603 88.0
814.610596 52.0
814.665222 36.0
814.701599 48.0
814.81073 32.0
814.865356 76.0
814.901733 32.0
814.95636 48.0
815.029114 56.0
815.065552 52.0
815.211121 60.0
815.265747 40.0
815.411316 108.0
815.629761 136.0
815.702637 36.0
815.739014 64.0
815.848267 28.0
815.921082 28.0
816.26709 32.0
816.303528 40.0
816.467407 28.0
816.503845 56.0
816.540283 28.0
816.631348 72.0
816.704224 64.0
816.7771 56.0
816.849976 56.0
816.886414 52.0
816.941101 84.0
816.995728 88.0
817.050415 48.0
817.123291 168.0
817.177979 88.0
817.232605 128.0
817.287292 48.0
817.32373 164.0
817.414856 76.0
817.451294 148.0
817.487793 84.0
817.633606 88.0
817.724731 64.0
817.779419 32.0
817.815857 116.0
817.907043 256.0
817.961731 68.0
817.998169 88.0
818.034607 64.0
818.071106 80.0
818.107544 140.0
818.144043 144.0
818.180481 172.0
818.21698 28.0
818.253418 76.0
818.308167 56.0
818.399292 13504.0
818.508728 424.0
818.563477 132.0
818.599915 100.0
818.691101 72.0
818.74585 140.0
818.800537 140.0
818.891785 12844.0
818.982971 404.0
819.03772 284.0
819.074219 164.0
819.147156 56.0
819.201904 84.0
819.274902 48.0
819.311401 84.0
819.402588 7820.0
819.457336 816.0
819.512085 176.0
819.548584 64.0
819.639832 100.0
819.676331 128.0
819.71283 40.0
819.767578 48.0
819.804077 136.0
819.895325 2860.0
819.986633 260.0
820.023132 176.0
820.077881 96.0
820.132629 120.0
820.187439 128.0
820.278687 140.0
820.369995 776.0
820.406494 1704.0
820.479553 88.0
820.516052 188.0
820.552612 276.0
820.589111 164.0
820.64386 144.0
820.698669 120.0
820.753479 160.0
820.808228 164.0
820.899536 640.0
821.009155 212.0
821.082214 240.0
821.155273 172.0
821.264893 260.0
821.301392 168.0
821.411011 89600.0
821.55719 504.0
821.64856 360.0
821.68512 252.0
821.794739 184.0
821.867859 200.0
821.904358 380.0
821.959229 204.0
822.050598 196.0
822.087158 216.0
822.123718 72.0
822.196777 92.0
822.269897 160.0
822.306458 216.0
822.397888 46220.0
822.525879 636.0
822.598999 68.0
822.635559 144.0
822.690369 116.0
822.745239 168.0
822.781799 152.0
822.85498 68.0
822.891541 52.0
822.964661 248.0
823.001221 140.0
823.092712 96.0
823.184143 244.0
823.220703 100.0
823.257263 128.0
823.293884 104.0
823.403625 10692.0
823.495056 516.0
823.531677 236.0
823.568237 124.0
823.623108 116.0
823.659729 116.0
823.696289 152.0
823.76947 68.0
823.787781 68.0
823.824402 72.0
823.915894 100.0
823.952454 88.0
824.007324 40.0
824.062256 76.0
824.098877 132.0
824.135437 100.0
824.190369 92.0
824.226929 44.0
824.26355 88.0
824.300171 96.0
824.409973 1792.0
824.501465 88.0
824.538086 64.0
824.574707 32.0
824.611328 48.0
824.666199 24.0
824.70282 112.0
824.812683 32.0
824.922546 84.0
824.977478 84.0
825.014099 116.0
825.069031 68.0
825.215515 132.0
825.252136 32.0
825.362 212.0
825.435242 128.0
825.471863 116.0
825.508484 48.0
825.618408 40.0
825.709961 56.0
825.764954 40.0
825.838196 32.0
825.893188 92.0
826.021423 148.0
826.076355 32.0
826.167969 56.0
826.259583 40.0
826.296265 32.0
826.351196 120.0
826.406189 124.0
826.479492 44.0
826.571106 32.0
826.699402 32.0
826.772705 32.0
826.827698 32.0
826.88269 148.0
827.047668 40.0
827.139343 28.0
827.231018 64.0
827.2677 32.0
827.304382 32.0
827.359375 32.0
827.396057 144.0
827.45105 60.0
827.597717 60.0
827.854492 84.0
827.909546 56.0
828.31311 60.0
828.386475 120.0
828.459839 40.0
828.514893 32.0
828.569946 20.0
828.606628 28.0
828.661682 32.0
828.753479 60.0
828.790161 32.0
828.826843 44.0
828.936951 80.0
828.992065 40.0
829.028748 24.0
829.06543 80.0
829.102173 44.0
829.21228 24.0
829.322449 28.0
829.763062 48.0
END IONS
