BEGIN IONS
PEPMASS=543.8
CHARGE=2
MSLEVEL=2
SOURCE_INSTRUMENT=LC-ESI-Orbitrap
FILENAME=f.Rolandoo1/20190519 Moroidin paper GNPS/[Val9]-moroidin.mzXML;
SEQ=*..*
IONMODE=Positive
ORGANISM=GNPS-LIBRARY
NAME=[Val9]-moroidin M+2H
PI=Jing-Ke Weng
DATACOLLECTOR=Roland Kersten
SMILES=CC(C)C1C(C(NC(CC(C)C)C(NC(C(C)C)C(NC(C(NC(C(NCC(NC(CC2=CN3C=N2)C(NC(C(C)C)C(O)=O)=O)=O)=O)CCCNC(N)=N)=O)CC4=C3NC5=C4C=CC1=C5)=O)=O)=O)NC(C6NC(CC6)=O)=O
INCHI=
INCHIAUX=
PUBMED=
SUBMITUSER=Rolandoo1
TAGS=
LIBRARYQUALITY=3
SPECTRUMID=CCMSLIB00005435914
SCANS=1
84.039169 2812.351074
84.039902 7622.481445
84.040627 9691.671875
84.041359 32315.359375
84.042091 126157.523438
84.042824 341144.8125
84.043549 588780.75
84.044281 732591.125
84.045013 572215.75
84.045746 332139.3125
84.046478 117087.234375
84.047203 29966.521484
84.047935 8124.37793
84.048668 2853.398926
84.0494 249.031784
84.906342 1710.992432
84.907082 3756.830322
84.907822 4979.706055
84.908562 4659.568848
84.909309 3042.240479
84.910049 1007.931946
86.089912 1591.415649
86.090668 9376.001953
86.091431 41484.269531
86.092186 81018.992188
86.092941 143404.296875
86.093704 421372.75
86.09446 1337556.25
86.095215 2604654.0
86.09597 3822135.25
86.096733 3643532.25
86.097488 2412230.75
86.098244 1116050.25
86.099007 336989.21875
86.099762 91842.148438
86.100517 54875.0625
86.101273 30496.628906
86.102036 13412.146484
86.102791 2128.514404
86.103546 137.687256
87.096901 3129.65625
87.097672 8385.255859
87.098442 17942.292969
87.099213 29534.958984
87.099983 30759.597656
87.100754 17597.328125
87.101532 8521.180664
87.102303 3198.883789
87.103073 568.524414
92.329597 2824.876221
92.330437 7587.989746
92.331276 7350.482422
92.332123 3314.249512
92.332962 871.818665
102.195595 625.407654
102.196571 2976.642822
102.197548 4644.398926
102.198532 4908.990723
102.199509 3584.084961
102.200493 1620.446411
110.067848 1061.196655
110.068947 5182.343262
110.070038 8782.072266
110.071136 10528.525391
110.072227 9240.592773
110.073326 5811.434082
110.074425 2236.072021
112.082367 1261.095581
112.083496 9048.063477
112.084618 26885.775391
112.085747 44935.296875
112.086868 54588.519531
112.087997 43601.835938
112.089119 24858.099609
112.090248 8436.901367
112.09137 2900.195801
113.067673 929.061646
113.06881 4661.928223
113.069946 7106.324219
113.071091 7462.569824
113.072227 5417.150879
113.073372 2314.343506
114.052162 1020.479309
114.053314 6500.524414
114.054466 9060.6875
114.055626 8985.382812
114.056778 6175.281738
114.057938 2538.761963
118.078964 360.744324
118.080177 4810.248047
118.081398 30149.457031
118.082611 118700.84375
118.083832 311841.28125
118.085045 511958.5
118.086266 607001.9375
118.087479 443505.375
118.088699 242841.703125
118.089912 73112.65625
118.091133 20927.212891
118.092346 6918.599121
118.093567 4976.734375
118.09478 131.711121
126.389153 2178.94043
126.390503 6141.902832
126.391846 11212.640625
126.393196 14858.177734
126.394539 14581.941406
126.395889 22715.972656
126.39724 35490.761719
126.398582 31720.582031
126.399933 20415.667969
126.401276 8073.970703
126.402626 1594.735107
129.060654 2228.418213
129.062042 6995.833496
129.063431 19193.927734
129.064819 31604.193359
129.066208 34484.289062
129.067596 22893.060547
129.069 10044.670898
129.070389 3702.802979
129.071777 442.409546
134.170624 1632.435181
134.172104 4083.806641
134.173569 5866.455078
134.175049 5797.930664
134.176529 3964.276855
134.177994 932.107849
136.010696 6821.427734
136.012207 14403.397461
136.013718 19506.771484
136.015213 19477.140625
136.016724 13976.896484
136.018219 4686.86084
138.177979 3678.283936
138.17952 6317.458496
138.181061 7697.365234
138.182602 7162.765625
138.184143 4843.239258
138.185684 618.088013
139.094254 3497.175781
139.09581 7572.594238
139.097366 10418.913086
139.098923 10084.730469
139.100479 6710.993652
139.102036 2688.224121
139.103592 668.875732
150.483261 1473.710083
150.485016 3543.846436
150.486755 4666.525391
150.48851 4405.655273
150.490265 3013.219482
150.492004 1048.658569
153.303589 3667.784912
153.305389 9109.526367
153.30719 12541.053711
153.30899 12297.459961
153.310791 8529.220703
153.312592 2893.820801
159.974945 1800.96106
159.976868 9606.814453
159.97879 20582.857422
159.980713 29598.167969
159.98262 30972.189453
159.984543 23950.347656
159.986465 12519.008789
159.988388 3182.533691
182.060226 2878.235596
182.062546 9459.655273
182.06488 13565.473633
182.067215 13619.176758
182.069534 9684.463867
182.071869 3876.561768
185.15271 1556.67395
185.15509 11968.398438
185.157486 47369.277344
185.159866 112992.40625
185.162262 195446.75
185.164658 238339.6875
185.167038 194842.4375
185.169434 110752.484375
185.171814 43764.703125
185.17421 10574.833008
185.17659 514.303772
192.773636 1521.483032
192.776169 4578.812988
192.778717 6853.555176
192.78125 7473.986328
192.783783 6120.798828
192.786331 2716.779297
200.607971 2155.553711
200.610672 5862.75293
200.613358 7337.449219
200.616058 6831.233887
200.618744 4887.522461
200.621445 2311.897461
237.484787 2122.177979
237.488266 10712.109375
237.49173 15533.759766
237.495209 16163.974609
237.498672 12365.876953
237.502151 6025.024902
237.89827 1091.132935
237.901764 6128.806152
237.905243 11243.933594
237.908722 13346.632812
237.912201 10798.822266
237.91568 5541.474609
237.919159 294.733826
242.111053 1748.808472
242.114624 10228.52832
242.118195 25645.220703
242.121765 40464.902344
242.125351 44492.925781
242.128922 31568.753906
242.132492 16040.93457
242.136063 4576.11084
281.140594 953.907166
281.14505 4833.397461
281.149536 8992.226562
281.153992 10943.21875
281.158447 8709.836914
281.162933 3871.557129
293.651642 1501.26001
293.656403 7533.890137
293.661194 12976.375
293.665955 15469.34375
293.670715 13387.139648
293.675507 8585.87207
293.680267 3613.729736
299.653809 1459.115112
299.658722 6882.318359
299.663666 10582.336914
299.668579 10747.099609
299.673492 7062.229004
299.678406 2203.365723
308.15744 1678.868652
308.162567 12079.199219
308.167694 41088.601562
308.172821 74504.625
308.177948 94398.226562
308.183105 84207.375
308.188232 54848.261719
308.193359 26235.958984
308.198486 8461.347656
309.655487 981.233582
309.660645 5015.635742
309.665833 8879.813477
309.67099 11083.558594
309.676147 9763.944336
309.681335 5758.606445
309.686493 1873.471191
314.157654 579.333984
314.162933 3458.329102
314.168213 8095.179688
314.173492 13099.680664
314.178772 15589.895508
314.184052 13933.043945
314.189331 8991.396484
314.194611 3445.468506
316.680634 892.549866
316.685974 6690.993164
316.691345 12138.87207
316.696686 13925.500977
316.702026 10772.333984
316.707367 5101.058594
322.147339 536.039062
322.152832 3366.26416
322.158295 14511.488281
322.163788 46187.679688
322.169281 85556.492188
322.174744 112129.765625
322.180237 98261.976562
322.18573 59144.425781
322.191193 25154.251953
322.196686 4918.76709
322.202179 420.739655
322.207642 43.646225
322.668793 4092.955811
322.674286 19133.259766
322.67981 44754.800781
322.685303 73104.6875
322.690796 94819.195312
322.696289 85363.9375
322.701782 55424.242188
322.707275 23730.042969
322.712769 2088.341797
328.156647 1284.999878
328.162292 6941.566895
328.167938 14538.910156
328.173553 24932.716797
328.179199 28258.341797
328.184845 15245.067383
328.19046 7409.137207
328.196106 1983.719727
329.683838 953.637268
329.689514 4860.21875
329.69519 7855.754883
329.700867 8275.975586
329.706543 6303.731934
329.712219 3321.867432
330.662262 299.296753
330.667969 5277.144043
330.673676 29612.330078
330.679382 65418.546875
330.685089 99013.390625
330.690765 112982.546875
330.696472 85491.921875
330.702179 45643.324219
330.707886 11152.958984
330.713593 1155.90979
336.180786 942.27655
336.186615 5101.149902
336.192474 8987.84082
336.198334 9893.832031
336.204163 7336.468262
336.210022 3183.288574
336.660553 1212.647095
336.666412 7968.276855
336.672272 31785.419922
336.678131 83180.210938
336.68399 136329.28125
336.68985 157709.578125
336.695709 122649.367188
336.701569 68438.226562
336.707428 23695.625
336.713287 3971.271484
337.164825 707.555847
337.170685 4346.599121
337.176575 11654.729492
337.182434 24477.923828
337.188324 34150.9375
337.194183 32869.800781
337.200043 20890.308594
337.205933 7737.279297
337.211792 2321.700928
342.192474 1223.908447
342.198456 6051.266113
342.204468 9406.607422
342.21048 10346.929688
342.216461 7779.400879
342.222473 3481.309814
345.170776 551.271179
345.176849 5913.436523
345.182922 25285.201172
345.188995 76502.03125
345.195099 139877.234375
345.201172 191663.4375
345.207245 176281.125
345.213318 108476.46875
345.219421 46185.773438
345.225494 8805.513672
345.231567 1259.313232
349.671356 738.238342
349.677551 4374.719238
349.683746 10023.621094
349.689941 19850.302734
349.696167 33802.492188
349.702362 31131.357422
349.708557 18301.552734
349.714752 7257.175781
349.720947 2801.244873
350.671661 970.457214
350.677887 5041.510254
350.684113 8230.78125
350.690338 9083.060547
350.696594 6620.483398
350.70282 2473.543457
351.151611 510.85437
351.157837 3666.206543
351.164093 14261.025391
351.170319 41033.707031
351.176575 74464.289062
351.1828 99460.703125
351.189056 88998.179688
351.195282 54482.402344
351.201538 23550.585938
351.207764 4626.739746
353.666992 1126.814087
353.673309 7150.337891
353.679596 18929.664062
353.685913 40411.523438
353.69223 49654.417969
353.698517 42443.742188
353.704834 27092.699219
353.711151 11807.988281
353.717438 2023.117188
356.18399 663.838989
356.190369 3991.66748
356.196747 8576.78418
356.203125 12221.241211
356.209503 13091.876953
356.215881 10595.250977
356.22226 5998.14502
356.228638 1909.551514
356.700836 798.234619
356.707245 4438.701172
356.713623 8259.331055
356.720001 10699.209961
356.72641 10062.240234
356.732788 6478.852539
356.739166 2355.202148
357.174011 962.63678
357.18042 4986.691406
357.186829 7721.23584
357.193207 8223.456055
357.199615 6598.966797
357.206024 3883.36792
359.179382 1189.412231
359.185822 6828.515137
359.192291 13104.03418
359.19873 16140.046875
359.2052 13369.884766
359.211639 7246.09375
359.218109 2096.182129
362.186523 873.110046
362.193085 4971.592285
362.199615 9592.806641
362.206146 13149.650391
362.212677 12759.494141
362.219208 8657.873047
362.225739 3785.175781
363.66156 252.080383
363.668121 3625.134033
363.674713 19041.851562
363.681274 64437.53125
363.687866 119233.335938
363.694427 164469.65625
363.701019 148006.671875
363.707581 89593.304688
363.714172 36082.605469
363.720734 7471.645508
363.727325 1552.285522
364.089355 482.095154
364.095947 4143.009277
364.102539 6437.15625
364.1091 7216.873535
364.115692 5908.413086
364.122284 3220.546875
364.18158 1004.497498
364.188171 5911.174805
364.194763 14212.370117
364.201355 30109.669922
364.207947 42049.152344
364.214539 37217.351562
364.22113 21972.160156
364.227722 7427.522461
364.234314 2231.002441
364.702728 1036.697144
364.709351 5923.085938
364.715942 11531.541016
364.722565 14192.475586
364.729156 12302.43457
364.735748 7470.852539
364.742371 2870.678467
365.158844 442.221588
365.165466 6251.255371
365.172058 28478.177734
365.17868 50231.449219
365.185303 59531.8125
365.191925 44582.800781
365.198547 23273.476562
365.205139 4261.351562
368.181274 1427.669312
368.187958 7842.661133
368.194672 16331.347656
368.201355 27944.085938
368.208069 27487.091797
368.214752 14625.952148
368.221466 7802.301758
368.22818 2458.380371
369.672882 1109.766846
369.679626 5930.637695
369.686371 10236.770508
369.693115 12848.918945
369.699829 11462.582031
369.706573 6845.094727
369.713318 2286.747803
370.185608 1014.257935
370.192352 5193.619629
370.199127 7996.657715
370.205872 8992.131836
370.212616 6908.639648
370.219391 2969.477295
370.685852 67.228767
370.692627 1864.979492
370.699402 14214.214844
370.706177 46575.75
370.712921 85950.21875
370.719696 115261.523438
370.726471 99484.953125
370.733246 58089.328125
370.740021 21709.958984
370.746765 7248.277344
370.75354 3920.640869
371.193909 397.312225
371.200684 3362.23291
371.207489 10734.089844
371.214264 20360.755859
371.221039 28930.412109
371.227814 18403.580078
371.234619 9102.888672
371.241394 4195.86377
377.665009 1155.90564
377.671967 8387.033203
377.678955 23012.142578
377.685913 38568.957031
377.692871 47802.667969
377.699829 37321.894531
377.706787 19952.660156
377.713745 6340.694824
377.720703 2185.07373
378.159607 1098.957397
378.166565 5661.763672
378.173553 9466.845703
378.180511 27355.384766
378.1875 102329.75
378.194458 258713.703125
378.201447 418882.5
378.208405 495073.65625
378.215393 377912.21875
378.222351 209390.75
378.22934 72090.84375
378.236328 16874.517578
378.243286 879.141968
378.676117 546.874939
378.683105 3777.789551
378.690094 12155.421875
378.697083 30881.892578
378.704071 48860.226562
378.71106 55910.585938
378.718048 42435.757812
378.725037 23552.462891
378.732025 6844.469238
379.16568 1093.908081
379.172699 6088.766602
379.179688 11295.444336
379.186676 14578.323242
379.193695 9749.036133
379.200684 11446.333008
379.207703 26957.457031
379.214691 74097.578125
379.22171 175389.5
379.228699 279334.0625
379.235687 320693.5
379.242706 227758.671875
379.249695 120360.8125
379.256714 31762.591797
379.263702 4220.446289
379.712311 483.600342
379.71933 3479.355957
379.726349 9338.057617
379.733368 14356.970703
379.740387 14325.621094
379.747406 9180.03125
379.754425 3205.038818
383.671844 769.915222
383.678986 4463.316895
383.686096 8305.168945
383.693237 10109.431641
383.700348 8061.133301
383.707489 3632.044189
384.68573 361.934875
384.692871 5227.48584
384.700012 22037.392578
384.707184 48806.464844
384.714325 74881.226562
384.721497 82112.492188
384.728638 56915.289062
384.735809 28646.175781
384.74295 6234.862305
384.750122 80.113068
385.186981 673.746399
385.194153 4552.154297
385.201324 13152.667969
385.208496 27877.53125
385.215668 34269.78125
385.222839 25154.292969
385.230011 12870.780273
385.237183 4417.581543
386.689484 840.091064
386.696686 6489.187012
386.703918 19524.011719
386.711121 36372.417969
386.718323 48904.277344
386.725555 43516.761719
386.732758 26687.033203
386.73996 11646.013672
386.747162 2108.214844
387.201904 1312.949707
387.209137 6726.083008
387.21637 9130.384766
387.223572 9816.147461
387.230804 7687.151367
387.238037 3514.938232
387.722595 1066.735596
387.729828 6521.665527
387.737061 13563.743164
387.744293 20703.455078
387.751556 24538.367188
387.758789 12284.97168
387.766022 4806.34375
391.690765 1086.999756
391.69812 6015.464355
391.705475 9902.938477
391.71283 12518.304688
391.720184 11583.201172
391.727509 7326.079102
391.734863 2672.232422
392.161621 933.139465
392.168976 8440.739258
392.176331 40938.992188
392.183716 154624.15625
392.191071 389831.28125
392.198425 632875.625
392.205811 756455.0
392.213165 583466.625
392.22052 326849.46875
392.227905 116667.65625
392.23526 31020.371094
392.242615 6079.96582
392.25 980.593323
392.677582 2565.81543
392.684967 20981.802734
392.692322 53135.984375
392.699707 83289.9375
392.707092 88099.632812
392.714478 66750.648438
392.721863 38038.820312
392.729218 15831.677734
392.736603 4327.515137
392.743988 1420.602783
393.179779 918.147705
393.187164 4797.320312
393.19455 9631.121094
393.201935 34109.46875
393.209351 127112.96875
393.216736 336159.125
393.224121 566581.25
393.231537 706091.0625
393.238922 563085.5625
393.246307 324391.09375
393.253693 119150.804688
393.261108 28649.5
393.268494 8172.02002
393.275879 5633.484375
393.283295 625.57019
393.697754 1363.597534
393.705139 10213.576172
393.712555 37687.480469
393.719971 77993.484375
393.727386 109041.492188
393.734772 103655.1875
393.742188 67088.742188
393.749603 30819.816406
393.757019 6392.38916
393.764404 601.594604
395.220551 1141.522949
395.228027 6048.407715
395.235474 9157.320312
395.24292 9493.916992
395.250366 6535.567383
395.257812 2549.741943
397.69809 819.317566
397.705597 5535.277832
397.713104 14545.988281
397.720642 26817.822266
397.728149 34013.558594
397.735687 25083.728516
397.743195 12629.357422
397.750732 3785.811768
398.692596 1454.902222
398.700134 7909.731445
398.707703 12727.042969
398.71524 14768.639648
398.722778 12133.311523
398.730347 6361.478516
398.737885 1520.25647
400.662415 891.230713
400.670013 5964.808105
400.677643 9703.84668
400.685242 22675.416016
400.692841 76670.890625
400.700439 231983.546875
400.708038 462763.90625
400.715668 681215.5
400.723267 669488.0625
400.730865 428874.875
400.738464 203385.328125
400.746094 52430.75
400.753693 13775.838867
400.761292 8837.055664
400.76889 8092.276855
400.77652 9225.777344
401.187653 2907.81543
401.195251 14882.708008
401.202881 35855.84375
401.21051 59061.0
401.218109 68309.28125
401.225739 54242.050781
401.233368 31480.279297
401.240967 12872.018555
401.248596 3224.19043
401.706238 516.024292
401.713898 6956.72168
401.721527 31610.261719
401.729156 86840.734375
401.736786 148977.421875
401.744415 192500.90625
401.752045 160286.234375
401.759705 93410.6875
401.767334 31941.84375
401.774963 6389.628418
401.782593 1104.19104
402.210571 666.158997
402.218231 4100.164062
402.225861 8940.130859
402.233521 14598.0
402.24118 18110.841797
402.24881 16772.945312
402.25647 11132.65625
402.26413 4642.537598
403.191376 778.437439
403.199036 7298.519043
403.206726 27230.263672
403.214386 65329.976562
403.222076 101751.390625
403.229736 107874.921875
403.237427 73857.898438
403.245117 35588.847656
403.252777 8117.953613
403.260468 2984.943848
403.706177 951.583679
403.713867 5432.844238
403.721558 9388.611328
403.729248 10967.654297
403.736938 9518.5625
403.744629 6402.228027
403.752319 2954.236572
405.674591 189.169632
405.682343 3026.980713
405.690094 14890.722656
405.697845 33433.917969
405.705566 49613.285156
405.713318 50538.617188
405.721069 34379.6875
405.728821 17832.142578
406.163116 94.3395
406.170868 4038.831299
406.17865 40978.785156
406.186401 83098.375
406.194153 119584.617188
406.201935 100027.320312
406.209686 61926.078125
406.217468 35400.339844
406.22522 36412.148438
406.232971 43261.375
406.240753 48036.617188
406.248505 42907.390625
406.256287 19235.613281
406.264038 1014.985352
407.189575 898.972168
407.197357 6391.680176
407.20517 23986.541016
407.212952 76545.101562
407.220734 137534.8125
407.228546 176476.5
407.236328 148983.984375
407.24411 88208.4375
407.251923 35074.085938
407.259705 6091.845215
407.267487 379.726898
407.696442 1285.425537
407.704254 8808.523438
407.712067 21613.134766
407.719879 33234.214844
407.727692 35370.8125
407.735474 23383.851562
407.743286 9231.550781
407.751099 3183.969727
409.199249 707.884644
409.207092 4290.822266
409.214935 8208.563477
409.222778 9998.571289
409.230652 7949.132812
409.238495 3629.072021
412.206055 683.882751
412.213989 5273.537598
412.221924 15540.3125
412.229858 28859.136719
412.237793 39683.554688
412.245728 37871.75
412.253662 24218.933594
412.261597 11383.476562
412.269531 3995.049561
414.197052 893.054749
414.205048 5670.143066
414.213043 13628.427734
414.221039 26883.03125
414.229034 33483.769531
414.23703 25267.007812
414.245026 10002.043945
414.253021 3500.038086
414.677063 1960.626587
414.685059 12993.96875
414.693085 56295.585938
414.70108 149449.890625
414.709076 244849.359375
414.717102 284391.3125
414.725098 211756.015625
414.733124 114485.65625
414.741119 40074.957031
414.749115 8599.460938
414.757141 2479.210938
415.189972 991.33252
415.197998 5949.622559
415.206024 11152.271484
415.21402 15048.123047
415.222046 14737.944336
415.230072 10129.176758
415.238098 4187.799805
415.703827 1595.130493
415.711853 11609.995117
415.71991 42528.082031
415.727936 104783.359375
415.735962 164731.1875
415.744019 181772.75
415.752045 129482.414062
415.760101 67938.4375
415.768127 20402.160156
415.776154 3280.386475
416.202545 421.712524
416.210602 3238.855713
416.218628 12309.927734
416.226685 32588.285156
416.234741 43664.703125
416.242798 44616.179688
416.250854 31071.761719
416.258911 14924.742188
416.266968 1571.557983
417.704071 1683.553101
417.712158 12377.733398
417.720276 41919.367188
417.728363 84051.992188
417.73645 116486.445312
417.744568 108393.445312
417.752655 68632.898438
417.760742 30935.740234
417.768829 6874.356934
417.776947 2074.958252
420.200256 491.363922
420.208435 6667.603516
420.216583 22924.078125
420.224762 50377.574219
420.232941 78504.21875
420.241089 83230.601562
420.249268 54413.636719
420.257446 25432.001953
420.265594 5644.591309
420.273773 494.103882
420.715271 3632.852783
420.72345 25847.115234
420.731628 76930.695312
420.739807 159722.484375
420.747986 237425.25
420.756195 242057.890625
420.764374 165642.78125
420.772552 82533.289062
420.780731 23644.210938
420.78891 1533.397217
421.206635 864.808105
421.214844 5216.691406
421.223022 9277.100586
421.231232 11155.59668
421.23941 10483.310547
421.24762 8846.15625
421.255829 6019.918945
421.698853 2213.128662
421.707062 14307.299805
421.715302 30405.867188
421.723511 42900.300781
421.73172 39144.792969
421.739929 25534.914062
421.748138 13101.616211
421.756348 3158.128418
423.684692 1235.280151
423.692963 10179.90332
423.701233 38450.714844
423.709503 81194.242188
423.717773 119419.054688
423.726044 122116.21875
423.734314 81145.179688
423.742584 37930.308594
423.750854 8987.1875
423.759125 1766.287842
424.206146 1248.513062
424.214417 11413.962891
424.222717 16541.136719
424.230988 16711.017578
424.239288 12062.442383
424.247559 5834.566895
426.209747 1360.869263
426.218079 8424.073242
426.22641 17255.728516
426.234772 28261.181641
426.243103 25903.300781
426.251465 12835.72168
426.259796 5532.872559
428.723724 1359.486816
428.732147 11587.616211
428.74057 33836.769531
428.748993 45778.992188
428.757416 42776.507812
428.765839 26751.197266
428.774231 11434.475586
428.782654 920.217529
429.220764 920.302795
429.229218 6189.785156
429.23764 16450.558594
429.246063 32056.292969
429.254517 33864.039062
429.262939 23322.175781
429.271362 12524.267578
429.279816 5021.477539
429.701782 165.797714
429.710236 4665.953613
429.718689 13473.21875
429.727112 40873.109375
429.735565 66272.515625
429.744019 75109.164062
429.752472 53252.394531
429.760895 26086.947266
429.769348 4224.463867
430.200531 1075.289795
430.208984 6512.233398
430.217438 12359.072266
430.225891 16927.058594
430.234375 17639.425781
430.242828 14431.818359
430.251282 9083.609375
430.259766 3873.075684
430.268219 13.524757
434.196136 13.470894
434.204712 5137.827637
434.213318 20856.675781
434.221893 45003.3125
434.230469 71507.90625
434.239044 79342.84375
434.24762 54145.699219
434.256195 27013.595703
434.264771 5688.029297
434.676941 1614.70166
434.685547 8155.198242
434.694153 10480.557617
434.702728 12559.499023
434.711334 18893.988281
434.71991 72025.304688
434.728516 222806.625
434.737122 458716.53125
434.745697 673414.1875
434.754303 674455.375
434.762909 437865.75
434.771484 211173.234375
434.78009 57610.148438
434.788696 15644.112305
434.797272 11294.885742
434.805878 8699.092773
434.814484 8833.381836
435.210205 699.595032
435.218811 5235.690918
435.227417 19089.835938
435.236023 45568.8125
435.244629 70637.023438
435.253265 78534.789062
435.261871 57189.804688
435.270477 31077.582031
435.279083 9391.295898
435.287689 957.280884
437.6828 1611.611816
437.691498 13525.274414
437.700165 37747.835938
437.708862 64915.714844
437.717529 83312.640625
437.726227 70309.984375
437.734894 41189.289062
437.743591 16008.052734
437.752258 3590.407715
439.712799 1365.788086
439.721558 8105.850586
439.730286 13829.56543
439.739044 17653.363281
439.747772 16747.644531
439.756531 11180.987305
439.765259 4506.655762
440.202789 1178.778076
440.211548 6629.178711
440.220306 9779.783203
440.229065 12154.142578
440.237823 12367.963867
440.246582 9483.594727
440.255341 4552.921875
442.70047 141.094223
442.70929 2509.55835
442.71814 16418.021484
442.726959 57502.742188
442.735809 105519.335938
442.744629 140101.625
442.753479 124410.132812
442.762299 76259.5625
442.771118 32984.246094
442.779968 6357.576172
442.788788 258.557373
443.186615 234.778259
443.195465 3712.431641
443.204315 9995.138672
443.213165 10333.355469
443.222015 12827.676758
443.230865 28581.763672
443.239716 82916.695312
443.248566 197256.25
443.257416 313208.03125
443.266266 353023.15625
443.275116 246135.3125
443.283966 127464.65625
443.292816 36484.988281
443.301666 5166.631348
443.726746 574.023254
443.735626 4094.802246
443.744476 11412.546875
443.753357 24250.853516
443.762207 32252.197266
443.771088 25467.443359
443.779938 13170.852539
443.788818 4155.660645
448.218506 750.327026
448.227509 6510.339844
448.236511 20490.53125
448.245514 35961.167969
448.254517 46274.777344
448.263519 37996.875
448.272522 20708.640625
448.281494 5462.759277
448.69577 1580.459595
448.704773 10070.564453
448.713806 40858.496094
448.722809 142687.796875
448.731812 334882.875
448.740845 518292.84375
448.749847 573976.375
448.75885 408838.5625
448.767883 217754.328125
448.776886 68134.953125
448.785919 17863.193359
448.794922 10708.479492
448.803925 11170.12793
448.812958 11387.854492
448.82196 642.796387
449.2099 915.594055
449.218933 7816.571289
449.227966 29730.751953
449.236969 57518.617188
449.246002 81656.5625
449.255035 80258.5
449.264069 58196.128906
449.273102 33283.363281
449.282135 11784.730469
450.213623 846.951904
450.222687 7373.346191
450.23175 22581.162109
450.240814 40781.988281
450.249847 55301.640625
450.258911 47920.207031
450.267975 28068.259766
450.277039 11549.777344
450.286102 3483.705322
451.739197 1459.829834
451.748291 8995.040039
451.757416 17694.550781
451.76651 31411.017578
451.775604 31347.734375
451.784729 19961.478516
451.793823 8085.736816
451.802917 2517.221924
453.712067 912.907104
453.721222 5644.898438
453.730408 9675.06543
453.739563 11946.673828
453.748718 10920.614258
453.757874 6971.774902
453.767059 2709.229736
457.177277 134.767685
457.186554 2366.145996
457.195831 14830.055664
457.205078 41511.714844
457.214355 74834.234375
457.223633 205154.09375
457.23291 696686.4375
457.242188 1851958.125
457.251434 3114178.0
457.260712 3921955.25
457.269989 3129199.0
457.279266 1805355.25
457.288544 669468.75
457.297791 181199.078125
457.307068 61909.5625
457.316345 40578.84375
457.325623 18432.693359
457.3349 11348.556641
457.706055 301.034241
457.715332 4345.103027
457.72464 20951.726562
457.733917 77634.125
457.743195 223354.171875
457.752502 384374.71875
457.76178 500391.90625
457.771057 402974.125
457.780334 234795.4375
457.789642 81646.585938
457.79892 18697.019531
457.808197 2358.343262
462.204956 161.69487
462.214386 2657.628418
462.223785 15141.360352
462.233215 44201.304688
462.242645 74831.8125
462.252075 95917.734375
462.261475 77692.867188
462.270905 45208.726562
462.280334 15604.481445
462.289764 3104.752197
462.695282 1002.655823
462.704712 10073.112305
462.714172 36595.949219
462.723602 114763.820312
462.733032 219849.234375
462.742462 313165.4375
462.751923 297820.03125
462.761353 190364.171875
462.770782 87881.0
462.780243 20414.722656
462.789673 4818.41748
463.214752 577.90863
463.224213 4124.481934
463.233673 9324.011719
463.243134 13163.78418
463.252563 12300.925781
463.262024 7249.916504
463.271484 2096.528076
465.720459 436.776489
465.72998 5868.079102
465.739502 32564.876953
465.749054 83458.257812
465.758575 133290.453125
465.768097 153207.765625
465.777649 119060.117188
465.78717 66678.46875
465.796692 22542.800781
465.806244 3847.370117
466.235504 849.8479
466.245026 5686.674316
466.254578 11825.231445
466.26413 16078.418945
466.273682 15379.786133
466.283234 10598.125977
466.292755 4627.371094
470.53183 857.140808
470.541504 5363.414062
470.551178 9112.142578
470.560852 10106.364258
470.570526 7252.664551
470.5802 2898.229248
471.171204 490.405762
471.180908 8396.999023
471.190613 55651.28125
471.200287 162937.515625
471.209991 253428.84375
471.219696 684833.25
471.229401 2289048.25
471.239105 5940588.5
471.248779 9828598.0
471.258484 12138817.0
471.268188 9519931.0
471.277893 5441628.0
471.287598 1973335.5
471.297302 548304.25
471.307007 199548.296875
471.316711 144548.359375
471.326416 36856.023438
471.336121 2576.564209
471.685608 470.891968
471.695312 5462.805176
471.705017 20474.140625
471.714722 43254.230469
471.724457 153328.3125
471.734161 480418.5
471.743866 1038408.875
471.753601 1567102.75
471.763306 1654682.25
471.773041 1126876.5
471.782745 579441.75
471.79245 176476.703125
471.802185 53619.585938
471.81189 26174.861328
471.821625 11650.28418
471.831329 3268.388428
473.194794 411.088684
473.204559 3726.888916
473.214294 14591.451172
473.22406 64269.460938
473.233826 184696.953125
473.243591 334371.46875
473.253357 458814.40625
473.263123 401943.5625
473.272888 239919.5625
473.282654 100212.546875
473.292389 19463.396484
473.302155 2979.115234
473.72226 1004.990295
473.732056 8677.683594
473.741821 27950.048828
473.751587 44632.257812
473.761383 48175.855469
473.771149 33829.605469
473.780945 17886.068359
473.79071 4196.844238
474.240845 816.922607
474.250641 6990.59375
474.260437 20818.351562
474.270233 33732.15625
474.280029 41513.40625
474.289825 34104.535156
474.299591 19376.335938
474.309387 5783.947754
479.722717 690.380493
479.732697 5879.63916
479.742645 18089.228516
479.752625 33440.3125
479.762573 44790.976562
479.772552 38934.660156
479.782501 23191.121094
479.79248 9289.927734
479.802429 952.774048
480.211273 400.562378
480.221252 3662.112549
480.231232 16786.554688
480.241211 48208.726562
480.25119 89408.976562
480.261169 121399.523438
480.271149 107910.46875
480.281128 64661.769531
480.291107 27963.177734
480.301086 7545.220703
480.311066 1332.93396
480.73056 1147.336548
480.74054 7081.02002
480.750549 10826.487305
480.760529 11816.079102
480.770538 9784.086914
480.780518 5675.006348
485.188721 3643.661377
485.198853 22256.175781
485.208984 45514.410156
485.219147 158598.9375
485.229279 503020.28125
485.23941 1077784.5
485.249542 1620307.25
485.259674 1699006.375
485.269806 1152687.0
485.279938 588960.6875
485.29007 178760.234375
485.300232 55671.875
485.310364 31033.474609
485.320496 15440.087891
485.330627 4285.126465
485.705963 1244.813599
485.716095 10212.963867
485.726257 41726.675781
485.736389 125197.367188
485.746552 218596.796875
485.756714 273912.65625
485.766846 215928.8125
485.777008 122227.210938
485.78717 42615.875
485.797302 5648.646484
486.712341 286.533356
486.722504 3320.47168
486.732697 15602.664062
486.742889 39119.125
486.753052 62261.917969
486.763245 70012.539062
486.773438 49598.222656
486.7836 25737.818359
486.793793 8350.835938
486.803986 2467.227295
487.191193 657.19696
487.201416 4115.142578
487.211609 14269.708008
487.221802 59568.265625
487.231995 168661.15625
487.242188 293572.15625
487.25238 376960.0
487.262573 310154.0
487.272797 179112.53125
487.28299 70214.867188
487.293182 20424.556641
487.303375 2966.737305
487.711639 535.530457
487.721832 4812.737305
487.732056 19152.986328
487.742279 41401.347656
487.752472 54077.585938
487.762695 45680.65625
487.772919 26138.683594
487.783142 5719.291992
488.222656 704.674622
488.23291 4938.650391
488.243134 14301.547852
488.253357 46778.707031
488.26358 96785.179688
488.273804 140768.640625
488.284058 139215.71875
488.294281 89757.320312
488.304504 39746.488281
488.314728 9561.103516
488.324982 656.683838
494.199402 868.143372
494.209808 7815.871582
494.220245 33270.460938
494.230652 118696.367188
494.241058 318539.15625
494.251495 530576.1875
494.261902 654868.875
494.272339 505628.3125
494.282745 289017.78125
494.293182 94726.171875
494.303589 20877.246094
494.313995 4379.89502
494.710236 359.56839
494.720673 3730.604492
494.73111 18080.087891
494.741547 56369.859375
494.751984 95468.367188
494.76239 114614.960938
494.772827 88526.9375
494.783264 47649.742188
494.793701 13301.182617
494.804138 3173.048828
502.233887 696.095764
502.244568 5863.398438
502.255219 16905.277344
502.2659 30279.949219
502.276581 37484.285156
502.287262 26641.144531
502.297913 12801.717773
502.308594 3624.940186
506.757202 582.426392
506.768005 6685.183105
506.778839 15384.141602
506.789642 22332.660156
506.800446 22669.173828
506.811279 16274.583984
506.822083 7542.8125
520.744995 666.698792
520.756226 8720.208984
520.767517 29381.972656
520.778748 67572.570312
520.790039 98282.976562
520.801331 90766.65625
520.812561 57098.429688
520.823853 24873.117188
520.835144 6360.436035
521.241089 648.380493
521.25238 4832.628906
521.263672 11869.939453
521.274963 24417.818359
521.286255 32084.402344
521.297546 25206.429688
521.308777 10480.287109
521.320068 3873.781494
522.224182 786.808838
522.235474 7058.646484
522.246826 21154.09375
522.258118 34895.511719
522.269409 44408.910156
522.280762 36300.40625
522.292053 20551.375
522.303406 7170.145508
522.314697 2703.357178
529.715576 760.999695
529.727112 5231.311523
529.738647 11290.902344
529.750244 33076.59375
529.76178 116536.328125
529.773376 325193.78125
529.784912 577179.8125
529.796509 767975.4375
529.808044 658028.0
529.81958 396595.71875
529.831177 163940.53125
529.842712 42568.660156
529.854309 10435.943359
529.865845 5281.005859
530.247742 1808.665527
530.259277 15202.858398
530.270874 43982.875
530.282471 86097.804688
530.294006 116501.265625
530.305603 107011.4375
530.3172 67423.3125
530.328796 30079.789062
530.340332 5594.787109
534.733276 478.00882
534.744995 6900.788086
534.756714 41118.191406
534.768433 112041.507812
534.780151 182214.953125
534.791931 211468.953125
534.80365 155437.25
534.815369 85346.914062
534.827087 24303.244141
534.838806 2606.644775
534.850525 253.532623
535.249512 4961.546387
535.261292 17527.298828
535.27301 35411.78125
535.28479 54664.285156
535.296509 51745.578125
535.308228 31658.259766
535.320007 12261.71582
535.331726 1170.054932
536.248962 838.987854
536.260742 6320.967773
536.272522 12867.272461
536.284302 16388.115234
536.296082 14100.829102
536.307861 8260.957031
536.319641 2898.012939
542.244934 481.256287
542.256897 3832.213623
542.26886 8724.918945
542.280823 12441.451172
542.292786 13075.050781
542.30481 10284.443359
542.316772 5259.265137
543.288025 156.05394
543.300049 2153.018311
543.312073 4909.554199
543.324036 8769.413086
543.33606 10710.588867
543.348083 9204.634766
543.360107 5496.981934
543.37207 1989.755859
543.648438 17542.044922
543.660461 93501.789062
543.684509 6521.712891
543.696533 70951.953125
543.708557 179750.484375
543.720581 486466.84375
543.732544 731046.0625
543.744568 1348460.625
543.756592 4370450.0
543.768616 12713830.0
543.78064 23182366.0
543.792664 32025032.0
543.804688 28309458.0
543.816711 17230496.0
543.828735 7403172.0
543.840759 2063818.375
543.852783 741528.25
543.864807 612998.8125
543.876892 333731.125
543.888916 118701.015625
543.90094 17484.404297
544.201721 1110.428223
544.213745 13886.152344
544.22583 56004.050781
544.237854 100798.078125
544.249878 333514.59375
544.261902 1132204.125
544.273987 2916574.75
544.286011 4719750.0
544.298035 5682359.5
544.310059 4277760.5
544.322144 2414626.0
544.334167 790644.9375
544.346191 214580.984375
544.358276 72202.210938
544.3703 51113.683594
544.382324 2298.96875
561.252014 996.35675
561.264587 5753.375
561.277222 10790.37207
561.289795 13495.876953
561.302429 11857.735352
561.315002 7471.114746
561.327637 2432.327881
570.23407 4417.583496
570.247009 19198.0
570.259888 39002.394531
570.272827 52388.292969
570.285706 46003.445312
570.298645 28821.996094
570.311584 12611.279297
570.324463 3929.724121
598.22168 1124.541626
598.235535 6938.386719
598.24939 14995.700195
598.263306 27392.769531
598.277161 29487.099609
598.291016 13988.467773
598.304932 5925.627441
610.233704 1269.017578
610.247986 5970.363281
610.262268 9530.046875
610.276611 10273.605469
610.290894 7289.645996
610.305176 2879.069336
644.315796 1441.957275
644.331299 6936.957031
644.346802 10286.355469
644.362305 10247.499023
644.377808 7518.186523
644.393311 3887.651367
672.319397 1479.672974
672.335938 7310.807129
672.352478 10765.271484
672.368958 11896.84375
672.385498 10441.245117
672.402039 6033.132324
684.278625 2157.813477
684.295593 12428.379883
684.312561 29803.382812
684.329529 45584.042969
684.346497 48733.613281
684.363464 33800.960938
684.380493 17449.119141
684.397461 5070.92627
700.322754 1046.993164
700.340271 5129.481934
700.357849 9577.822266
700.375427 11532.125
700.393005 9543.239258
700.410583 4277.407227
701.290222 2972.589111
701.307861 17084.972656
701.325439 43389.296875
701.343079 72750.59375
701.360657 82850.828125
701.378296 62942.902344
701.395874 33915.273438
701.413513 12428.988281
701.431152 2678.268799
706.318115 1305.650879
706.335938 6307.858887
706.35376 11978.226562
706.371521 16229.704102
706.389343 15863.717773
706.407166 11226.425781
706.424927 4325.315918
712.264648 4597.893066
712.282715 21355.992188
712.30072 46171.910156
712.318726 66960.523438
712.336792 64488.226562
712.354797 42766.277344
712.372864 20338.042969
712.390869 6192.589355
712.408875 1360.383057
721.307922 1475.048462
721.326294 6744.897949
721.344666 10683.311523
721.363037 11144.266602
721.381409 7824.351074
721.39978 3255.634766
726.330261 1110.045532
726.348816 5546.726562
726.367371 10015.97168
726.385925 10956.058594
726.40448 7495.547363
726.423035 2662.456543
729.271729 2273.317871
729.290405 13993.430664
729.309082 44314.570312
729.327759 97798.5625
729.346436 140698.75
729.365112 138195.3125
729.383789 89511.6875
729.402466 41207.125
729.421143 10909.929688
729.439819 2509.952393
730.299866 1843.716553
730.318604 7914.912598
730.337341 10801.739258
730.356018 10597.103516
730.374756 8351.047852
730.393494 4708.815918
735.340942 1436.084106
735.359863 6692.052246
735.378784 10973.331055
735.397705 12995.27832
735.416565 11908.686523
735.435486 8483.066406
735.454407 3863.564941
747.321289 1298.029053
747.340698 6620.270996
747.360046 12453.974609
747.379395 15701.047852
747.398804 13759.758789
747.418152 8206.316406
747.437561 2836.787354
754.304749 1592.298218
754.324402 8884.500977
754.343994 20869.447266
754.363647 31703.695312
754.383301 36105.351562
754.402954 28096.753906
754.422607 15388.476562
754.442261 4746.65332
755.327209 1396.060059
755.346924 8710.761719
755.366577 22250.162109
755.386292 35056.070312
755.405945 41479.511719
755.425659 34019.695312
755.445312 19350.113281
755.465027 6510.714355
755.484741 1831.172119
757.279663 1043.963379
757.299377 5064.311035
757.319153 10215.693359
757.338928 13123.257812
757.358704 11575.306641
757.378479 7060.22998
757.398193 2534.510254
766.290649 1503.618652
766.31073 7478.118164
766.330872 17902.216797
766.350952 32411.322266
766.371094 40527.074219
766.391174 32899.808594
766.411316 18350.439453
766.431458 7191.778809
766.451538 2573.019287
767.337585 1978.121338
767.357727 8205.069336
767.37793 13009.257812
767.398071 13899.928711
767.418213 10111.049805
767.438354 4249.784668
769.357056 1292.538574
769.377258 5750.225586
769.397522 10076.354492
769.417725 11368.65625
769.437988 8489.938477
769.458191 3557.732666
772.360474 1834.160278
772.380798 7691.84082
772.401184 12544.295898
772.421509 14207.49707
772.441895 11092.426758
772.462219 5014.140137
783.303101 2058.907715
783.323853 14875.341797
783.344666 54568.464844
783.365417 125987.460938
783.38623 193892.421875
783.407043 216626.828125
783.427795 161713.171875
783.448608 88070.625
783.469421 28395.591797
783.490173 4691.037109
784.343445 1878.264404
784.364258 7821.001953
784.385132 12736.729492
784.405945 15816.063477
784.426758 15139.917969
784.447632 10681.12793
784.468445 4503.264648
794.288818 1512.858643
794.310059 6947.837402
794.331299 15014.573242
794.352539 26100.945312
794.373718 27379.220703
794.394958 14806.058594
794.416199 7738.119141
794.437439 2436.433838
797.354187 2144.110352
797.375549 11396.25
797.396912 24976.574219
797.418213 33465.894531
797.439575 28479.400391
797.460938 14559.667969
797.4823 3872.91626
800.308472 873.400146
800.329956 6668.778809
800.35144 24174.855469
800.372925 80197.265625
800.394348 176579.03125
800.415833 272971.8125
800.437317 294889.875
800.458801 196792.65625
800.480286 101287.265625
800.501709 28615.457031
800.523193 4133.302734
801.339905 1221.721191
801.36145 5725.672363
801.382935 13113.274414
801.40448 25514.179688
801.425964 35155.792969
801.44751 33302.742188
801.468994 21173.546875
801.490479 9479.139648
801.512024 2536.21875
811.282593 882.814087
811.304504 8033.445801
811.326416 25582.662109
811.348328 82339.109375
811.370239 163553.453125
811.392151 229649.34375
811.414124 210104.609375
811.436035 128130.804688
811.457947 54908.03125
811.479858 12173.265625
811.50177 332.460114
812.335327 1896.031128
812.3573 8238.709961
812.379272 13689.526367
812.401184 16632.759766
812.423157 14446.231445
812.445129 8366.703125
812.467102 2592.203613
813.368103 1504.722046
813.390137 6677.641602
813.412109 11908.726562
813.434143 16755.933594
813.456116 18556.632812
813.478088 15525.244141
813.500122 9236.214844
813.522095 3322.14624
814.358826 1574.912231
814.380859 11537.669922
814.402893 34610.636719
814.424927 55373.148438
814.44696 62418.160156
814.468994 45344.023438
814.491028 21900.931641
814.513062 4145.047852
825.331848 1990.671143
825.35437 9142.219727
825.376831 18339.888672
825.399292 29279.820312
825.421814 27954.255859
825.444275 13191.605469
825.466797 5566.625977
828.262329 1061.536621
828.284912 5704.180664
828.307495 9011.474609
828.330139 18288.705078
828.352722 69661.625
828.375366 194544.75
828.397949 353668.09375
828.420532 474160.34375
828.443176 415495.46875
828.465759 248328.328125
828.488403 103634.515625
828.510986 25235.957031
828.53363 4055.68042
829.325623 3173.796631
829.348267 16881.070312
829.370911 38839.277344
829.393555 61355.90625
829.416199 68530.140625
829.438843 53397.25
829.461548 30441.433594
829.484192 12064.111328
829.506836 2982.120361
834.398743 844.030212
834.42157 4534.165039
834.444458 9590.24707
834.467285 12107.384766
834.490173 9651.958008
834.513 4072.712646
842.339478 2643.022461
842.362671 17155.392578
842.385864 52861.96875
842.408997 106338.1875
842.43219 143254.515625
842.455383 132020.15625
842.478577 83101.414062
842.50177 36814.960938
842.524963 9588.288086
842.548157 2941.355713
846.317383 1330.901245
846.340759 10776.31543
846.364075 47627.363281
846.387451 117350.382812
846.410767 194295.4375
846.434143 231836.265625
846.45752 184253.921875
846.480835 102858.578125
846.504211 36705.128906
846.527527 6571.782715
846.550903 1350.773315
847.34552 1001.120789
847.368896 5193.843262
847.392273 14645.022461
847.41571 28052.027344
847.439087 32532.621094
847.462463 23603.185547
847.48584 10791.801758
847.509277 3725.519043
856.326965 5994.250977
856.350708 27101.935547
856.374512 54734.015625
856.398254 77891.34375
856.421997 79378.984375
856.445801 57760.75
856.469543 28625.419922
856.493286 5541.964355
856.51709 186.269455
857.325806 2040.873413
857.349609 9916.100586
857.373413 21572.994141
857.397217 31842.875
857.421021 31900.662109
857.444824 19344.541016
857.468628 6816.896484
857.492432 1814.493652
858.350159 842.782654
858.374023 5109.998535
858.397888 12349.291016
858.421692 30131.412109
858.445557 48644.929688
858.469421 58040.453125
858.493286 43647.335938
858.517151 23698.498047
858.540955 7452.687012
858.564819 1026.077271
867.386536 2058.933105
867.410767 7927.186035
867.434937 11856.213867
867.459167 12841.672852
867.483398 10388.316406
867.507629 5062.242676
873.376038 1864.065186
873.400513 7428.075195
873.424988 11577.555664
873.449463 12288.551758
873.473938 8545.108398
873.498413 3222.891113
874.306763 981.845703
874.331299 7663.502441
874.355774 32531.652344
874.38031 88697.859375
874.404846 154146.640625
874.429321 193736.3125
874.453857 160954.21875
874.478394 92583.578125
874.502869 34716.289062
874.527405 6266.396484
875.337219 1609.034424
875.361755 7129.883789
875.386292 13570.280273
875.410889 18257.115234
875.435425 17768.890625
875.460022 12634.5625
875.484558 5551.173828
896.385498 1203.506104
896.41095 7423.974609
896.436401 19465.253906
896.461853 32971.6875
896.487305 41529.730469
896.512756 34530.644531
896.538208 18742.107422
896.56366 5652.898926
913.419556 1303.442871
913.44574 5879.812012
913.471924 10756.912109
913.498108 13601.770508
913.524292 12636.941406
913.550476 8347.129883
913.57666 3063.875977
924.353577 804.147888
924.380188 7432.480469
924.40686 31225.925781
924.433472 73120.726562
924.460144 118670.476562
924.486816 130744.5625
924.513428 92446.210938
924.5401 45707.769531
924.566772 13767.112305
924.593445 188.545059
925.420349 2467.571533
925.447083 10370.652344
925.473755 16786.474609
925.500427 19357.943359
925.527161 15736.572266
925.553833 8545.631836
925.580566 2554.846924
928.390442 1662.44397
928.417297 7297.916992
928.444092 13315.355469
928.470947 22355.765625
928.497742 30350.867188
928.524597 20026.761719
928.551392 8393.074219
928.578247 2890.938232
941.372803 888.296387
941.400146 10428.351562
941.427551 40450.207031
941.454956 108190.0625
941.482361 188018.5625
941.509705 245609.84375
941.537109 191766.828125
941.564514 107411.398438
941.591919 38253.230469
941.619324 6516.638672
942.414368 2134.587158
942.441772 8938.899414
942.469177 18703.498047
942.496643 27492.076172
942.524048 22698.384766
942.551514 10438.538086
942.578979 3407.147705
943.430176 1723.692505
943.457642 6633.991699
943.485107 10519.730469
943.512573 11422.442383
943.540039 8826.038086
943.567566 3899.123779
945.356445 2198.996826
945.383972 11300.576172
945.41156 47791.507812
945.439148 140483.6875
945.466675 271144.0625
945.494263 367985.40625
945.521851 335966.125
945.549377 205608.78125
945.576965 90404.039062
945.604553 21675.179688
945.63208 2977.568115
946.404602 1117.950073
946.43219 5730.141602
946.459839 16447.390625
946.487427 30360.402344
946.515076 32410.757812
946.542664 23511.634766
946.570251 12734.282227
946.5979 4225.154785
956.393738 2708.15332
956.421753 10473.490234
956.449829 16763.767578
956.477844 18682.820312
956.50592 14341.856445
956.533936 7092.070801
956.562012 1918.331055
959.373413 405.618317
959.40155 3297.887451
959.429749 12894.96582
959.457947 35541.3125
959.486084 65561.835938
959.514282 89989.84375
959.54248 80353.1875
959.570679 47202.621094
959.598816 19174.097656
959.627014 3642.935303
969.282898 1326.53064
969.311462 7189.699707
969.340088 11987.724609
969.368713 18540.181641
969.397339 58339.355469
969.425964 183757.65625
969.45459 429938.46875
969.483215 671424.125
969.511841 764055.75
969.540466 555537.8125
969.569092 296894.96875
969.597717 88187.242188
969.626343 18384.175781
969.654968 4661.672852
970.371094 837.077698
970.39978 8744.013672
970.428406 32012.914062
970.457092 66288.226562
970.485779 92403.835938
970.514404 88587.226562
970.543091 59815.054688
970.571777 28759.132812
970.600464 8140.098145
970.629089 863.213745
973.330017 1082.153442
973.358826 5744.505859
973.387573 23449.763672
973.416382 90473.0
973.44519 214517.046875
973.473999 341436.1875
973.502808 396775.6875
973.531616 300382.90625
973.560364 162305.15625
973.589172 54697.503906
973.617981 14915.84668
973.64679 4469.779785
974.39624 1598.417114
974.425049 7189.826172
974.453918 14151.125
974.482727 18887.134766
974.511597 18129.287109
974.540466 12964.708984
974.569275 6948.418945
974.598145 2447.317627
987.328613 659.888794
987.358032 4075.000977
987.387451 15043.273438
987.41687 62857.328125
987.446289 178667.9375
987.475708 345416.53125
987.505127 485281.8125
987.534546 460987.28125
987.563965 289023.71875
987.593384 133808.640625
987.622864 32400.074219
987.652283 4407.208496
988.388428 869.797363
988.417908 6142.856934
988.447388 19141.189453
988.476868 36976.621094
988.506287 49853.644531
988.535767 46122.722656
988.565247 28987.984375
988.594727 12525.34375
988.624207 2169.297363
1003.437317 1419.525024
1003.467468 9249.479492
1003.497559 24000.253906
1003.52771 35983.296875
1003.557861 37757.6875
1003.588013 26730.691406
1003.618164 14071.576172
1003.648315 4146.249512
1098.211548 3312.899414
1098.245972 13176.410156
1098.280518 17473.447266
1098.315063 16735.015625
1098.349609 11378.095703
1098.384033 4555.805664
END IONS
