BEGIN IONS
PEPMASS=521.28
CHARGE=2
MSLEVEL=2
SOURCE_INSTRUMENT=LC-ESI-Orbitrap
FILENAME=f.Rolandoo1/20190519 Moroidin paper GNPS/Amaranthipeptide A.mzXML;
SEQ=*..*
IONMODE=Positive
ORGANISM=GNPS-LIBRARY
NAME=Amaranthipeptide A M+2H
PI=Jing-Ke Weng
DATACOLLECTOR=Roland Kersten
SMILES=O=C1CC[C@@H](C(N[C@H](C(N[C@@H](CC(C)C)C(N[C@@H]([C@@H](C)CC)C(N[C@@](C(N2[C@H](C3=O)CCC2)=O)([H])CC4=C(N5C=NC(C[C@@H](C(O)=O)NC([C@@H](N3)CCCNC(N)=N)=O)=C5)NC6=C4C=CC7=C6)=O)=O)=O)[C@@H]7C(C)C)=O)N1
INCHI=
INCHIAUX=
PUBMED=
SUBMITUSER=Rolandoo1
TAGS=
LIBRARYQUALITY=3
SPECTRUMID=CCMSLIB00005435903
SCANS=1
76.129494 1867.543579
76.130127 3410.433838
76.130753 3941.314697
76.131386 3415.384521
76.132011 2215.793457
76.132645 353.784424
81.989586 1836.651367
81.990288 3406.359375
81.990997 3911.419189
81.991699 3139.341064
81.992401 1659.926758
81.993103 220.194977
82.700249 378.027863
82.700966 608.098267
82.701675 649.359314
82.702393 495.158752
82.703102 257.302124
82.703819 21.254732
84.039894 305.957336
84.040619 533.238831
84.041351 1451.285889
84.042084 14279.057617
84.042816 53183.054688
84.043541 119002.328125
84.044273 189854.046875
84.045006 203312.984375
84.045738 138104.8125
84.046463 70075.570312
84.047195 20214.0
84.047928 5181.234863
84.04866 2900.194336
84.049393 1476.503296
84.050117 25.626133
85.046013 143.519638
85.046761 429.892792
85.047501 760.480103
85.048248 933.182617
85.048988 821.319458
85.049736 506.720245
85.050476 200.328293
85.051224 9.515937
86.090767 6179.884277
86.091522 15706.142578
86.092278 55616.578125
86.09304 78962.78125
86.093796 198535.125
86.094551 663186.4375
86.095306 1740493.375
86.096069 2946083.0
86.096825 3628350.75
86.09758 2775308.75
86.098343 1598515.25
86.099098 545737.0625
86.099854 145691.890625
86.100616 56574.066406
86.101372 45339.730469
86.102127 13678.695312
86.102882 2513.118896
86.103645 168.515457
87.095505 71.218369
87.096275 642.608643
87.097046 2597.628662
87.097816 11908.676758
87.098587 31765.201172
87.099358 52465.464844
87.100136 63098.390625
87.100906 48200.617188
87.101677 27065.642578
87.102448 9418.085938
87.103218 1972.390137
87.103989 14.354743
90.9739 169.710876
90.974724 789.982178
90.975548 1879.902466
90.976372 2979.269287
90.977196 3295.870117
90.978012 2360.025391
90.978836 1194.245972
90.97966 374.659729
90.980484 30.99123
92.946365 1429.703735
92.947212 3088.457275
92.948067 4140.265137
92.948914 3828.447266
92.94976 2365.041992
95.395821 3.95269
95.396698 301.493866
95.397583 546.740112
95.398468 641.888062
95.399353 528.328613
95.400238 293.316345
110.066109 85.868675
110.067207 1095.069946
110.068298 6013.712402
110.069397 16155.99707
110.070488 25788.177734
110.071587 28528.367188
110.072685 20611.240234
110.073776 10545.855469
110.074875 2903.375488
110.075966 990.422729
112.08181 100.250168
112.082932 1185.788452
112.084053 7143.484375
112.085182 14339.834961
112.086304 20695.697266
112.087433 20494.230469
112.088554 13563.106445
112.089684 5398.845215
112.090805 1294.75415
113.067146 211.778564
113.068291 1688.114746
113.069427 3536.649658
113.070564 5002.38916
113.071709 4922.703125
113.072845 3358.027344
113.07399 1500.01001
113.075127 384.507996
113.109344 99.950249
113.110481 2732.266602
113.111626 3832.4375
113.112762 4095.019043
113.113907 3382.380371
113.115044 2058.589355
113.117325 83.102921
113.118469 2301.450439
113.119606 4083.714844
113.12075 5070.100098
113.121887 4413.464844
113.123032 2477.126953
114.050522 159.832611
114.051682 1271.397583
114.052834 3342.501953
114.053993 6296.990234
114.055145 8121.506348
114.056297 6337.820801
114.057457 2941.85791
114.058609 1033.863892
114.087494 241.801346
114.088646 1833.352783
114.089806 3643.109863
114.090958 4941.95166
114.092117 4810.920898
114.093269 3391.461426
114.094421 1645.187622
114.095581 394.34967
115.081894 108.382027
115.083069 870.159485
115.084236 2297.638672
115.085411 4415.928711
115.086578 6887.116211
115.087753 5508.060547
115.088921 2615.837158
115.090096 983.530762
125.067184 199.200623
125.068512 1095.127319
125.069839 1750.575684
125.071159 2032.085571
125.072487 1700.998535
125.073814 875.169434
127.940697 204.137558
127.94207 1055.871094
127.943443 1603.767822
127.944817 1752.035522
127.94619 1391.699951
127.947563 689.686707
129.059494 104.499054
129.060883 775.426941
129.062271 2708.596924
129.06366 6247.036621
129.065048 9365.148438
129.066437 9949.408203
129.067825 6938.666504
129.069214 3564.118896
129.070618 1072.203735
131.112045 44.356575
131.113464 626.696838
131.114899 2341.73584
131.116318 3806.322754
131.117737 4489.0625
131.119171 3893.368652
131.12059 2424.760742
131.122009 928.38678
140.077072 291.900574
140.078644 1357.141357
140.080215 2260.317871
140.081787 2691.312256
140.083359 2368.224854
140.08493 1502.945068
140.086502 582.346008
141.061615 67.038155
141.063202 346.058563
141.064789 555.588318
141.066376 600.566528
141.067963 446.342957
141.06955 198.625916
148.682343 47.280468
148.684067 296.140015
148.685776 499.778351
148.6875 585.894592
148.689224 486.579498
148.690933 244.837158
150.397232 77.203033
150.398972 440.240448
150.400726 604.907532
150.402481 610.276001
150.404221 444.656921
150.405975 199.143005
152.099258 195.777054
152.101028 1319.641479
152.102814 3739.294678
152.104599 7158.952637
152.106369 9676.994141
152.108154 8387.664062
152.109924 4695.396973
152.11171 1757.147461
152.113495 678.790894
153.058945 243.535095
153.06073 1403.094971
153.062531 3038.119629
153.064331 4340.662109
153.066116 4456.157227
153.067917 3272.633301
153.069717 1610.704224
153.071503 395.728546
154.149246 273.784485
154.151062 1991.688232
154.152878 9368.179688
154.154694 26114.703125
154.156509 48492.226562
154.158325 66864.242188
154.160141 55133.984375
154.161957 33700.824219
154.163773 14826.703125
154.165588 3439.628418
154.167404 692.555359
156.068893 322.475037
156.07074 2687.596436
156.072586 9508.703125
156.074432 18004.208984
156.076279 23580.269531
156.07814 20400.548828
156.079987 11748.268555
156.081833 3639.702881
156.083679 901.977722
157.101913 55.124371
157.10379 374.648163
157.105652 735.650391
157.107513 989.575439
157.10939 952.846558
157.111252 652.154541
157.113113 277.115906
158.0849 127.560951
158.086792 840.078857
158.088669 2081.591553
158.090561 3399.799072
158.092438 4002.058838
158.09433 3463.543457
158.096207 2164.246826
158.098099 870.466064
164.685181 169.697571
164.68718 1811.678955
164.689194 3739.225342
164.691193 4729.281738
164.693192 4160.005371
164.695206 2443.64624
167.108368 115.488876
167.110413 758.381714
167.112457 1987.461304
167.114502 3969.270996
167.116562 5767.157227
167.118607 6953.986328
167.120651 3769.554688
167.122696 1905.736694
167.124756 578.318176
170.478928 25.591305
170.481049 228.066254
170.483154 372.342102
170.48526 420.292908
170.487381 348.608551
170.489487 200.756012
175.109085 246.818237
175.111282 2609.087402
175.11348 10960.749023
175.115677 20871.673828
175.117874 28459.246094
175.120071 27017.185547
175.122269 17873.382812
175.124466 8423.914062
175.126663 1658.216431
175.12886 178.369186
180.077026 158.834793
180.079315 949.005493
180.081604 2352.193848
180.083908 5319.749512
180.086197 8390.814453
180.088486 9283.210938
180.090775 6639.225098
180.093063 3451.134766
180.095367 1009.794373
182.145477 290.552612
182.147812 1944.826538
182.150146 3851.942871
182.152466 5353.049316
182.1548 5319.570312
182.157135 3731.537598
182.15947 1702.19397
182.161804 316.946136
185.094559 271.262146
185.096939 1789.048706
185.099319 4032.997559
185.101715 6998.403809
185.104095 7729.602539
185.106491 4434.719727
185.108871 2283.555176
185.111267 577.953186
194.120178 273.129364
194.122757 1765.386353
194.12532 3349.408691
194.127884 4465.782227
194.130447 4282.455078
194.133011 2866.007324
194.135574 1030.420776
195.100998 103.506516
195.103577 1349.183472
195.106171 5443.084961
195.108749 11552.121094
195.111328 16626.453125
195.113922 16246.783203
195.116501 10489.549805
195.11908 4939.67041
195.121674 1290.441284
196.104889 152.460419
196.107483 934.615662
196.110092 1718.222656
196.112701 2122.570801
196.115295 1849.335449
196.117905 1002.755615
199.160812 49.916889
199.163483 1080.098999
199.166138 4082.563477
199.168808 9260.767578
199.171478 36104.433594
199.174149 104914.09375
199.176804 196345.1875
199.179474 271349.5
199.182144 247073.953125
199.184799 152842.625
199.187469 68932.023438
199.19014 19036.455078
199.192795 5571.700195
199.195465 2940.967529
199.198135 619.038269
200.172073 130.607315
200.174759 967.317017
200.177444 2726.67334
200.18013 5490.320312
200.182816 8709.365234
200.185501 7600.162109
200.188187 4473.755371
200.190872 1922.470581
200.193558 632.036316
211.114777 291.9198
211.117691 1571.331909
211.12059 2509.007324
211.123505 2748.60376
211.126404 2111.999512
211.129318 1006.359131
212.127701 281.67337
212.13063 1738.627563
212.13356 4111.031738
212.13649 7561.417969
212.13942 9149.192383
212.142349 5581.143066
212.145279 2825.625244
212.148209 923.259705
217.39151 31.11129
217.394547 268.464874
217.397583 414.600067
217.400635 454.897308
217.403671 368.642761
217.406708 201.094833
220.923111 20.944788
220.926224 190.583557
220.929337 438.755157
220.932449 604.579102
220.935562 564.386597
220.938675 352.092499
220.941788 122.37294
223.112595 63.358494
223.115753 375.239075
223.118927 621.413147
223.122086 724.577087
223.125244 623.387878
223.128403 354.552979
227.15799 217.458191
227.161224 2018.755127
227.164474 9894.629883
227.167725 27666.246094
227.170975 51387.246094
227.174225 71448.710938
227.17746 62049.628906
227.18071 36631.796875
227.18396 16103.466797
227.18721 3782.942383
227.190445 882.249329
237.119186 43.03289
237.12265 612.033081
237.126114 2828.032959
237.129578 6610.484863
237.133026 9945.339844
237.13649 10445.575195
237.139954 7005.483887
237.143417 3296.652832
237.146881 559.072083
248.729355 194.583008
248.733078 960.202271
248.736786 1577.009766
248.740509 1740.47937
248.744232 1322.782837
248.747955 584.209961
251.747147 298.699677
251.750931 1345.035522
251.75473 1904.71521
251.758514 1969.210083
251.762299 1476.698242
251.766083 637.799866
254.138855 22.365419
254.1427 797.423462
254.146545 5370.750977
254.150391 18310.628906
254.154221 41626.347656
254.158066 63905.695312
254.161911 69156.523438
254.165756 48979.476562
254.169601 25515.023438
254.173431 7909.02832
254.177277 1702.478394
254.181122 497.875549
255.129044 141.577484
255.132919 892.091858
255.13678 2336.37085
255.14064 3789.999512
255.144501 4283.54541
255.148376 3381.0
255.152237 1682.501343
255.156097 307.183136
255.62825 147.800354
255.632126 857.57019
255.636002 2137.235107
255.639877 3720.097412
255.643753 4506.313965
255.647629 3874.532715
255.651505 2321.756836
255.65538 849.822266
270.143158 288.753052
270.147369 1481.996338
270.151581 2878.395752
270.155762 3764.840332
270.159973 3520.35498
270.164185 2337.13208
270.168396 949.548828
272.14563 312.386536
272.149902 1434.611816
272.154144 4171.37793
272.158417 16953.730469
272.162659 43901.417969
272.166931 73763.851562
272.171173 90956.367188
272.175446 72836.359375
272.179688 41243.507812
272.18396 15010.349609
272.188202 3343.66333
272.192474 1101.688477
273.161682 359.506989
273.165955 1561.858643
273.170227 2350.675049
273.1745 2428.559326
273.178802 1739.299805
273.183075 727.853699
281.185516 182.271057
281.190002 933.193726
281.194458 1941.715576
281.198944 2829.33667
281.2034 3024.255859
281.207886 2435.511475
281.212341 1479.401001
281.216827 585.780334
282.883209 58.160843
282.887726 595.161133
282.892242 1501.13855
282.896729 4187.765625
282.901245 6936.473633
282.905762 8296.248047
282.910278 5987.052734
282.914795 3125.426758
282.919312 699.407959
295.132507 202.314621
295.137329 1064.402954
295.14212 2418.874512
295.146942 3824.599121
295.151733 4216.483398
295.156555 3330.251953
295.161346 1862.051025
295.166168 632.053406
300.898346 151.12413
300.90332 795.108948
300.908264 1557.070557
300.913208 2078.406982
300.918152 1990.109375
300.923096 1355.060181
300.92804 560.955872
301.64212 39.622318
301.647095 591.988159
301.652069 2293.359619
301.657043 4252.478516
301.661987 5382.134766
301.666962 4854.171387
301.671936 3110.443359
301.67691 1210.765381
303.132965 904.163208
303.13797 4495.79248
303.142975 8479.495117
303.14798 12367.499023
303.152985 12215.836914
303.15799 6613.633789
303.162994 2732.241211
303.167999 946.497986
307.64679 88.606308
307.651917 386.033203
307.657013 593.906982
307.66214 670.577209
307.667267 561.249023
307.672363 288.705017
308.909363 437.397339
308.91452 2230.057861
308.919678 3621.102051
308.924805 4386.67334
308.929962 3927.076416
308.93512 2188.130371
309.022675 62.134232
309.027802 314.18692
309.032959 478.633148
309.038116 510.433807
309.043274 380.740021
309.048431 171.880829
310.641296 426.265747
310.646484 1569.748779
310.651672 2019.370239
310.65686 1926.066895
310.662048 1297.258179
310.667236 491.687561
312.157562 99.343887
312.162811 787.558777
312.16803 2301.006836
312.173248 4006.877686
312.178497 5117.745605
312.183716 4123.168945
312.188965 2445.089844
312.194183 922.546265
315.648621 567.196289
315.653931 2310.727295
315.659241 3298.325684
315.664581 3124.861084
315.669891 1929.798096
315.675201 637.145264
316.154388 45.893185
316.159729 269.186035
316.16507 681.488037
316.17038 1157.639893
316.17572 1409.807129
316.181061 1271.938965
316.186401 848.048279
316.191711 358.59552
321.645966 378.071503
321.651428 1487.247437
321.656891 2160.42749
321.662384 2182.189941
321.667847 1555.376709
321.673309 628.552002
324.143768 497.716583
324.149292 4073.214355
324.154816 18521.242188
324.16037 52355.363281
324.165894 102824.296875
324.171417 143079.328125
324.176971 136585.015625
324.182495 87860.070312
324.188049 41742.636719
324.193573 11776.868164
324.199097 3121.748047
324.204651 1464.60083
324.210175 515.092957
324.647919 303.113464
324.653473 1233.222534
324.659027 3577.74707
324.664551 8455.452148
324.670105 14498.008789
324.675659 18049.712891
324.681213 15550.514648
324.686737 9507.880859
324.692291 4159.3125
324.697845 1034.142578
325.648621 350.921509
325.654205 2432.30249
325.65976 7739.116699
325.665344 15592.143555
325.670929 21528.083984
325.676483 20096.425781
325.682068 12498.330078
325.687622 5503.38623
325.693207 1461.464844
325.698792 248.820679
330.147003 113.400826
330.152679 1868.718262
330.158356 7804.572266
330.164062 16961.230469
330.169739 24988.568359
330.175446 26073.677734
330.181122 18532.880859
330.186798 9206.55957
330.192505 2210.303711
330.198181 557.791382
335.169373 297.720398
335.175201 1215.097046
335.181 1977.765747
335.186829 2099.80127
335.192657 1501.78772
335.198456 599.489014
336.143158 207.270493
336.149017 1279.527466
336.154846 4171.507812
336.160706 9017.260742
336.166534 13282.421875
336.172394 13655.496094
336.178223 9273.124023
336.184082 4498.155762
336.189941 1078.486816
337.109497 87.86599
337.115356 425.285614
337.121216 889.424683
337.127106 1310.189087
337.132965 1435.438477
337.138824 1184.535156
337.144714 725.439209
337.150574 282.964691
338.150726 490.322174
338.156616 2138.470703
338.162506 4564.055664
338.168396 7274.72168
338.174316 7436.568359
338.180206 4801.859375
338.186096 2110.141357
338.191986 596.320496
338.658356 450.493317
338.664276 3711.722656
338.670197 15177.767578
338.676086 35112.738281
338.682007 56675.4375
338.687927 67043.914062
338.693817 48516.457031
338.699738 26858.689453
338.705658 9734.308594
338.711548 1937.138428
338.717468 265.803375
339.161255 333.909454
339.167175 1673.959717
339.173096 4433.508301
339.179016 9260.742188
339.184937 13866.882812
339.190857 14207.619141
339.196777 9658.505859
339.202698 4606.682129
339.208618 1123.504517
348.149048 180.824921
348.155212 963.40509
348.161377 2243.700684
348.167542 3273.879883
348.173706 3335.802979
348.17984 2432.499268
348.186005 1050.838745
349.204773 393.06424
349.210938 1436.545288
349.217133 2058.866455
349.223328 2160.359863
349.229523 1663.629395
349.235687 763.299133
350.190704 113.249794
350.196899 467.368011
350.203125 742.72229
350.209351 813.62146
350.215546 618.289612
350.221771 275.587891
350.862762 71.608246
350.868988 550.458069
350.875244 2250.420654
350.88147 5811.074707
350.887695 8867.012695
350.893921 9465.941406
350.900177 6780.734863
350.906403 3344.046143
350.912628 683.225891
350.918854 121.090645
351.162079 313.093109
351.168335 1465.835449
351.174561 2980.281982
351.180817 3998.819092
351.187042 3751.953369
351.193298 2396.260742
351.199524 760.996399
352.658173 407.030273
352.664459 2809.598877
352.670746 8192.31543
352.677032 15105.602539
352.683289 19846.925781
352.689575 17146.667969
352.695862 9954.299805
352.702148 3954.798096
352.708435 750.755127
353.167389 391.122528
353.173676 1588.396973
353.179993 2715.050049
353.186279 3281.302979
353.192566 2841.493408
353.198853 1608.092773
353.20517 406.633759
358.192169 116.039032
358.198578 444.938751
358.205017 646.232422
358.211426 659.726135
358.217865 478.837616
358.224304 204.620209
358.694092 249.416885
358.700531 1129.322876
358.70697 2429.036133
358.713409 3776.643066
358.719849 4354.400879
358.726288 3766.957031
358.732727 2415.77124
358.739166 945.067566
360.712372 394.584808
360.718872 1482.306763
360.725342 2332.167969
360.731842 2607.466064
360.738342 2090.008301
360.744843 954.62323
364.180115 511.58963
364.186707 2213.184082
364.193298 4621.45752
364.19989 6981.807129
364.206482 7116.604492
364.213074 4563.202148
364.219666 1987.18042
364.226257 651.333313
365.177246 480.2771
365.183868 1826.17395
365.190491 2863.017578
365.197113 3204.813232
365.203735 2570.516846
365.210327 1402.600952
365.216949 419.391815
371.661072 188.032822
371.667877 1060.259521
371.674683 3504.453369
371.681458 7831.351074
371.688263 11649.041016
371.695068 11973.880859
371.701843 7984.464844
371.708649 3861.968506
371.715454 1198.320801
372.171173 397.338989
372.177979 1502.299194
372.184784 2460.32251
372.191589 3026.243408
372.198395 2944.322998
372.2052 2162.496094
372.212036 951.777649
372.682312 190.709686
372.689117 1938.251343
372.695953 8556.734375
372.702759 23194.408203
372.709595 42724.796875
372.716431 57104.523438
372.723236 52613.296875
372.730072 32838.398438
372.736877 14543.916016
372.743713 3105.130615
372.750549 326.289612
373.194489 326.323334
373.201324 1684.552368
373.20816 4535.534668
373.214996 8045.446289
373.221832 8922.22168
373.228668 6519.469727
373.235504 3418.361328
373.24234 1019.459045
374.201447 382.371826
374.208313 1272.592773
374.215179 1679.73938
374.222046 1771.660767
374.228912 1545.123047
374.235779 825.469238
377.191315 386.897247
377.198273 1531.952637
377.2052 3474.004883
377.212158 6680.129883
377.219116 8695.275391
377.226044 7084.931641
377.233002 3372.527344
377.23996 1239.230713
380.182007 424.687714
380.189056 1636.09729
380.196075 2790.832275
380.203094 3417.893066
380.210144 3041.033691
380.217163 1906.380371
380.224213 676.897888
380.68158 328.667847
380.688629 2822.484375
380.695679 11528.258789
380.702698 26940.210938
380.709747 43021.433594
380.716797 49311.824219
380.723846 38018.488281
380.730896 20903.255859
380.737915 7593.378418
380.744965 1492.330078
381.189178 259.365265
381.196228 1304.444824
381.203308 3685.577148
381.210358 7257.200684
381.217407 9546.515625
381.224457 8704.617188
381.231537 5239.472168
381.238586 2006.198486
381.245636 584.007263
385.172089 349.59967
385.17926 1433.170288
385.186401 2782.366455
385.193573 3929.656494
385.200745 4108.401367
385.207916 3121.216309
385.215088 1587.439819
385.22226 356.188049
385.659973 177.039673
385.667145 1899.631714
385.674316 6404.144043
385.681519 12762.196289
385.68869 17070.134766
385.695862 15242.549805
385.703064 9345.016602
385.710236 4071.981445
385.717407 972.28833
386.170349 130.180542
386.177551 479.862915
386.184753 703.577698
386.191956 709.877747
386.199158 467.455658
386.206329 167.028061
386.681763 385.68277
386.688995 2286.436523
386.696198 8063.280762
386.7034 17857.107422
386.710602 26874.054688
386.717834 28362.443359
386.725037 19839.431641
386.732239 9781.366211
386.739471 2597.285156
386.746674 317.308594
387.194214 459.172302
387.201416 1922.092285
387.208649 4461.385254
387.215881 7137.967285
387.223114 6686.396973
387.230316 3974.810547
387.237549 1556.886475
387.244781 444.552795
392.176086 332.95166
392.183441 1472.431641
392.190826 3100.770264
392.198181 5576.265137
392.205536 7154.697754
392.212921 4670.813965
392.220276 1989.176514
392.227631 617.001526
394.157196 1159.895752
394.164612 3666.410889
394.172058 9967.207031
394.179474 38464.304688
394.18689 100440.523438
394.194305 179508.5
394.201721 232313.53125
394.209167 202375.15625
394.216583 122279.421875
394.223999 53796.242188
394.231415 14968.587891
394.238831 4668.907227
394.246277 3193.137695
394.253693 2438.949463
394.261108 1492.6521
394.268524 81.479095
394.669708 383.429535
394.677124 3735.259766
394.68457 14805.166016
394.692017 31589.080078
394.699432 46607.117188
394.706879 48380.285156
394.714325 34475.402344
394.721741 17077.376953
394.729187 5204.081055
394.736633 1235.15686
394.744049 145.497574
395.175751 57.176517
395.183197 830.759888
395.190643 2299.294922
395.19809 6895.616699
395.205536 28051.064453
395.212982 74192.992188
395.220459 133616.34375
395.227905 172158.328125
395.235352 148883.953125
395.242798 88780.25
395.250244 38310.597656
395.25769 10030.476562
395.265137 2719.37207
395.272614 1242.029053
395.28006 538.064453
395.287506 301.525177
395.697693 165.023315
395.70517 3334.611328
395.712616 10747.963867
395.720093 20152.693359
395.727539 26032.75
395.735016 22223.462891
395.742493 13549.97168
395.749939 5838.504395
395.757416 1902.620361
395.764862 554.299988
399.706085 209.84613
399.713654 1038.606689
399.721252 2512.133789
399.728821 4051.162598
399.736389 4498.813965
399.743988 3499.333496
399.751556 1841.565796
399.759125 542.08905
400.191498 410.689392
400.199066 2069.302979
400.206665 5307.63623
400.214264 9901.352539
400.221863 13158.711914
400.229431 11534.855469
400.23703 6512.878906
400.244629 2665.583984
400.252228 475.435333
401.203033 479.171478
401.210663 1976.379639
401.218292 3708.808838
401.225891 4841.220703
401.233521 4528.458008
401.24115 2979.547363
401.248749 1077.313599
401.256378 107.154465
406.715179 113.35482
406.722961 2471.772461
406.730713 9455.299805
406.738495 19144.6875
406.746277 26662.146484
406.754059 24953.173828
406.761841 16370.893555
406.769623 7560.186523
406.777405 2060.733643
406.785187 339.156311
407.681305 395.690491
407.689117 1673.220825
407.69693 3252.002441
407.704742 4254.864746
407.712555 4047.664062
407.720337 2735.718994
407.728149 1017.525696
408.150055 111.406555
408.157867 1021.344482
408.16568 5954.80127
408.173492 28250.496094
408.181335 84988.898438
408.189148 166789.28125
408.19696 230696.09375
408.204773 219890.125
408.212616 144676.65625
408.220428 69683.679688
408.228241 22971.048828
408.236053 8716.447266
408.243896 4677.233887
408.251709 3164.663574
408.259521 1260.070435
408.267365 27.984392
408.666565 406.682281
408.674408 3236.270508
408.682251 11444.84668
408.690094 23932.638672
408.697906 34746.042969
408.70575 35098.875
408.713593 23976.333984
408.721405 11796.297852
408.729248 3432.462158
408.737091 614.891602
409.191956 469.835388
409.199799 3251.395508
409.207642 12019.513672
409.215485 26752.271484
409.223328 41044.539062
409.231201 44633.902344
409.239044 32713.564453
409.246887 17276.916016
409.25473 5873.59668
409.262604 1231.394043
409.270447 61.941368
412.834381 240.650665
412.842346 1072.302002
412.850281 2161.046387
412.858246 3021.470947
412.866211 2901.488037
412.874146 1836.452393
412.882111 718.325562
412.890076 110.416481
413.702728 589.046936
413.710693 1781.389038
413.718689 2275.683105
413.726654 2428.629395
413.73465 2195.693604
413.742615 1616.30127
413.75061 715.252319
414.213837 645.302307
414.221832 2128.375977
414.229828 2942.092529
414.237823 2848.151123
414.245819 1996.187256
414.253815 814.244141
414.717896 391.434204
414.725922 1797.202637
414.733917 4090.080566
414.741943 6099.443359
414.749939 5870.326172
414.757965 3918.06665
414.765961 1604.261719
414.773987 181.74765
416.179291 609.076904
416.187317 2155.77832
416.195374 3564.736328
416.20343 4448.931641
416.211487 4177.591309
416.219543 2911.259766
416.2276 1460.828979
416.235626 438.073425
420.708191 209.083313
420.71637 1385.306641
420.724579 4415.447266
420.732758 9063.107422
420.740936 13643.454102
420.749115 14723.362305
420.757294 10753.711914
420.765472 5536.945312
420.773682 1597.255981
420.78186 166.280884
421.207764 467.052399
421.215973 1433.685059
421.224182 1895.911377
421.232361 2008.678223
421.24057 1777.716309
421.248779 778.347046
423.190247 814.888855
423.198486 5030.851562
423.206757 12871.724609
423.214996 22101.746094
423.223267 25837.5625
423.231506 20251.382812
423.239777 11344.250977
423.248016 4629.289062
423.256287 1422.963257
423.264526 327.745056
423.702515 288.812317
423.710785 1168.58728
423.719055 2111.114014
423.727325 2455.416504
423.735596 1993.547241
423.743866 912.903076
428.195465 303.596222
428.203857 1964.425415
428.21225 8254.064453
428.220673 20710.802734
428.229065 32173.566406
428.237457 35688.316406
428.24588 27053.501953
428.254272 14734.195312
428.262665 4930.118652
428.271088 739.98468
428.708435 421.943542
428.716858 1783.054199
428.72525 3495.974854
428.733673 4711.502441
428.742096 4606.537109
428.750519 3256.654785
428.758942 1310.496338
429.213898 477.393951
429.222321 4118.388184
429.230743 19042.699219
429.239197 58782.15625
429.24762 121129.648438
429.256042 174152.875
429.264496 174101.40625
429.272919 117006.132812
429.281342 57055.527344
429.289795 16229.870117
429.298218 3278.778809
429.306671 727.36377
429.720245 336.076447
429.728699 1749.354492
429.737152 5843.731934
429.745605 14807.421875
429.754028 25335.15625
429.762482 31493.826172
429.770935 25748.388672
429.779388 14392.057617
429.787842 5170.876465
429.796295 681.280457
430.845886 58.669144
430.85437 278.651428
430.862854 576.496704
430.871338 806.461182
430.879791 810.445801
430.888275 586.486633
430.896759 280.755127
432.23999 335.440674
432.248505 1216.656738
432.257019 1986.708862
432.265533 2282.24585
432.274078 1935.119751
432.282593 922.437317
434.223694 288.332397
434.232269 1242.133911
434.240845 2574.934814
434.249451 3671.028076
434.258026 3806.177246
434.266602 2893.196289
434.275177 1565.475342
434.283752 494.577942
434.704559 298.118286
434.713165 1445.267212
434.721771 4230.917969
434.730347 8783.617188
434.738953 12760.913086
434.747559 13046.791992
434.756134 9041.495117
434.76474 4417.658203
434.773346 1062.778809
436.2211 503.307587
436.229736 1657.126465
436.238373 2399.060059
436.247009 2517.645264
436.255676 1940.973999
436.264313 845.184753
438.798309 5.958841
438.807037 357.337799
438.815735 1193.361938
438.824463 3180.050781
438.83316 5617.555176
438.841888 7210.824707
438.850616 5798.119629
438.859314 3212.425781
438.868042 1061.904175
438.87677 154.057007
441.715149 265.516327
441.723969 1132.524902
441.732758 2220.085693
441.741577 2843.174072
441.750366 2589.511963
441.759186 1685.716064
441.767975 632.421265
442.190887 298.524292
442.199707 1853.293091
442.208527 6443.672363
442.217346 14823.964844
442.226166 23167.861328
442.234985 25776.271484
442.243805 18955.357422
442.252625 9897.792969
442.261444 3066.169189
442.270264 463.360901
442.702728 391.04364
442.711578 1353.027954
442.720398 2147.027588
442.729218 2417.52832
442.738068 1942.006714
442.746887 856.123352
443.180084 304.046967
443.188904 2583.469238
443.197754 7972.890625
443.206604 12940.979492
443.215454 20559.773438
443.224304 53334.445312
443.233154 170260.890625
443.242004 385993.1875
443.250854 608969.0
443.259705 689338.875
443.268555 521860.71875
443.277405 283607.71875
443.286255 102620.890625
443.295105 28515.984375
443.303955 10511.852539
443.312805 5587.73291
443.321655 1948.275269
443.330505 1024.088135
443.711365 622.425659
443.720215 3505.166504
443.729065 16059.823242
443.737946 49076.929688
443.746796 96933.445312
443.755676 134243.34375
443.764526 127249.992188
443.773407 82173.648438
443.782257 37603.75
443.791138 11235.146484
443.799988 2881.424805
443.808868 819.895935
448.212097 381.198914
448.221069 1535.406616
448.230072 2979.527588
448.239075 4141.335449
448.248077 4374.466797
448.25708 3532.071289
448.266083 2120.795898
448.275085 741.572754
450.660492 257.176849
450.669556 1307.723999
450.678619 2493.421631
450.687714 3972.717041
450.696777 5822.539551
450.705841 13906.788086
450.714935 52359.597656
450.723999 141975.34375
450.733063 265696.46875
450.742157 354942.65625
450.751221 324949.3125
450.760284 206119.609375
450.769379 95744.828125
450.778442 28556.324219
450.787506 8970.144531
450.7966 4619.521973
450.805664 2956.174805
450.814758 1454.550293
450.823822 121.351707
451.196198 394.274139
451.205292 2138.835205
451.214355 6900.792969
451.22345 21186.292969
451.232544 47598.53125
451.241638 73666.1875
451.250732 77601.054688
451.259827 52804.628906
451.268921 27388.03125
451.277985 7943.941406
451.287079 1210.549072
451.732849 370.216248
451.741974 1803.452148
451.751068 4915.485352
451.760162 9439.200195
451.769287 12586.039062
451.778381 11402.87207
451.787476 7015.169922
451.7966 3075.189453
451.805695 738.641785
452.243103 439.40213
452.252228 1475.346191
452.261353 2341.17334
452.270477 2755.099609
452.279602 2401.41333
452.288727 1469.335571
452.297852 489.840546
452.809052 293.244141
452.818207 1044.64502
452.827332 1588.535034
452.836456 1739.937134
452.845612 1417.412964
452.854736 819.249695
452.863892 237.403564
455.710083 779.137329
455.71933 2617.901855
455.728546 4026.054199
455.737762 4373.416504
455.747009 3443.95459
455.756226 1915.777954
455.765442 600.582764
456.199402 177.347351
456.208618 1229.598267
456.217865 3241.868652
456.227112 5004.562988
456.236359 5367.873535
456.245605 4043.738525
456.254822 1878.410034
456.264069 197.52626
456.726501 543.984131
456.735748 1981.017944
456.744995 3745.837402
456.754272 5474.052734
456.763519 5541.955078
456.772766 3760.326416
456.782043 2001.129517
456.79129 595.275696
456.819061 33.364166
456.828308 385.686005
456.837585 1188.904785
456.846832 1903.951172
456.85611 2236.785889
456.865356 1939.54895
456.874603 957.171631
456.883881 254.133881
457.161804 207.268661
457.171082 584.925232
457.180359 718.752502
457.189606 864.290771
457.198883 710.059326
457.20816 534.762939
457.217438 3765.175781
457.226715 16581.369141
457.235962 41349.445312
457.245239 73124.140625
457.254517 91674.617188
457.263794 77488.867188
457.273071 46062.867188
457.282318 19879.667969
457.291595 5597.849609
457.300873 934.440735
457.718445 445.818909
457.727722 2189.320312
457.737 5738.780762
457.746307 10774.819336
457.755585 14347.072266
457.764862 13035.651367
457.77417 8090.839355
457.783447 3409.972168
457.792725 591.855896
464.202911 247.433502
464.212372 3269.850586
464.221863 13580.132812
464.231354 32700.023438
464.240845 56417.570312
464.250305 69755.28125
464.259796 56856.875
464.269287 31790.019531
464.278778 12965.833008
464.288269 2663.997314
464.29776 351.375946
464.667938 591.316528
464.677429 2784.628662
464.686951 6161.577637
464.696442 12134.139648
464.705933 35690.160156
464.715454 123688.914062
464.724945 289011.625
464.734436 469382.96875
464.743927 546394.25
464.753448 426277.03125
464.762939 236861.578125
464.77243 90535.484375
464.781952 24986.130859
464.791443 9229.266602
464.800934 4967.258789
464.810455 2623.215088
464.819946 1633.014526
465.190765 106.40992
465.200287 1873.735718
465.209808 11254.09082
465.219299 40089.085938
465.228821 85166.039062
465.238342 125412.5625
465.247864 128265.835938
465.257385 89176.851562
465.266907 44215.394531
465.276398 13411.3125
465.285919 2950.183838
465.295441 532.49707
465.714478 62.806049
465.723999 1029.486938
465.733551 7678.744141
465.743073 30462.130859
465.752594 66953.6875
465.762146 101288.476562
465.771667 106511.304688
465.781189 75564.0
465.790741 38272.730469
465.800262 12954.295898
465.809784 4029.128174
465.819336 731.216003
466.229523 466.900177
466.239075 3155.414062
466.248627 8578.402344
466.258179 14841.048828
466.2677 17865.423828
466.277252 14321.40625
466.286804 7955.404297
466.296356 3000.252197
466.305908 619.145996
469.704407 196.67421
469.714081 711.614746
469.723724 1172.163818
469.733368 1356.685303
469.743042 1124.632568
469.752686 648.335388
469.762329 209.273926
470.729279 545.938904
470.738953 2505.128662
470.748657 6299.999023
470.758331 11435.06543
470.768005 15504.859375
470.77771 15254.453125
470.787384 10590.226562
470.797089 5252.727539
470.806763 1660.447754
470.816437 499.370056
470.826141 441.787872
470.835815 675.193787
470.84552 742.433777
470.855194 573.225525
470.864899 246.569168
473.237823 306.454712
473.247589 1140.47522
473.257355 1996.611816
473.26712 2397.833496
473.276855 2073.928223
474.77417 177.634857
474.783966 674.306702
474.793793 1164.532227
474.803589 1384.000977
474.813416 1161.628662
474.823212 623.394775
474.833038 149.514923
476.180023 69.233521
476.18988 1365.976562
476.199738 5564.087891
476.209595 11128.066406
476.219452 15661.499023
476.229279 15399.525391
476.239136 10884.265625
476.248993 5677.65625
476.25885 1569.502319
476.268707 549.496216
477.730713 343.672821
477.740631 1250.22229
477.750519 2072.147461
477.760437 2215.614258
477.770325 1552.413208
477.780243 553.39801
478.712463 207.438797
478.722382 675.299133
478.73233 956.081299
478.742249 937.98053
478.752197 625.941711
478.762115 237.213806
479.717133 427.700439
479.727112 2601.981201
479.737061 11764.055664
479.74704 30713.039062
479.756989 51103.238281
479.766968 60381.292969
479.776917 48281.308594
479.786896 27048.058594
479.796844 10102.195312
479.806824 2029.66626
479.816803 305.433746
480.235626 795.059204
480.245605 3306.653809
480.255585 6652.941895
480.265564 8796.292969
480.275543 7158.94043
480.285553 3496.049805
480.295532 1177.32666
480.804962 244.69545
480.814941 1190.126587
480.824951 3071.875244
480.834961 5742.969238
480.84494 7766.02832
480.85495 7240.644043
480.86496 4651.371094
480.874939 2181.610107
480.884949 461.994293
480.894928 27.910109
484.7276 563.107422
484.737732 4663.193848
484.747833 18680.322266
484.757965 42492.203125
484.768066 68752.992188
484.778198 76136.960938
484.78833 56535.839844
484.798431 29423.332031
484.808563 10648.616211
484.818695 1791.018799
484.828827 142.159515
485.233978 341.834808
485.24411 1807.155518
485.254242 5573.476074
485.264374 11934.660156
485.274506 18080.832031
485.284668 19373.876953
485.2948 13838.657227
485.304932 6977.98877
485.315063 1770.40564
488.207092 608.256653
488.217316 2088.517578
488.22757 3284.192871
488.237793 3528.071289
488.248016 2705.354492
488.25824 1134.8302
489.190521 433.792511
489.200806 1521.460449
489.21106 2568.79126
489.221313 3041.575439
489.231567 2599.874756
489.241821 1529.616821
489.252106 475.637512
489.745026 698.903748
489.75531 2116.759521
489.765564 2959.388428
489.775848 2995.213623
489.786133 2190.389893
489.796417 1107.04248
489.806702 116.851585
491.135376 102.270592
491.145691 355.597595
491.156006 522.554138
491.166351 545.403503
491.176666 404.450653
491.186981 160.300446
493.24762 651.146667
493.257996 4264.716309
493.268402 12093.045898
493.278778 19969.679688
493.289185 25032.15625
493.299561 21775.130859
493.309937 13105.982422
493.320343 4892.757812
493.330719 449.11676
493.756989 165.969208
493.767395 610.827148
493.777802 1080.641846
493.788208 1352.332764
493.798615 1233.717896
493.809021 813.939148
493.819427 297.704681
498.725494 726.353271
498.736053 5255.398926
498.746613 18911.679688
498.757172 41191.195312
498.767731 61658.515625
498.77829 64753.371094
498.788849 45152.742188
498.799408 22741.283203
498.809998 7473.310059
498.820557 1214.873901
499.243378 600.956665
499.253967 3000.25708
499.264526 6750.186035
499.275116 10112.394531
499.285706 10691.920898
499.296265 7615.61084
499.306854 3602.85791
499.317413 792.438477
504.187744 272.137909
504.198486 1408.189575
504.209229 3293.123291
504.21994 4696.439453
504.230682 4555.213867
504.241425 2968.968506
504.252167 1023.064941
507.196198 1006.186829
507.207031 3307.840332
507.217865 8045.740723
507.228699 13777.134766
507.239532 35546.8125
507.250366 135856.78125
507.2612 386321.6875
507.272034 745705.0
507.282867 1025289.0
507.293701 970415.125
507.304535 635201.3125
507.315369 303152.9375
507.326202 94233.984375
507.337036 31124.080078
507.34787 15963.22168
507.358704 7100.168945
507.369537 1210.755127
507.380402 14.048191
507.705658 451.600342
507.716492 1550.978638
507.727356 2401.74292
507.73819 5506.255859
507.749054 22449.923828
507.759888 75713.625
507.770752 159907.859375
507.781586 237584.8125
507.79245 246505.375
507.803314 175168.140625
507.814148 89440.835938
507.825012 30129.550781
507.835846 8242.822266
507.84671 2744.57666
507.857544 1184.974487
507.868408 74.290207
512.215515 400.452911
512.226501 1956.007568
512.237488 8280.05957
512.248474 30272.816406
512.25946 70221.351562
512.270508 112046.46875
512.281494 127643.664062
512.29248 97151.460938
512.303467 52680.96875
512.314453 18590.035156
512.325439 4343.657715
512.336426 926.144897
512.721558 362.20993
512.732544 1655.436035
512.74353 6594.118164
512.754578 16357.051758
512.765564 28522.013672
512.776611 35132.703125
512.787598 29478.480469
512.798584 17742.632812
512.809631 7685.549805
512.820618 2166.805176
512.831665 385.648285
516.195801 849.064453
516.20697 3584.864014
516.218079 7385.925293
516.229187 10653.974609
516.240295 11239.335938
516.251465 8531.30957
516.262573 4452.891113
516.273682 1388.806519
516.28479 386.68338
521.180359 44.524986
521.19165 4216.224121
521.202942 19438.28125
521.214233 44887.152344
521.225525 66911.320312
521.236816 151569.390625
521.248108 536235.5
521.259399 1387910.5
521.27063 2522580.0
521.281921 3277575.5
521.293213 2901328.5
521.304504 1798370.125
521.315796 814473.3125
521.327087 249320.921875
521.338379 95082.695312
521.34967 59985.886719
521.360962 31013.070312
521.372253 9576.037109
521.383545 2176.916504
521.699768 680.391357
521.71106 4578.403809
521.722351 9405.448242
521.733643 21923.152344
521.744934 79891.867188
521.756226 261667.078125
521.767578 551268.6875
521.77887 819514.375
521.790161 851662.1875
521.801453 605495.25
521.812744 310083.125
521.824097 104787.132812
521.835388 30458.400391
521.84668 11890.913086
521.857971 4613.930664
521.869263 147.327972
534.213928 687.60907
534.225647 2244.038818
534.237305 3618.498291
534.249023 4137.621094
534.260742 3420.097412
534.272461 2020.577393
534.28418 666.816772
540.164062 106.896324
540.175964 344.563721
540.187866 481.475769
540.199768 473.664795
540.21167 334.590271
540.223572 132.951248
551.370667 220.275787
551.382996 598.836853
551.395264 760.055298
551.407532 750.946045
551.4198 567.262451
551.432068 233.393372
556.252136 104.751694
556.264587 1256.811279
556.277039 4503.223633
556.289429 8700.71582
556.30188 11047.476562
556.314331 9489.177734
556.326782 5446.200195
556.339233 2294.079102
556.351685 632.920166
562.183289 327.681305
562.195923 1512.722046
562.208557 4582.40625
562.221191 9312.290039
562.233826 13237.787109
562.24646 12950.708008
562.259094 8623.581055
562.271729 3828.05835
562.284424 748.789795
571.26593 417.743164
571.27887 1301.796265
571.291809 1969.565186
571.304749 2014.335938
571.317688 1434.13623
571.330627 380.374451
584.248901 499.166901
584.262268 3635.983154
584.275696 8672.847656
584.289062 14031.948242
584.30249 14743.006836
584.315857 10391.691406
584.329224 5174.109375
584.342651 1841.150269
584.356018 422.814789
585.241089 118.359123
585.254517 825.460571
585.267944 2258.458984
585.281372 3844.873779
585.2948 4770.326172
585.308228 4463.759277
585.321655 3112.147949
585.335083 1145.66272
586.208862 600.69696
586.222351 2093.367432
586.235779 3757.474854
586.249268 4643.399902
586.262695 4064.515869
586.276184 2452.92334
586.289612 765.574951
588.300537 858.117981
588.314026 2664.768311
588.327576 4204.735352
588.341125 4652.055176
588.354614 3666.55835
588.368164 2003.339844
588.381714 587.481018
589.27594 244.180908
589.28949 661.320679
589.30304 890.508362
589.316589 904.566467
589.3302 675.650024
589.34375 263.251404
590.253723 373.297974
590.267334 1499.89856
590.280945 4054.005371
590.294556 7789.114258
590.308167 10070.698242
590.321716 8639.202148
590.335327 5017.630371
590.348938 1964.606445
590.362549 361.272919
602.278137 1090.136841
602.292175 3042.375
602.306213 4393.566406
602.32019 4741.874023
602.334229 3878.857666
602.348267 2354.725098
602.362244 772.075195
615.266663 949.275085
615.281128 2703.527344
615.295654 3955.529541
615.31012 4140.239746
615.324585 3140.446045
615.33905 1567.749146
615.353516 367.586914
622.831909 525.571594
622.846619 1515.527954
622.861389 2242.772461
622.876099 2294.624268
622.890869 1609.275269
622.905579 551.601501
627.381531 137.139297
627.396484 373.666016
627.411377 492.056396
627.42627 480.834351
627.441162 339.066956
627.456055 125.338066
629.278259 903.924866
629.293213 2537.391113
629.308167 3767.564453
629.323181 4049.807617
629.338135 3152.487549
629.353088 1692.21167
629.368103 466.75119
630.267334 1053.687256
630.282349 3989.853027
630.297363 7746.588867
630.312378 9893.004883
630.327332 8417.129883
630.342346 4929.457031
630.357361 1969.195923
630.372375 379.463104
632.282654 1085.01123
632.297729 4088.160645
632.312805 7868.303711
632.327881 10593.021484
632.342957 9797.674805
632.358032 6197.163574
632.373108 2751.223145
632.388184 637.232483
633.263733 414.921967
633.27887 1726.015137
633.293945 3837.756104
633.309082 7313.961426
633.324158 8955.567383
633.339294 6272.9375
633.354431 3048.453125
633.369507 945.847351
647.257507 194.407471
647.273132 1332.392334
647.288696 5610.304199
647.304321 14951.699219
647.319946 27346.361328
647.335571 35408.738281
647.351196 31193.912109
647.366821 19315.576172
647.382446 8428.916992
647.398071 2082.276855
647.413696 240.633362
648.289307 531.704651
648.304932 1818.730591
648.320618 3404.432129
648.336243 5924.637207
648.351868 5739.188965
648.367554 3388.248291
648.383179 1924.198486
648.398865 589.354736
650.281677 603.292175
650.297363 2335.401611
650.31311 5367.100586
650.328857 8711.691406
650.344543 9205.874023
650.360291 6545.84668
650.376038 3003.624512
650.391724 609.500183
655.247253 367.00705
655.263184 1631.155151
655.279114 3560.215576
655.294983 5267.556152
655.310913 5785.975586
655.326782 4670.641602
655.342712 2629.0896
655.358643 754.181702
657.287842 483.89679
657.303772 1366.64917
657.319763 1963.908325
657.335754 1942.687622
657.351746 1362.59314
657.367737 514.829041
659.273682 438.591461
659.289734 2840.173584
659.305786 8029.095215
659.321838 14618.141602
659.337891 18893.134766
659.353943 16699.882812
659.369995 10162.199219
659.386047 4293.529785
659.4021 793.058289
660.286072 590.070312
660.302185 1628.259888
660.318237 2378.295898
660.334351 2463.912842
660.350464 1800.866699
660.366516 628.874939
672.090027 710.775452
672.106506 1785.53186
672.123047 2364.661621
672.139587 2228.481201
672.156067 1435.408691
672.172607 467.226562
675.256775 95.295013
675.273438 1293.617676
675.2901 5508.85498
675.306702 12408.96582
675.323364 19386.851562
675.339966 20881.150391
675.356628 15240.621094
675.373291 7726.700195
675.389893 2238.822021
675.406555 189.541382
676.289551 537.77948
676.306274 2648.05127
676.322937 7623.852539
676.3396 14901.068359
676.356262 21068.410156
676.372986 21114.722656
676.389648 14633.240234
676.406311 7203.026367
676.422974 2012.541992
676.439697 216.840271
683.263916 838.749695
683.280884 1990.660645
683.297791 2528.990723
683.314758 2364.716309
683.331665 1604.482056
683.348633 530.043945
687.278259 762.458557
687.295349 2618.774902
687.312439 4949.258789
687.329529 6500.881836
687.346619 5978.461426
687.363708 3923.843994
687.380798 1877.863892
687.397888 488.174225
698.326965 503.567413
698.344482 1507.224121
698.362 2485.952393
698.379517 2934.212402
698.396973 2522.989014
698.41449 1522.869507
698.432007 448.59079
700.290955 890.583557
700.308533 2122.468506
700.326111 2833.477051
700.343689 2911.103271
700.361267 2241.359375
700.378845 798.003052
703.340942 775.134216
703.358582 2462.776123
703.376282 4120.07959
703.393982 4668.376953
703.411682 3701.587402
703.429382 1912.606201
703.447021 460.946686
704.296997 575.422241
704.314697 2045.474854
704.332458 5058.124023
704.350159 8457.18457
704.36792 9388.381836
704.38562 7112.664062
704.403381 3524.796875
704.421082 1204.844971
704.438782 282.634064
705.30835 622.199951
705.326111 1880.68689
705.343872 3163.745117
705.361633 3833.368408
705.379395 3417.327393
705.397156 2205.693115
705.414917 693.37384
725.296692 701.79425
725.315186 2067.547119
725.333679 3341.914062
725.352234 3839.645508
725.370728 3264.226074
725.389282 2046.599609
725.407837 627.757629
727.356995 236.774002
727.37561 577.831055
727.394165 752.661926
727.412781 718.977844
727.431396 503.471802
727.450012 169.416626
732.292603 653.858826
732.311401 2678.19043
732.3302 5956.359375
732.348999 9024.862305
732.367798 8777.067383
732.386597 5785.692383
732.405334 2719.51416
732.424133 657.695374
742.29657 398.02359
742.315796 1824.472046
742.334961 6773.691406
742.354126 13790.5
742.373291 17580.125
742.392517 14985.592773
742.411682 8765.326172
742.430847 3304.815674
742.450012 545.783936
745.355164 829.363525
745.374451 2326.854492
745.393738 3572.048828
745.413025 3917.056885
745.432312 3126.770996
745.45166 1634.676514
745.470947 389.460938
746.359558 678.118469
746.378845 1844.213013
746.398193 2745.026611
746.417542 2904.738037
746.43689 2222.966553
746.456238 753.61084
751.314392 421.979095
751.333923 1501.762695
751.353455 2821.414307
751.372986 3537.297119
751.392517 3119.132568
751.412048 1923.24292
751.43158 558.917236
753.310181 263.837769
753.329773 658.490173
753.349365 881.196045
753.369019 843.321045
753.388611 578.519531
753.408203 186.418701
759.345398 834.51532
759.365295 2273.212402
759.385132 3364.162842
759.404968 3486.806641
759.424805 2560.41333
759.444641 835.510193
760.338501 508.990875
760.358337 1579.402222
760.378235 3084.714844
760.398132 4574.851074
760.417969 5093.214844
760.437866 4180.818848
760.457764 2427.412598
760.477661 824.20874
760.497559 107.212212
769.32373 971.021423
769.343933 3656.004639
769.364197 7184.289551
769.38446 9761.323242
769.404663 8810.631836
769.424927 5521.611816
769.445129 2269.659424
769.465393 376.64035
770.275574 97.030281
770.295898 2797.148926
770.316162 12365.75
770.336426 27799.277344
770.356689 46883.09375
770.376953 52395.980469
770.397217 38013.667969
770.417542 19770.777344
770.437805 6913.012207
770.458069 1752.744141
770.478333 405.33667
771.310486 717.702026
771.330811 2430.892822
771.351135 4722.102051
771.371399 6534.363281
771.391724 6034.12207
771.412048 4172.982422
771.432373 2318.854492
771.452698 664.30249
787.275818 2094.338379
787.296753 5310.067871
787.317688 15135.738281
787.338623 52291.445312
787.359558 117316.234375
787.380554 191305.671875
787.401489 216616.1875
787.422424 166421.25
787.443359 91225.757812
787.464355 34499.898438
787.485291 8497.703125
787.506226 2699.52417
787.527222 1647.807373
787.548157 455.733948
788.303162 580.399719
788.324158 3129.256592
788.345154 13097.691406
788.366089 28224.125
788.387085 42178.210938
788.408081 43009.492188
788.429077 30581.259766
788.450073 14495.842773
788.471069 4001.630127
788.492065 612.97876
789.39563 1155.726685
789.416626 2932.222412
789.437683 4186.12793
789.45874 4279.190918
789.479736 3119.048096
789.500793 1433.86853
789.52179 291.336182
797.29895 519.427551
797.320312 2473.303467
797.341675 6040.310547
797.362976 10416.868164
797.384338 11723.035156
797.405701 8879.579102
797.427063 4777.545898
797.448425 1909.714844
797.469788 320.527222
798.28186 480.689758
798.303223 3495.111572
798.324646 9343.675781
798.346008 16425.5
798.367432 19443.402344
798.388794 14980.231445
798.410156 8374.051758
798.43158 3085.744385
798.452942 639.153442
799.330811 1032.517334
799.352295 2895.070557
799.373718 4560.301758
799.395142 5161.091797
799.416565 4340.466309
799.437988 2677.318115
799.459412 775.142517
800.338989 605.147461
800.360413 2113.142578
800.381897 4036.06543
800.403381 7283.60498
800.424866 6690.254883
800.446289 4088.00708
800.467773 2061.10498
800.489258 552.172974
814.302551 434.818359
814.324585 1954.411011
814.346619 6385.652344
814.368652 14702.21875
814.390686 24211.603516
814.41272 28431.191406
814.434753 22724.673828
814.456848 12623.195312
814.478882 4570.1875
814.500916 644.341858
815.22876 191.384689
815.250854 1921.067749
815.272949 3899.759521
815.294983 12012.500977
815.317078 44531.457031
815.339172 136125.8125
815.361206 266982.3125
815.383301 379014.25
815.405396 366633.4375
815.427429 248659.609375
815.449524 117848.710938
815.471619 35532.992188
815.493713 8507.206055
815.515808 3538.229492
815.537842 2056.554932
815.559937 418.365601
816.289246 562.431824
816.31134 4765.461914
816.333496 20696.255859
816.355591 45950.417969
816.377686 72490.195312
816.399841 76678.023438
816.421936 55126.394531
816.444092 27902.623047
816.466187 9083.051758
816.488342 2202.739258
816.510437 475.249664
817.373962 797.172546
817.396118 2915.951416
817.418274 5945.54248
817.44043 8391.761719
817.462585 7518.735352
817.484741 4563.338867
817.506897 1795.425049
817.529053 317.060822
832.356689 942.566284
832.379456 2315.676025
832.402222 3334.571777
832.424988 3545.05957
832.447815 2743.964355
832.470581 1458.500244
832.493347 358.493378
838.377869 263.224396
838.400879 681.860168
838.42395 971.406372
838.44696 976.096436
838.469971 712.703735
838.492981 226.245697
843.302368 440.313354
843.325623 3410.013672
843.348816 8350.570312
843.372009 13494.71875
843.395264 14138.257812
843.418518 9945.477539
843.441711 4827.526367
843.464966 1510.076782
843.488159 344.15567
844.325012 209.14386
844.348328 586.144592
844.371582 982.097168
844.394836 1226.936646
844.418091 1161.898071
844.441345 822.844421
844.464661 415.366821
844.487915 102.027718
845.349548 479.753021
845.372864 4825.79248
845.396179 12044.306641
845.419495 19639.595703
845.44281 24104.896484
845.466125 20267.169922
845.489441 11624.738281
845.512756 4201.571777
845.536072 409.635162
855.366089 244.471344
855.389832 1713.487183
855.413513 3966.084961
855.437256 8146.03418
855.460999 9815.222656
855.48468 6728.427734
855.508423 3337.126221
855.532166 874.449036
856.410767 648.034607
856.43457 1675.891602
856.458313 2505.740967
856.482056 2753.580811
856.505859 2353.332031
856.529602 1640.772461
856.553406 502.870026
872.411499 1000.301758
872.435913 3179.078125
872.460327 5965.467285
872.484802 7584.114746
872.509216 6269.210449
872.533691 3227.187744
872.558105 1149.326782
872.582581 237.460129
882.39209 892.29425
882.416992 3480.817139
882.441833 6930.359863
882.466675 9515.575195
882.491516 8622.178711
882.516418 5464.708496
882.54126 2414.813232
882.566101 404.588623
883.362244 1569.46167
883.387146 7276.66748
883.412048 16026.295898
883.436951 25395.640625
883.461853 26593.583984
883.486755 18878.738281
883.511658 9616.081055
883.53656 3119.20459
883.561462 647.601685
884.38385 1090.873291
884.408752 4795.412598
884.433716 10587.162109
884.458679 16630.341797
884.483582 18558.357422
884.508545 14386.091797
884.533508 7857.706543
884.558411 2911.339844
884.583374 567.949707
885.43219 292.816772
885.457214 706.040894
885.482178 966.96521
885.507141 948.800232
885.532166 659.088196
885.557129 194.588837
900.307129 517.733093
900.332703 2628.649658
900.358337 6157.760254
900.383972 17970.060547
900.409607 59385.425781
900.435181 132839.546875
900.460815 217215.625
900.48645 250036.359375
900.512085 195234.921875
900.53772 107599.023438
900.563293 40034.03125
900.588928 8191.775879
900.614563 817.200256
901.358276 377.494781
901.383911 1914.446899
901.409607 10296.365234
901.435242 26141.595703
901.460876 43960.496094
901.486572 51403.527344
901.512207 40411.773438
901.537903 22351.773438
901.563599 8080.097656
901.589233 2050.68335
901.614929 424.164124
910.380859 647.320251
910.40686 2386.740479
910.432922 4397.351562
910.458984 6976.75
910.485046 5835.819824
910.511108 3346.868408
910.537109 1485.600708
910.563171 301.133453
911.345337 179.114014
911.371399 1308.341431
911.397522 4741.937988
911.423584 9159.736328
911.449707 12252.296875
911.475769 10842.954102
911.501892 6741.924805
911.527954 2754.476807
911.554077 584.490601
928.273804 232.947357
928.300598 4407.356934
928.327454 11001.02832
928.354248 24653.792969
928.381042 74487.609375
928.407898 227795.71875
928.434692 463435.625
928.461548 687701.8125
928.488342 702127.75
928.515198 495606.1875
928.542053 245765.3125
928.568848 78191.046875
928.595703 17759.130859
928.622498 6551.155762
928.649353 3850.108887
928.676208 3159.018066
928.703003 1181.371094
929.293701 1047.369141
929.320557 2339.537842
929.347473 3370.644043
929.374329 9268.360352
929.401184 33408.566406
929.42804 78081.492188
929.454895 131460.703125
929.48175 153745.90625
929.508667 120658.992188
929.535522 67075.882812
929.562378 25331.535156
929.589294 5992.530762
929.61615 1975.247314
929.643005 631.368103
940.460632 767.259155
940.487976 1712.454468
940.51532 2219.560547
940.542664 2074.731201
940.570007 1404.94104
940.597412 383.962555
956.357056 190.338562
956.385132 1739.753418
956.413147 5083.040527
956.441223 9272.18457
956.469238 10712.148438
956.497314 8114.707031
956.525391 3807.241699
956.553406 848.911926
957.423645 318.249542
957.451721 730.641663
957.479858 946.42627
957.507935 841.955627
957.536011 491.139557
957.564087 121.101486
958.407593 623.874695
958.43573 3311.648682
958.463867 9117.954102
958.492004 16650.533203
958.520142 20947.232422
958.548279 17404.400391
958.576416 10137.070312
958.604553 3922.251953
958.63269 677.700134
1020.245728 161.579132
1020.276672 360.13266
1020.307556 468.301697
1020.33844 448.876526
1020.369385 312.978912
1020.400269 90.12278
1029.360352 202.515381
1029.391602 441.907288
1029.422974 542.37915
1029.454346 469.849091
1029.485596 281.751312
1029.516968 72.936951
END IONS
