BEGIN IONS
PEPMASS=488.312
CHARGE=1
MSLEVEL=2
SOURCE_INSTRUMENT=LC-ESI-Hybrid FT
FILENAME=f.novakj/Beauverolide_I.mzXML;
SEQ=*..*
IONMODE=Positive
ORGANISM=GNPS-LIBRARY
NAME=Beauverolide I M+H
PI=Havlicek
DATACOLLECTOR=
SMILES=CCCCC(C)C1CC(=O)NC(CC2=CC=CC=C2)C(=O)NC(C)C(=O)NC(CC(C)C)C(=O)O1
INCHI=
INCHIAUX=
PUBMED=26195308
SUBMITUSER=novakj
TAGS=
LIBRARYQUALITY=3
SPECTRUMID=CCMSLIB00000531480
SCANS=1
203.139145 12746110.0
258.185333 26843610.0
276.195953 4018057.0
286.180267 86353568.0
304.190826 42769164.0
329.222565 2987009.0
332.197144 2694547.0
357.217377 29692508.0
373.212006 2454244.0
375.227905 295176352.0
460.316986 206891664.0
470.30127 6645981.0
488.31189 156482192.0
END IONS
