BEGIN IONS
PEPMASS=799.518
CHARGE=0
MSLEVEL=2
SOURCE_INSTRUMENT=LC-ESI-qTof
FILENAME=f.tal_lk/Standard_spectra/A2049_031B11_I_RB11_01_18772.mzXML;
SEQ=*..*
IONMODE=Positive
ORGANISM=GNPS-LIBRARY
NAME=Symplostatin M+H
PI=Dorrestein
DATACOLLECTOR=Luzzatto-Knaan
SMILES=O=C(C[C@H]([C@H]([C@@H](C)CC)N(C)C([C@H](C(C)C)N([H])C([C@H]([C@@H](C)CC)N(C)C)=O)=O)OC)N1[C@@]([C@@H]([C@H](C(N([H])[C@H](C2=NC=CS2)CC3=CC=CC=C3)=O)C)OC)([H])CCC1
INCHI=
INCHIAUX=
PUBMED=
SUBMITUSER=tal_lk
TAGS=
LIBRARYQUALITY=3
SPECTRUMID=CCMSLIB00000424924
SCANS=1101
44.911587 180.0
44.956951 196.0
45.043732 144.0
45.095844 172.0
45.164032 200.0
45.301907 140.0
45.330044 148.0
45.568878 208.0
45.579628 176.0
46.220116 172.0
46.61335 144.0
46.733006 184.0
47.609211 148.0
47.719139 184.0
47.768646 148.0
47.781029 172.0
47.947639 216.0
48.191883 152.0
48.2845 188.0
48.486626 172.0
48.562881 240.0
48.61005 148.0
48.793388 200.0
48.938084 144.0
49.214149 148.0
49.250458 216.0
49.32172 276.0
50.251377 212.0
50.558002 156.0
50.599052 188.0
50.98629 192.0
51.17263 184.0
51.422089 176.0
51.617802 176.0
51.855442 168.0
52.18848 172.0
52.555767 156.0
52.957645 148.0
53.017044 144.0
53.043133 184.0
53.095329 176.0
53.684303 224.0
54.336658 196.0
54.405636 180.0
55.143604 228.0
55.622013 204.0
55.641312 152.0
55.781769 180.0
56.012711 208.0
56.166611 148.0
56.673401 188.0
56.725853 172.0
56.836834 144.0
58.010193 160.0
58.247456 200.0
58.529781 188.0
59.175632 200.0
59.285919 184.0
59.340912 164.0
59.512939 160.0
59.829647 172.0
59.906445 152.0
60.246025 148.0
60.481064 176.0
60.747585 176.0
61.1936 184.0
61.633438 144.0
61.708462 140.0
61.741299 176.0
62.131313 160.0
62.147003 176.0
62.802994 204.0
63.076153 180.0
63.164703 160.0
63.269146 172.0
63.622665 148.0
63.665535 188.0
63.873741 200.0
64.001053 236.0
64.029716 164.0
64.055199 192.0
64.138062 160.0
64.268829 176.0
64.478012 160.0
64.64753 184.0
64.767601 164.0
64.979202 160.0
65.186333 444.0
65.240974 184.0
65.984169 176.0
66.27874 204.0
66.410049 168.0
66.708984 188.0
66.904022 224.0
67.20591 188.0
67.394928 180.0
67.627136 176.0
68.043503 180.0
68.336044 164.0
68.398048 144.0
68.858589 240.0
69.106537 192.0
69.219093 172.0
69.509171 192.0
69.531029 208.0
69.602119 184.0
69.716736 180.0
69.869705 240.0
69.956947 160.0
70.757553 172.0
70.879822 144.0
70.941833 160.0
70.965302 152.0
71.597107 164.0
71.657745 140.0
71.912376 164.0
72.094055 152.0
72.406044 156.0
72.5755 156.0
72.779099 164.0
73.284248 188.0
73.321739 200.0
73.360939 192.0
73.497375 144.0
73.517853 200.0
73.627113 196.0
73.674934 164.0
73.808243 168.0
73.835609 228.0
73.880081 244.0
73.897621 156.0
74.09407 180.0
74.112915 180.0
74.272346 160.0
74.292549 144.0
74.834282 144.0
75.06501 168.0
75.659523 216.0
76.004417 148.0
76.235359 148.0
76.700089 180.0
76.951248 144.0
77.110207 172.0
77.162643 276.0
77.593323 168.0
77.939079 140.0
78.208138 160.0
78.259193 164.0
78.37896 188.0
79.52076 144.0
80.145523 160.0
80.29348 152.0
80.434425 200.0
80.57193 148.0
80.711334 148.0
80.856232 180.0
81.060379 200.0
81.357002 124.0
81.593445 184.0
81.641991 140.0
81.892143 208.0
81.966003 168.0
82.270805 164.0
82.420708 216.0
82.659386 224.0
82.76075 208.0
83.090599 168.0
83.135963 176.0
84.045784 180.0
84.381844 180.0
84.868851 144.0
85.201042 200.0
85.72541 160.0
85.854454 200.0
86.195953 196.0
86.373383 160.0
86.6437 172.0
86.740944 192.0
87.165054 148.0
87.276573 156.0
87.962151 156.0
89.15332 144.0
89.305603 148.0
89.482483 184.0
89.578529 184.0
89.829231 240.0
90.354393 160.0
90.49823 192.0
90.801414 148.0
90.924728 192.0
91.015472 224.0
91.287567 184.0
91.415016 200.0
91.649223 184.0
91.841766 140.0
92.107079 164.0
92.147194 164.0
92.162476 176.0
92.847214 220.0
93.079956 152.0
93.164459 164.0
93.377815 164.0
93.577934 244.0
93.772491 160.0
94.040504 220.0
94.736664 140.0
94.775414 220.0
95.027466 160.0
95.085014 512.0
95.594826 180.0
95.766144 196.0
95.927864 220.0
96.048759 184.0
96.128746 196.0
96.214622 160.0
97.099045 140.0
97.293297 224.0
97.643051 208.0
98.059883 220.0
98.105759 184.0
98.377983 188.0
98.565605 240.0
98.769234 140.0
98.790993 148.0
98.941391 164.0
99.099823 148.0
99.510376 272.0
99.546112 152.0
100.111893 368.0
101.955292 180.0
102.182503 252.0
102.339485 208.0
102.613487 172.0
102.833359 168.0
102.877762 212.0
102.952469 212.0
103.741318 176.0
104.110809 140.0
104.438011 144.0
104.875763 168.0
104.989937 152.0
105.004211 208.0
105.18988 164.0
105.94854 172.0
106.012054 176.0
106.112488 148.0
106.194511 152.0
106.724319 208.0
107.296669 192.0
107.459595 176.0
107.717644 164.0
108.069084 156.0
108.106323 156.0
108.296791 148.0
108.431458 200.0
108.528885 144.0
108.889946 160.0
108.916946 216.0
109.388954 256.0
109.819984 148.0
110.092377 120.0
110.718933 148.0
110.813194 152.0
110.882339 148.0
110.96199 156.0
111.127678 200.0
111.230507 160.0
111.333382 176.0
111.593933 152.0
111.800064 168.0
112.113838 356.0
112.153885 192.0
112.286713 212.0
112.349983 144.0
112.379524 224.0
112.945671 160.0
113.460236 196.0
113.742363 208.0
113.907982 220.0
114.03334 244.0
114.094986 152.0
114.127899 40020.0
114.204872 140.0
114.437294 120.0
114.473701 272.0
114.606712 144.0
115.131081 3528.0
115.339668 96.0
115.628609 168.0
115.790726 168.0
115.95842 176.0
115.986282 148.0
116.007721 156.0
116.026024 148.0
116.07254 220.0
116.151382 184.0
116.585068 184.0
117.275902 160.0
117.649063 188.0
118.837189 172.0
119.671776 184.0
120.080811 632.0
120.480888 140.0
120.771606 208.0
120.822502 224.0
121.08239 420.0
122.523293 164.0
122.953255 148.0
123.006218 232.0
123.078766 916.0
124.08107 176.0
124.331963 164.0
125.085411 172.0
125.803177 156.0
126.090828 148.0
126.127068 196.0
126.214256 156.0
126.250031 156.0
126.484947 156.0
127.170799 184.0
127.838257 188.0
127.883263 148.0
128.081406 148.0
128.873215 224.0
128.94101 180.0
129.830688 188.0
130.339172 156.0
131.404709 148.0
131.80426 168.0
132.058014 224.0
132.53186 192.0
133.082321 192.0
133.213226 196.0
133.325089 116.0
133.50354 140.0
134.246613 192.0
134.685104 180.0
135.348816 204.0
135.455353 240.0
136.074142 416.0
136.488083 160.0
137.083969 180.0
137.202835 176.0
137.536407 144.0
138.090729 2188.0
138.182877 160.0
138.448196 236.0
138.612167 144.0
138.701218 192.0
138.961517 140.0
139.09552 164.0
139.318359 180.0
140.103149 152.0
140.148834 152.0
140.179459 164.0
140.804596 152.0
140.849472 220.0
140.873093 148.0
140.969955 168.0
141.189804 204.0
142.379456 160.0
142.49823 192.0
143.309525 220.0
143.963074 156.0
144.053833 168.0
144.139847 172.0
146.096207 156.0
146.348907 188.0
146.556046 200.0
146.650024 252.0
147.064865 144.0
147.470627 144.0
148.080307 192.0
148.115936 180.0
148.215958 144.0
150.128983 192.0
151.460938 152.0
152.102341 144.0
152.479126 220.0
152.574997 140.0
152.953812 172.0
153.59198 192.0
154.051102 140.0
154.078857 168.0
154.122711 8152.0
155.035812 188.0
155.10527 340.0
155.127579 448.0
155.244049 228.0
155.916779 180.0
156.115662 196.0
156.339539 140.0
156.61174 192.0
156.737961 180.0
156.772842 160.0
157.106934 188.0
157.778702 164.0
158.15892 228.0
158.532074 160.0
158.74765 212.0
159.121506 172.0
159.239517 208.0
161.045334 208.0
161.247452 200.0
162.051102 180.0
162.11293 140.0
162.419693 168.0
163.062042 152.0
163.311203 152.0
163.461288 164.0
164.105698 160.0
164.215347 164.0
165.090927 224.0
165.17981 236.0
165.370148 200.0
165.405975 176.0
165.52887 192.0
166.503311 180.0
168.102188 348.0
168.458221 148.0
168.571899 208.0
169.132309 328.0
169.713364 156.0
170.116806 4180.0
170.188171 168.0
170.320618 160.0
170.728653 176.0
171.090591 144.0
171.121857 888.0
171.877396 212.0
171.93219 140.0
172.104462 164.0
172.12825 184.0
172.258545 156.0
172.512024 140.0
172.739517 176.0
172.904343 208.0
173.029526 432.0
173.923859 164.0
174.090958 400.0
174.275742 156.0
174.817413 144.0
175.093079 164.0
175.979797 164.0
176.077499 152.0
176.106674 176.0
176.823029 216.0
177.090424 140.0
177.442841 220.0
178.752258 160.0
179.599426 208.0
181.404297 180.0
182.115341 140.0
183.183167 164.0
183.847778 228.0
185.203568 208.0
186.035004 152.0
186.150482 2400.0
186.674469 220.0
186.853989 180.0
187.146774 384.0
187.570175 160.0
187.594696 144.0
187.872849 148.0
187.900131 148.0
187.983185 172.0
188.052673 29640.0
188.140274 164.0
188.645645 140.0
188.921829 144.0
189.056183 5192.0
189.123169 228.0
189.263062 152.0
189.335602 208.0
189.680344 140.0
189.729675 212.0
189.832626 160.0
190.051743 1528.0
190.22345 152.0
190.361282 116.0
190.520859 128.0
190.902054 148.0
191.05542 276.0
192.054474 144.0
192.141479 292.0
192.180115 360.0
192.594193 148.0
193.988754 180.0
197.239929 176.0
197.48317 164.0
198.314713 140.0
199.183609 276.0
201.020081 168.0
201.110382 144.0
202.093781 160.0
202.123047 188.0
203.227081 212.0
204.046661 872.0
204.137985 248.0
204.272522 204.0
204.511536 156.0
204.670944 196.0
204.97287 172.0
205.046204 152.0
205.079163 23276.0
205.137543 128.0
205.331406 152.0
205.547729 108.0
205.79512 168.0
206.082291 2336.0
206.168488 196.0
206.271378 160.0
206.610947 152.0
206.694641 152.0
206.978012 180.0
207.0737 1312.0
207.430649 160.0
208.094528 152.0
208.131042 800.0
209.129089 172.0
209.166626 152.0
210.278091 208.0
210.696777 144.0
211.639221 128.0
211.735168 152.0
213.0578 148.0
213.194717 1156.0
214.149704 124.0
214.202362 120.0
215.505005 224.0
218.051407 160.0
219.057343 152.0
220.94397 184.0
221.079712 784.0
223.087997 252.0
223.12706 224.0
223.177185 212.0
223.980667 140.0
224.092133 144.0
227.169601 168.0
228.314377 140.0
229.060791 192.0
229.428421 160.0
230.675964 144.0
231.060959 252.0
231.125732 196.0
231.73732 200.0
231.97673 156.0
232.168732 624.0
232.446808 148.0
233.16217 188.0
234.183777 196.0
235.130432 904.0
235.191833 200.0
236.140579 96.0
236.898041 220.0
240.192734 260.0
241.091629 140.0
241.188217 1140.0
242.156189 184.0
242.189041 272.0
243.076538 224.0
243.141708 316.0
244.201111 152.0
246.373657 208.0
247.139603 152.0
247.264771 200.0
247.684311 188.0
248.166901 204.0
248.191986 192.0
248.703323 180.0
249.09639 128.0
250.114563 180.0
250.180664 140.0
250.70665 196.0
251.179565 172.0
253.386032 192.0
257.165375 180.0
258.169983 196.0
259.00528 160.0
259.191101 356.0
260.008789 240.0
260.164154 3756.0
261.107483 176.0
261.165222 432.0
262.098938 176.0
262.124725 176.0
262.165436 164.0
262.192383 156.0
264.203583 188.0
265.228577 228.0
265.470306 144.0
266.038086 164.0
266.167969 144.0
268.083862 172.0
268.243561 176.0
269.183136 180.0
272.247925 192.0
273.484283 152.0
274.179169 172.0
275.172028 256.0
275.862457 192.0
276.179871 164.0
277.139862 160.0
277.189728 180.0
277.226013 264.0
278.170685 140.0
279.144653 184.0
279.204529 172.0
279.610382 144.0
280.073364 192.0
280.183075 240.0
280.582977 196.0
281.006531 184.0
282.197876 140.0
282.226288 192.0
282.539948 188.0
285.108032 144.0
287.995514 140.0
288.97583 204.0
289.514008 160.0
290.351044 268.0
291.209198 256.0
292.035553 168.0
292.136749 144.0
292.18866 2668.0
293.190826 1100.0
294.181427 148.0
294.445068 192.0
294.77301 148.0
295.169525 204.0
296.148254 172.0
296.2099 140.0
297.108002 360.0
299.097595 168.0
300.162109 140.0
301.180145 168.0
301.660431 180.0
303.887177 152.0
305.767029 180.0
307.240448 160.0
307.593323 212.0
308.155548 184.0
310.135803 152.0
310.223602 136.0
311.135864 232.0
311.522156 152.0
312.365784 140.0
313.14093 252.0
314.148163 212.0
315.133087 140.0
316.278839 144.0
321.107239 148.0
321.207092 192.0
323.132538 140.0
323.257751 164.0
324.092041 144.0
324.150269 304.0
324.226135 132.0
324.654816 172.0
325.13031 152.0
326.133911 172.0
327.153442 204.0
331.239471 180.0
332.486572 132.0
333.169281 144.0
333.794403 140.0
334.485626 148.0
334.999054 140.0
335.251587 168.0
335.552979 196.0
336.007477 128.0
336.070862 152.0
337.160217 516.0
337.255585 188.0
339.468872 168.0
340.145416 324.0
340.261383 148.0
341.05481 176.0
341.145233 144.0
342.161499 352.0
343.170471 180.0
344.152527 120.0
346.112488 164.0
346.154053 140.0
349.955292 172.0
353.291687 180.0
354.096405 152.0
355.078308 172.0
355.273346 184.0
356.17923 1780.0
357.148376 160.0
357.18338 420.0
358.173859 120.0
359.166534 140.0
359.196716 156.0
359.648956 140.0
360.317871 144.0
361.191071 164.0
363.593079 148.0
366.70401 240.0
367.156067 220.0
370.300873 152.0
371.172241 176.0
371.540955 240.0
372.174194 220.0
374.187836 1584.0
374.986145 200.0
375.191498 500.0
375.279114 152.0
376.17981 352.0
377.168457 124.0
379.993652 168.0
380.172119 144.0
380.420532 176.0
380.595215 140.0
380.769958 152.0
382.169342 152.0
384.174377 292.0
384.318848 228.0
385.1698 204.0
385.303864 148.0
385.331207 156.0
387.185944 132.0
389.8685 152.0
390.167206 152.0
390.199036 172.0
391.190857 128.0
392.257477 160.0
394.295319 224.0
395.211426 168.0
396.165131 184.0
396.981964 168.0
399.114227 144.0
399.206635 132.0
400.220459 112.0
401.191406 392.0
402.193604 184.0
403.141418 148.0
403.206329 1848.0
404.208984 612.0
405.234436 128.0
405.597412 160.0
408.158661 180.0
408.894775 192.0
409.385925 164.0
411.216156 176.0
412.22168 204.0
412.319763 148.0
413.192047 140.0
413.981293 156.0
415.164856 164.0
415.22287 136.0
415.67569 160.0
416.223267 652.0
417.193268 584.0
417.35318 196.0
417.954926 140.0
418.20993 152.0
419.202423 7284.0
419.393951 152.0
420.122894 136.0
420.207886 1480.0
420.732544 100.0
421.21344 908.0
422.211395 328.0
422.712799 144.0
422.920105 232.0
423.091827 132.0
423.189941 140.0
423.235077 344.0
424.568451 140.0
426.19635 272.0
426.332031 668.0
426.814575 152.0
427.33493 232.0
428.349609 328.0
429.208496 368.0
430.21347 140.0
431.233673 152.0
431.684296 140.0
431.998596 156.0
432.214905 196.0
433.145203 160.0
434.247681 192.0
435.097839 180.0
435.193298 156.0
435.804321 148.0
438.193756 200.0
439.184509 156.0
439.51825 188.0
440.189636 180.0
444.245728 144.0
445.568054 176.0
446.224335 312.0
447.193939 168.0
447.242126 212.0
447.502625 164.0
447.687897 152.0
448.378296 176.0
451.190704 184.0
452.27829 152.0
456.719299 180.0
457.770477 228.0
459.330292 164.0
463.961365 164.0
464.234497 5952.0
464.311676 152.0
464.771912 228.0
465.132416 184.0
465.238861 1568.0
466.163116 164.0
466.233368 760.0
466.549927 236.0
467.231476 344.0
467.500458 148.0
467.741455 152.0
468.273865 116.0
472.159271 104.0
477.256958 204.0
478.243225 140.0
479.26532 140.0
480.232208 304.0
481.179962 140.0
481.216156 136.0
481.250214 168.0
482.242767 168.0
484.876038 164.0
488.295959 156.0
489.178284 96.0
490.704529 140.0
493.393097 144.0
494.251099 228.0
494.282074 192.0
494.34845 152.0
495.199799 168.0
495.280853 624.0
496.104553 200.0
496.262787 12020.0
496.344391 204.0
496.414124 144.0
496.654236 144.0
496.807373 224.0
496.954773 212.0
497.135712 172.0
497.264984 3452.0
498.263428 1568.0
499.270935 492.0
500.010895 148.0
500.234741 96.0
500.27063 136.0
502.354492 148.0
504.484497 148.0
505.915985 140.0
507.390564 192.0
509.284485 168.0
512.257935 300.0
512.369141 140.0
513.234497 172.0
514.26062 288.0
515.281799 136.0
516.232666 168.0
517.753113 152.0
519.829285 152.0
519.979065 160.0
521.423218 180.0
521.455017 164.0
522.086914 200.0
527.30011 1296.0
527.402771 168.0
528.289185 712.0
529.22699 148.0
529.297607 360.0
530.309326 252.0
530.420837 124.0
531.015625 168.0
531.270264 172.0
533.400696 172.0
534.363708 144.0
536.431396 140.0
536.980042 152.0
540.042114 160.0
541.33136 140.0
542.338562 156.0
543.298218 108.0
543.896973 156.0
544.384399 148.0
546.192261 168.0
549.821594 156.0
551.311279 156.0
553.275696 152.0
554.310791 188.0
555.041992 160.0
555.298096 748.0
555.914429 176.0
556.293152 556.0
557.200928 152.0
557.324707 200.0
558.305481 152.0
559.166382 256.0
559.329041 8144.0
560.225647 116.0
560.333435 2556.0
561.327087 1064.0
562.252686 152.0
562.290527 668.0
562.322693 540.0
563.320862 152.0
564.861206 140.0
566.431519 112.0
566.882751 156.0
569.278259 224.0
570.542053 152.0
570.639038 100.0
571.299622 156.0
571.816772 188.0
572.297546 140.0
573.293091 180.0
574.127319 184.0
575.329407 324.0
576.326355 216.0
577.326782 260.0
578.095093 112.0
580.448914 160.0
580.587952 204.0
580.789368 216.0
581.144348 172.0
583.269775 192.0
585.287415 152.0
588.450195 236.0
591.360168 192.0
598.389709 128.0
598.596313 108.0
600.850037 200.0
601.801697 180.0
603.343994 156.0
604.724854 184.0
605.811829 144.0
605.895142 224.0
607.552673 100.0
607.728699 140.0
610.818665 148.0
612.11792 144.0
613.596008 200.0
618.877441 164.0
619.843262 200.0
619.937378 160.0
620.165344 160.0
621.643188 184.0
622.308289 144.0
623.396057 180.0
624.096924 160.0
624.191406 140.0
624.236145 244.0
624.34967 240.0
624.922546 204.0
625.352722 108.0
625.364502 296.0
626.196838 216.0
626.359985 184.0
626.460815 152.0
628.225464 140.0
628.884094 144.0
629.088745 148.0
630.772095 176.0
631.79718 160.0
636.371582 160.0
638.051636 152.0
642.275513 144.0
642.34613 168.0
645.168884 200.0
646.32196 168.0
647.354553 144.0
648.170105 144.0
652.333923 392.0
652.3526 332.0
653.325134 100.0
653.882874 204.0
654.086487 172.0
654.37085 272.0
654.466187 176.0
655.424011 136.0
656.378967 148.0
657.455261 168.0
658.394958 104.0
658.445679 192.0
659.584961 160.0
662.412842 140.0
663.4375 128.0
667.598206 148.0
671.182007 168.0
672.347778 204.0
673.374451 176.0
673.950378 196.0
674.41156 160.0
678.606567 144.0
686.296143 188.0
686.332642 160.0
690.227722 180.0
690.578125 192.0
693.801208 184.0
694.425537 176.0
694.485229 172.0
694.726501 144.0
695.272827 132.0
695.384705 128.0
697.434998 156.0
698.392883 172.0
701.409851 144.0
702.691223 152.0
705.711304 120.0
706.148315 200.0
706.737732 156.0
709.089539 112.0
710.422913 132.0
710.568726 224.0
713.144104 148.0
714.93634 168.0
715.580383 208.0
717.231689 168.0
718.271423 140.0
718.415466 148.0
718.926392 136.0
721.248352 160.0
721.486023 144.0
722.429321 404.0
722.496704 164.0
724.134644 188.0
724.410583 160.0
725.421936 172.0
725.736816 196.0
726.632507 200.0
727.271057 248.0
728.699402 164.0
729.58075 160.0
730.946838 144.0
731.406128 100.0
732.271118 148.0
732.692627 156.0
733.709778 148.0
735.386719 268.0
735.457458 456.0
736.132263 144.0
736.440308 104.0
737.451538 224.0
738.196411 176.0
739.386536 188.0
740.377197 168.0
743.53772 180.0
744.026184 160.0
744.140198 152.0
744.411682 216.0
746.019897 160.0
746.425232 192.0
747.27063 152.0
747.444763 160.0
751.467407 128.0
752.164185 144.0
752.458984 168.0
753.212585 196.0
753.655029 140.0
754.46051 132.0
754.994263 144.0
755.508362 140.0
755.710815 176.0
758.481689 148.0
758.635193 152.0
760.697693 144.0
762.666748 108.0
762.862915 192.0
763.780273 164.0
765.045837 172.0
765.223816 184.0
765.328125 104.0
765.389832 124.0
765.740173 184.0
766.122864 136.0
766.517151 104.0
767.080017 116.0
767.217651 228.0
767.254211 212.0
767.374451 204.0
767.484619 13296.0
768.015381 164.0
768.149902 152.0
768.222778 168.0
768.334778 140.0
768.488586 7800.0
768.64447 212.0
768.701416 132.0
768.836426 96.0
769.249817 104.0
769.315552 136.0
769.484009 2736.0
770.48999 940.0
770.698669 140.0
770.895996 176.0
771.053223 96.0
771.155396 172.0
771.483704 220.0
772.213318 148.0
772.31543 136.0
772.448608 324.0
772.492065 204.0
773.502441 252.0
775.469116 144.0
776.132507 108.0
777.981323 156.0
778.944458 144.0
779.286377 152.0
783.471619 516.0
784.399658 124.0
784.474121 236.0
785.471375 140.0
785.519165 144.0
786.408447 140.0
787.498169 136.0
787.904907 140.0
788.182678 112.0
788.461853 160.0
789.312195 136.0
789.534851 184.0
792.398132 128.0
793.434021 156.0
793.540527 140.0
794.022766 120.0
794.461914 228.0
794.677612 156.0
794.86676 124.0
795.000854 200.0
795.266479 144.0
795.46698 660.0
795.578552 368.0
795.724365 128.0
795.823303 168.0
795.870667 196.0
795.936279 164.0
795.980591 112.0
796.054321 196.0
796.196411 184.0
796.358337 176.0
796.400757 140.0
796.476562 1584.0
796.911133 224.0
797.17749 156.0
797.277344 100.0
797.360352 284.0
797.406799 112.0
797.455994 276.0
797.49115 456.0
797.762146 240.0
797.894653 332.0
797.993408 196.0
798.109863 136.0
798.147522 224.0
798.204834 104.0
798.400452 200.0
798.45105 444.0
798.651306 140.0
798.693787 140.0
798.767578 228.0
798.827515 104.0
798.894104 108.0
799.034485 220.0
799.080139 260.0
799.159058 288.0
799.268921 284.0
799.319885 436.0
799.398376 632.0
799.513672 119248.0
799.734619 172.0
799.797913 152.0
799.862732 204.0
800.006165 208.0
800.163147 240.0
800.51593 58736.0
800.700562 200.0
800.779114 280.0
800.852356 116.0
801.013672 256.0
801.122375 172.0
801.182983 116.0
801.254456 156.0
801.33136 160.0
801.514343 20680.0
801.692627 292.0
801.840393 240.0
801.906433 264.0
801.949097 116.0
802.010925 160.0
802.080933 124.0
802.509949 4560.0
802.636719 168.0
802.687439 144.0
802.71991 96.0
802.818909 120.0
803.103638 144.0
803.192261 152.0
803.355347 196.0
803.50354 2764.0
803.750793 144.0
803.794067 124.0
803.842346 136.0
803.903015 192.0
804.012939 140.0
804.149231 224.0
804.190918 216.0
804.274414 124.0
804.370483 220.0
804.52948 544.0
804.602234 196.0
804.67511 216.0
804.729248 248.0
804.87738 108.0
805.000427 176.0
805.223633 108.0
805.328064 236.0
805.419128 144.0
805.518433 140.0
805.620422 100.0
805.665527 120.0
805.779541 96.0
806.087891 148.0
806.16333 116.0
806.344177 200.0
806.533936 164.0
806.792114 152.0
806.880737 140.0
807.83197 116.0
808.557556 104.0
809.491577 160.0
814.876892 108.0
815.509888 156.0
820.389587 144.0
827.3573 108.0
830.670166 144.0
833.523315 156.0
837.45813 160.0
1109.686523 148.0
1161.736816 148.0
1248.133789 196.0
1290.534546 152.0
1314.279541 160.0
1323.197998 192.0
1327.349487 164.0
1342.940918 184.0
1344.794067 156.0
1359.026978 208.0
1389.949829 152.0
1397.893066 164.0
1412.77002 224.0
1419.503052 140.0
1424.493774 184.0
1470.12561 156.0
1500.638062 200.0
1507.785767 192.0
1510.15918 156.0
1512.224854 188.0
1515.252563 168.0
1519.299194 168.0
1519.888916 168.0
1523.918457 200.0
1527.424438 164.0
1529.688721 164.0
1530.311523 188.0
1531.682007 148.0
1534.284668 172.0
1537.146973 180.0
1539.270142 176.0
1543.794434 216.0
1544.709473 160.0
1548.208008 184.0
1555.216797 192.0
1560.802124 140.0
1561.942505 220.0
1570.235962 148.0
1587.213745 160.0
1590.974365 232.0
1592.78479 204.0
1593.436157 176.0
1598.055298 192.0
1600.156372 168.0
1602.099487 152.0
1603.175049 160.0
1606.324219 224.0
1613.02356 172.0
1614.158813 240.0
1614.718628 152.0
1619.040039 260.0
1621.691772 184.0
1626.688721 188.0
1633.2052 144.0
1635.015381 152.0
1638.316528 236.0
1639.371948 200.0
1640.081177 180.0
1640.379395 172.0
1641.056519 176.0
1643.040405 220.0
1644.073242 144.0
1650.082642 208.0
1653.172363 184.0
1661.274292 196.0
1661.898926 148.0
1662.069336 140.0
1662.945679 168.0
1665.527588 148.0
1676.176514 160.0
1677.097412 200.0
1677.57019 176.0
1678.736084 172.0
1680.603882 156.0
1693.575195 196.0
1693.781006 168.0
1696.018677 160.0
1701.095947 144.0
1703.009033 236.0
1704.397339 172.0
1705.613647 148.0
1707.019409 172.0
1710.655762 176.0
1712.137817 152.0
1717.181396 176.0
1718.459961 152.0
1718.591919 184.0
1720.564453 220.0
1725.223511 144.0
1728.540039 176.0
1730.675537 152.0
1730.94043 156.0
1732.01709 180.0
1732.970459 216.0
1733.442017 232.0
1733.872925 144.0
1734.917236 148.0
1740.342896 176.0
1741.198242 176.0
1748.74707 208.0
1750.270386 188.0
1754.577759 172.0
1766.351929 224.0
1766.502563 184.0
1767.740723 156.0
1769.037964 144.0
1769.766357 188.0
1772.42981 152.0
1778.308228 196.0
1781.683716 180.0
1782.473389 168.0
1783.246582 144.0
1783.448242 172.0
1783.692017 196.0
1787.863525 140.0
1791.172241 140.0
1793.362915 172.0
1793.885498 164.0
1794.526245 208.0
1795.71521 156.0
1801.767212 144.0
1804.370117 164.0
1807.152588 144.0
1807.973267 140.0
1816.114868 168.0
1816.267456 148.0
1817.624878 152.0
1817.972778 236.0
1821.470581 180.0
1821.750854 184.0
1825.558472 216.0
1831.285767 180.0
1831.771362 168.0
1833.125854 212.0
1842.750366 156.0
1848.932373 216.0
1851.337891 200.0
1851.406372 200.0
1853.102417 156.0
1858.469482 172.0
1858.640991 140.0
1861.490723 272.0
1864.364868 144.0
1869.932495 244.0
1871.335571 172.0
1871.654175 152.0
1879.808228 176.0
1882.777832 184.0
1884.392944 188.0
1885.239746 156.0
1889.969604 160.0
1890.601196 184.0
1891.726318 184.0
1892.670044 160.0
1894.185547 172.0
1911.009399 152.0
1913.150269 264.0
1918.463989 148.0
1922.964722 212.0
1925.129761 168.0
1926.850464 144.0
1926.937744 220.0
1927.697876 192.0
1927.855225 148.0
1931.929443 216.0
1932.139404 224.0
1933.460693 184.0
1937.383179 156.0
1937.523315 176.0
1937.813599 156.0
1941.239502 168.0
1944.897827 152.0
1945.617554 140.0
1946.802856 200.0
1948.708862 184.0
1950.306885 136.0
1951.125732 168.0
1954.397339 204.0
1958.25293 216.0
1958.341064 196.0
1963.849487 208.0
1968.65918 196.0
1972.661377 148.0
1973.492432 152.0
1979.411743 164.0
1981.466431 160.0
1981.944946 168.0
1985.871948 144.0
1986.084839 168.0
1987.947876 172.0
1992.431519 188.0
1992.902466 176.0
2002.366943 192.0
END IONS
