BEGIN IONS
PEPMASS=1450.0
CHARGE=1
MSLEVEL=2
SOURCE_INSTRUMENT=DI-ESI-Ion Trap
FILENAME=vancomycin_IT_1450mz.mzXML
SEQ=*..*
IONMODE=Positive
ORGANISM=GNPS-LIBRARY
NAME=Vancomycin M+H
PI=Dorrestein/Moore
DATACOLLECTOR=Roland Kersten
SMILES=C[C@H]1[C@H]([C@@](C[C@@H](O1)O[C@@H]2[C@H]([C@@H]([C@H](O[C@H]2Oc3c4cc5cc3Oc6ccc(cc6Cl)[C@H]([C@H](C(=O)N[C@H](C(=O)N[C@H]5C(=O)N[C@@H]7c8ccc(c(c8)-c9c(cc(cc9O)O)[C@H](NC(=O)[C@H]([C@@H](c1ccc(c(c1)Cl)O4)O)NC7=O)C(=O)O)O)CC(=O)N)NC(=O)[C@@H](CC(C)C)NC)O)CO)O)O)(C)N)O
INCHI="InChI=1S/C66H75Cl2N9O24/c1-23(2)12-34(71-5)58(88)76-49-51(83)26-7-10-38(32(67)14-26)97-40-16-28-17-41(55(40)101-65-56(54(86)53(85)42(22-78)99-65)100-44-21-66(4,70)57(87)24(3)96-44)98-39-11-8-27(15-33(39)68)52(84)50-63(93)75-48(64(94)95)31-18-29(79)19-37(81)45(31)30-13-25(6-9-36(30)80)46(60(90)77-50)74-61(91)47(28)73-59(89)35(20-43(69)82)72-62(49)92/h6-11,13-19,23-24,34-35,42,44,46-54,56-57,65,71,78-81,83-87H,12,20-22,70H2,1-5H3,(H2,69,82)(H,72,92)(H,73,89)(H,74,91)(H,75,93)(H,76,88)(H,77,90)(H,94,95)/t24-,34+,35-,42+,44-,46+,47+,48-,49+,50-,51+,52+,53+,54-,56+,57+,65-,66-/m0/s1"
INCHIAUX=N/A
PUBMED=N/A
SUBMITUSER=mcruesemann
TAGS=Antibiotic[Drug Class]
LIBRARYQUALITY=3
SPECTRUMID=CCMSLIB00000075311
SCANS=26
408.3284 14.217875
430.455902 6.97201
435.238098 2.746294
442.141357 3.905294
445.104431 15.961108
450.924683 24.910374
453.121277 14.393003
470.183197 4.591544
473.197418 11.362247
474.230103 3.581063
484.095062 6.931308
486.336182 23.373882
486.872284 2.676405
501.684753 27.578352
506.057098 2.901123
508.224213 6.010213
509.224518 3.692706
511.088928 5.312427
512.090942 1.443187
519.956238 9.979623
521.272705 1.048718
522.465576 8.387897
524.076294 39.536713
525.101746 4.746485
547.319214 2.184762
549.063904 9.667408
550.0 1.361171
555.96344 3.751717
558.952454 2.817184
568.496643 24.648615
569.436584 8.063611
574.0177 7.567153
579.07489 14.79509
590.824097 4.803395
592.727295 1.793564
593.413757 5.370601
595.899841 9.981907
598.763733 3.668357
603.030823 42.806877
608.055054 2.578145
610.159729 35.329609
611.38855 10.608237
613.189209 6.263702
616.231812 2.408427
618.238403 29.095734
618.875366 2.714046
621.181702 3.990251
623.083252 4.886961
624.042542 33.34787
624.718567 16.735382
627.095337 11.154436
628.023132 12.261743
629.497559 18.43438
631.315002 24.782967
640.861267 3.644135
642.46228 8.102921
643.999878 6.43303
645.363647 1.031065
646.181824 1.163114
649.311218 17.976681
652.287781 20.598289
655.25293 7.704106
659.085144 7.409436
665.908386 4.01068
667.244751 14.391783
667.884033 18.068811
669.230164 7.316618
669.898926 13.80135
670.901123 9.782868
677.680908 6.766798
679.133179 27.931391
679.911987 4.912485
681.090942 1.704869
683.252441 11.351189
684.865417 2.388529
688.229797 4.172647
693.090942 1.587367
696.442505 35.695103
697.003845 6.071692
700.272766 1.166799
712.048218 3.267569
713.872864 3.067991
720.074707 6.142598
721.359253 7.967069
722.918945 5.777229
724.643433 494.951263
725.461304 234.576874
726.107361 139.380966
726.820068 27.070013
727.643311 47.856209
728.245972 46.949413
729.145081 4.565167
729.971558 91.684074
730.545471 3.870814
731.293518 15.885036
732.541443 5.356587
733.501404 3.838742
734.276306 5.254537
736.056458 12.640515
737.048035 31.217464
737.571106 54.602543
738.200806 28.414169
739.130798 16.481865
740.016296 14.648845
741.052612 195.942719
742.045166 81.171082
743.063904 129.838165
744.057373 29.331259
745.12738 29.794983
746.043701 2.690482
747.193237 33.173012
747.953735 2.328031
750.319214 13.53204
750.893433 32.725357
753.380737 7.13094
754.115967 85.114433
755.197571 19.295033
756.12262 97.146774
757.19342 48.915932
758.039795 71.472755
758.878784 13.854914
760.281067 5.851746
761.120483 11.522235
762.090942 1.121113
762.897644 20.471205
764.80072 8.161729
765.703064 10.413362
767.307373 17.171217
768.055847 155.900574
769.068298 186.794281
770.047363 207.897141
771.053711 207.063843
772.103821 76.427643
772.987854 48.060631
774.147705 96.118134
774.954773 50.277145
775.504639 23.954792
776.245483 68.139832
777.240356 39.146694
778.131836 5.870916
778.916809 12.008899
779.497864 2.807514
780.052002 35.002007
782.019043 45.815228
782.699219 24.768393
783.454529 1.034
784.102417 55.294228
785.165283 30.389345
786.141663 31.146404
786.939026 28.455505
788.073547 32.450485
789.174988 21.623793
792.238281 16.912708
793.036621 4.28818
794.092407 42.357056
794.877197 51.457897
795.394104 11.846951
795.983154 126.39238
796.915833 51.372604
797.476624 4.453105
798.066223 7.279564
798.885498 9.935379
799.49585 26.23056
800.206299 67.713203
801.089966 104.197304
801.983948 135.492294
803.14447 86.025497
803.956055 19.659475
805.051208 2.521722
806.075378 17.431393
806.784912 14.200273
808.115417 20.810141
809.88678 14.501654
810.960388 55.376095
811.675293 19.319803
812.25824 29.32118
813.230103 66.663071
814.236267 14.444294
815.233765 5.156751
816.360718 12.157969
816.926208 57.38538
817.919373 41.063576
819.011353 72.065308
819.7229 9.271372
820.389282 10.756267
823.045654 17.656935
823.988403 12.863118
824.889954 20.005455
827.04303 3.366699
828.017761 82.26226
829.022949 78.870071
830.054749 114.705956
831.026855 52.02002
832.13855 10.567882
833.090942 1.551116
834.188049 9.056791
835.532288 11.584618
836.103821 15.482912
837.151672 19.060963
838.0 1.235026
839.114014 10.337904
839.979797 13.223134
840.610779 13.616706
841.14856 13.879021
842.070618 13.671491
843.103088 8.5665
844.530884 34.582935
845.080139 37.523357
845.827026 50.140133
847.011292 23.048622
847.980408 63.343422
848.818176 1.201581
849.951538 4.472918
851.183655 61.928921
851.845276 20.115849
853.237 31.920483
854.037354 3.85107
856.445862 11.371063
857.089966 4.578156
858.190918 25.616438
860.130188 20.428375
861.013184 7.304193
862.369507 24.394102
865.693604 13.798313
866.94519 59.389977
868.088745 21.512402
868.969727 118.544975
870.041382 89.888885
871.215515 49.03846
871.818176 1.317953
872.944275 33.02177
873.902222 7.194177
874.866272 2.765252
875.983887 37.368393
877.045776 29.633743
877.955627 5.833494
878.673645 2.651533
880.208618 14.191369
881.151123 9.319135
882.136536 6.157089
883.043518 3.18265
884.585449 4.969435
886.0 1.492081
887.032532 20.450542
888.113281 12.928603
888.939087 15.532385
891.086853 14.196789
891.739075 26.087021
892.275757 31.593813
893.043762 39.724945
893.846069 49.559994
895.159607 37.263359
895.906433 4.271796
896.897583 17.482388
898.015808 17.74687
898.645935 20.17791
899.315247 32.060951
900.145081 6.775737
901.172729 6.436686
903.181824 1.225762
904.006348 3.798386
905.031128 35.554779
906.076172 11.33977
906.963745 20.923443
908.079346 35.335075
909.291626 24.089016
910.081055 30.049753
911.141418 55.397827
911.943909 22.729759
913.119263 37.506535
914.092957 73.037666
915.169922 57.738155
916.167236 35.621487
917.060059 34.330692
917.886292 33.054951
918.829224 31.3887
919.34137 10.064631
919.884521 59.065117
921.054932 72.338501
922.162292 14.008957
923.232178 27.939291
924.22937 14.50045
925.136902 80.012817
926.138672 56.029713
927.00885 71.617569
927.902283 43.309048
928.965698 27.611977
930.229797 56.885799
931.120544 236.121048
932.133667 220.683975
933.022705 352.141571
933.984985 71.696365
935.063232 45.559654
936.092529 36.653885
936.905212 62.623234
937.408936 61.982777
938.085205 112.707939
938.924255 99.121536
939.958008 60.29213
941.17926 35.574181
941.89209 110.63797
942.96814 100.545746
943.913635 103.464325
945.114624 125.770927
945.93158 52.386013
947.068909 25.328569
947.864807 37.181206
948.654907 60.648144
949.31781 3.315782
950.075134 56.826748
951.102112 43.29707
951.959961 129.84877
952.924744 184.871445
954.031372 283.0914
955.046936 229.77887
955.886475 67.350365
956.882751 97.484352
958.297729 19.482594
958.973755 282.061737
960.009094 275.030792
960.958374 322.862701
961.943604 116.857384
962.895203 46.162643
963.871521 49.276279
964.703857 68.842941
965.205444 50.515259
966.107178 327.73642
967.020691 254.055756
968.044006 163.851059
968.91095 61.424072
969.969177 753.238831
970.97052 405.082001
971.992004 586.016846
973.066772 237.761703
973.924072 165.124695
974.882263 21.047564
975.405579 10.58377
976.00824 62.359482
977.149902 47.071083
978.064331 58.182808
979.205261 35.052086
980.032532 211.309174
981.008301 439.267303
981.964233 442.435272
983.014954 441.831665
983.998413 316.399353
984.988037 63.042217
986.063477 93.751366
987.039246 24.877882
988.024719 688.305359
988.988586 373.512939
990.051758 663.915771
991.051636 147.62207
992.131775 39.131798
993.061707 86.18206
993.977295 137.633194
994.836792 38.222202
995.412659 20.813728
996.224854 101.849968
997.038391 47.069939
997.991699 1174.164429
998.992676 1282.609619
999.909912 1345.443604
1000.984558 822.788513
1001.982727 325.317932
1003.061462 104.936394
1004.012207 15.962212
1004.532349 28.96587
1006.51886 7.393342
1007.326294 7.684161
1008.009155 210.876068
1009.014221 382.794647
1010.05188 381.500977
1010.944702 238.572784
1011.944275 117.56414
1013.102478 92.013885
1013.901917 44.669846
1014.704285 45.865742
1015.358704 59.292339
1015.995789 1965.394775
1017.012573 1428.283447
1018.006897 1977.182739
1019.031921 429.539185
1020.042175 195.180725
1021.153442 94.766006
1022.022461 31.937239
1023.080566 32.189766
1023.960205 54.670433
1025.036499 77.96859
1025.995605 1467.24646
1026.939575 1476.733765
1027.981079 1753.280273
1028.996582 638.437988
1029.941406 208.369171
1030.937256 92.953537
1032.116211 20.905499
1033.016846 17.865883
1033.627441 52.438126
1034.17981 26.704662
1035.081909 79.088943
1036.06897 144.995224
1037.123047 191.839737
1038.020874 155.874695
1039.263428 150.923782
1040.566406 26.918634
1041.570435 38.250626
1042.401489 31.287216
1042.985107 67.808151
1043.96936 1689.914795
1044.996704 1309.990845
1046.027344 1759.010132
1047.167725 410.280212
1048.124146 257.544556
1049.047485 74.044655
1049.929321 43.33247
1051.202881 48.409466
1052.064575 109.302803
1053.010254 285.001953
1054.110474 463.027466
1055.075806 399.285034
1056.038574 389.378265
1057.009399 80.360298
1058.230835 65.34993
1059.045166 17.928999
1059.975098 48.62833
1060.977783 60.558701
1062.150635 276.681366
1063.073975 393.282013
1064.066284 633.180542
1065.005615 340.193787
1066.006592 236.133743
1066.834229 56.520889
1067.817261 55.30584
1069.071289 342.614563
1070.139038 748.114563
1071.204102 1217.961304
1072.196045 1067.906128
1073.152344 787.532959
1074.170654 209.774933
1075.116455 136.981842
1075.949585 10.557105
1076.674683 29.666893
1077.906738 43.419682
1079.078735 186.116867
1080.088867 745.805786
1081.127319 1209.511597
1082.111206 1620.997314
1083.084106 884.660095
1084.031494 497.759491
1085.102417 205.571365
1086.103638 105.36525
1087.124146 1310.488403
1088.183472 1678.33667
1089.186157 1986.407349
1090.182983 720.072754
1091.098511 550.310547
1092.012939 403.625519
1092.988525 165.798386
1093.977539 33.738869
1095.128906 82.596619
1095.992432 125.776695
1097.082397 2234.971436
1098.068237 4986.689941
1099.106079 6385.938477
1100.072388 5654.822266
1101.080811 2548.641846
1102.111206 598.152527
1103.092041 189.133575
1103.976196 88.387444
1105.114624 52.193325
1105.951294 34.269157
1106.916626 356.115143
1108.05957 3170.432129
1109.049438 2719.10791
1110.025269 3369.037109
1111.072144 581.263733
1112.092651 251.81456
1113.109863 342.24115
1114.068604 136.82222
1115.064453 32194.076172
1116.08374 26349.603516
1117.130981 34940.476562
1118.148193 6230.679199
1119.122803 1959.998779
1120.111328 355.293549
1121.029053 199.191544
1122.221069 175.659119
1123.078735 192.939713
1124.004639 220.596146
1125.059326 4873.39502
1126.066895 15354.394531
1127.094971 12661.21582
1128.048462 12206.28125
1129.038086 2578.469971
1130.022461 935.313904
1131.028442 279.099274
1132.091431 504.372864
1132.993896 209.694214
1134.042114 290.325714
1135.067139 131.727661
1135.965088 65.736282
1136.935059 51.918034
1137.935547 25.841879
1138.934937 61.332722
1139.550415 25.140131
1140.112671 78.2491
1141.079224 2579.692871
1142.28894 6197.718262
1143.096802 364401.375
1144.138306 206555.875
1145.090942 253281.640625
1146.097412 46393.046875
1147.100464 10525.864258
1148.115723 1256.99707
1148.972778 216.141693
1150.024902 114.243805
1151.034912 351.292603
1152.04248 661.596802
1153.081909 482.734192
1154.029175 482.419434
1154.994995 164.064423
1156.187256 84.5989
1157.054321 244.139725
1158.182617 201.693878
1159.070923 221.260056
1160.100342 1542.930664
1161.065552 957.344177
1162.061157 1211.336182
1163.015381 398.0755
1163.755371 57.496845
1164.304688 11.088478
1164.914062 7.567389
1165.432861 15.507678
1166.243042 8.092698
1166.991577 98.399437
1168.116699 198.406784
1169.121948 5978.320312
1170.147827 4363.867676
1171.076538 5477.512207
1172.105713 959.481567
1173.129272 433.015198
1174.043457 46.348183
1174.989014 6.477604
1175.50708 5.413323
1176.019043 7.925913
1177.81897 636.591064
1178.89209 454.887207
1179.829834 668.208313
1181.002197 260.732452
1181.94043 84.283722
1183.20105 12.17167
1183.952148 10.210272
1185.031738 643.244507
1186.065918 362.828308
1187.131592 640.475647
1188.015259 953.479736
1188.940796 533.933655
1189.996094 956.083069
1191.085571 206.071243
1192.062744 23.369757
1192.835938 11.932116
1193.991089 49.038063
1195.025879 61.013092
1195.966553 61.662163
1196.8927 17.574953
1197.422363 70.138031
1198.139771 35.649803
1199.157349 29.150131
1200.341919 35.031895
1201.067383 28.483973
1201.875977 49.546379
1202.740723 26.796028
1203.516846 32.499252
1204.050537 57.622875
1204.751587 34.438961
1205.370361 78.935722
1206.082642 631.513733
1207.074707 436.52832
1208.00354 687.511475
1209.075928 142.371994
1209.987793 105.914955
1210.701172 19.097576
1211.278931 46.625118
1212.001831 3.921527
1213.278198 31.494514
1214.179443 90.207451
1215.196411 131.096756
1216.042603 114.303505
1217.151611 90.193993
1217.970093 81.327209
1218.578613 2.919982
1219.095825 29.677437
1220.0625 17.521744
1220.870483 99.038498
1221.940796 68.490295
1223.170776 335.372528
1224.188965 148.411743
1225.100952 336.985291
1226.127075 497.489441
1227.040039 234.286484
1227.98877 36.574841
1228.784058 42.21714
1229.500854 3.907578
1231.25769 20.683765
1232.117554 95.285912
1233.08374 345.173706
1234.135254 390.456512
1235.069214 217.300156
1235.940308 84.405815
1236.545532 1.652009
1237.266357 16.530027
1237.819824 20.019693
1241.052979 625.812683
1242.090332 622.2901
1243.121216 795.536072
1244.104736 546.787292
1245.018066 170.678345
1246.106689 93.957787
1246.86438 39.919445
1247.624023 9.583853
1248.944214 127.400528
1249.94873 94.154358
1251.062988 805.878235
1252.072144 578.46991
1253.026245 496.652405
1254.074097 289.597656
1255.134277 66.550331
1256.251465 8.939907
1256.977539 10.590209
1258.269653 174.808853
1259.112915 2327.990479
1260.13269 2949.748291
1261.090332 4935.602539
1262.110962 3675.346191
1263.16394 1776.848145
1264.089722 332.983002
1265.21228 79.110367
1266.056396 7.086854
1266.728516 21.076494
1267.278076 12.379014
1267.969604 108.498039
1268.994629 2784.015137
1270.067017 1995.011597
1271.073364 1935.661133
1272.067871 642.522339
1273.04187 216.875015
1274.059937 90.502892
1275.142822 169.695892
1275.865112 88.895134
1277.005737 21484.445312
1277.978394 24637.638672
1279.076416 30407.556641
1280.118408 6415.601562
1281.082886 1802.169312
1282.300659 338.834076
1283.220337 17.793295
1284.144165 20.09956
1284.989502 234.113403
1285.990356 628.250122
1287.049072 5318.299316
1288.07605 9879.825195
1289.07959 9029.657227
1290.070557 6605.559082
1291.091064 1636.672363
1292.102539 640.031067
1293.066772 400.812988
1294.115967 203.562241
1295.026001 138.660736
1296.033936 106.97995
1296.575317 57.183609
1297.172241 102.540077
1297.720703 23.743799
1298.291138 20.633583
1299.241699 16.650343
1300.116821 35.188065
1301.170288 26.075932
1302.266235 65.323601
1303.125244 3992.843262
1304.230225 7738.875977
1305.085205 1105437.375
1306.109497 815828.5
1307.071411 870475.75
1308.092529 171118.5
1309.1073 36765.230469
1310.123413 4412.054688
1311.078979 379.222626
1312.12854 38.157242
1313.048828 238.50943
1314.008545 725.776367
1315.081543 789.141418
1316.133423 492.120331
1317.033203 258.624329
1318.111572 164.375809
1319.013184 385.855652
1320.046021 164.448227
1320.942505 281.555695
1322.075806 3845.875732
1323.097534 2615.373535
1324.11499 2844.681396
1325.084229 835.32251
1325.990601 96.814651
1326.801025 15.107209
1327.312744 10.692459
1327.952881 85.462357
1328.80603 89.651794
1329.45459 2.251091
1330.110352 154.793808
1331.028442 162666.0625
1332.058105 139733.46875
1333.102783 152861.3125
1334.136353 30416.359375
1335.114502 8523.90625
1336.079468 1165.251465
1336.997437 149.476425
1338.094849 19.380684
1339.164185 29.589792
1341.156982 31.459795
1342.038208 41.65258
1343.078735 44.216019
1344.171631 6.133514
1345.040527 23.768932
1346.02478 30.021784
1347.252075 42.493698
1348.209839 53.020897
1348.94812 80.162216
1349.982422 95.270935
1351.027466 50.632912
1352.364624 7.483636
1353.282227 5.656445
1358.045044 2.08438
1358.992432 131.734406
1359.973145 62.129265
1360.929199 149.23024
1361.485718 36.129395
1362.052368 14.162411
1362.864014 53.536358
1364.953613 4.939548
1366.862305 6.356316
1367.896973 12.662961
1368.692505 32.333591
1369.621216 40.560642
1370.210205 45.955109
1371.035767 49.093273
1372.113037 39.943764
1373.041748 4.85299
1373.968018 162.315033
1374.615479 43.821198
1375.213989 156.533173
1376.464844 678.205505
1377.191284 1026.001221
1378.032593 2138.011963
1378.974487 619.94281
1379.725098 322.776978
1380.506104 86.322357
1381.028076 23.443464
1381.957031 54.325832
1382.662842 31.680754
1383.209961 9.648833
1384.093628 12.016513
1384.603149 56.065887
1385.737183 106.604393
1386.967529 10625.924805
1387.963501 10159.21582
1389.046021 11873.794922
1390.114014 2547.973633
1391.157593 1004.396912
1392.107666 247.691452
1393.147217 69.494919
1393.908203 73.736046
1394.943115 34.204868
1395.61853 24.102753
1396.33374 14.674512
1397.125244 23.904985
1397.955322 8.461535
1399.321289 2.496593
1399.915649 15.944075
1400.978149 237.417297
1401.806396 196.893356
1402.457764 182.851166
1403.215454 340.073547
1404.101562 640.231445
1405.055908 462.557007
1406.192627 378.082306
1407.117065 134.887955
1407.873291 4.208882
1408.453003 23.902851
1408.98584 12.066275
1409.485962 21.212196
1410.188965 22.158117
1410.713013 71.298958
1411.342285 36.886387
1412.129272 41.402466
1413.028687 235.152206
1413.988892 482.229889
1415.027588 439.602173
1416.129272 252.182678
1417.124878 275.884003
1418.076172 229.707001
1418.873779 79.733971
1419.490112 55.004227
1420.12207 1353.921631
1421.197876 846.716797
1422.172729 999.368469
1423.137329 247.274185
1424.204834 61.894238
1425.049438 19.128767
1426.754395 8.152201
1427.991211 29.820759
1429.133179 107.172356
1430.059448 819.807007
1431.067139 10316.379883
1432.120483 6940.17627
1433.09375 6793.171387
1434.155884 1301.456665
1435.119263 222.813797
1435.898193 70.115395
1439.228394 2.508731
1448.071655 68.997978
1449.114868 34.569672
1449.957764 40.266121
1451.141968 25.4685
1452.060547 72.776901
1455.372192 8.698734
1458.810791 9.893354
1460.049194 2.687818
1460.902466 8.828506
1461.405884 2.164118
1462.057495 22.191059
1462.569214 23.910675
1463.209839 64.957619
1463.856445 3.137667
1465.182251 3.652185
1466.045288 8.297708
1467.146729 21.286644
1468.272217 17.818003
1469.509033 3.501855
1470.165649 10.256909
1472.201782 23.697626
1473.450073 91.055336
1474.050293 1955.363647
1475.096802 1625.127808
1476.112915 1437.784668
1477.082031 616.358765
1478.038696 102.80545
1478.978882 51.10923
1479.481445 3.984218
1481.118164 30.595005
1482.158081 131.611694
1483.154053 117.599632
1484.041626 2.393487
1484.796265 16.693932
1485.508301 2.931819
1486.51355 9.6305
1487.142212 2.673728
1487.957764 3.146668
1489.449463 18.122353
1491.225586 12.801309
1492.014526 6.142492
1493.2677 6.483069
1496.622437 59.416351
1497.595215 24.497032
1498.881348 29.358694
1503.109253 14.900682
1504.632324 23.87291
1505.927856 10.720795
1510.173218 11.434265
1512.004272 4.878474
1512.531494 6.138496
1516.040527 33.712799
1518.483398 38.684296
1520.026001 184.994675
1520.942871 252.280167
1521.839478 180.228073
1522.800781 23.599869
1524.459106 7.416132
1525.851196 13.963321
1526.51416 26.078625
1529.943359 12.574521
1530.727295 1.140591
1531.866333 4.019981
1532.501343 3.640169
1533.082153 7.232916
1556.324219 3.949342
1557.038208 4.391939
1560.998535 6.909607
1574.724854 13.600561
1575.44397 36.764164
1576.255859 27.636738
1577.151855 22.180967
1578.039673 6.537168
1578.564331 8.529226
1579.110474 7.169227
1580.046265 2.862527
1581.495117 3.108294
1582.688354 15.140368
1584.166748 5.887465
1588.959961 4.740473
1590.069824 46.981178
1591.005005 3328.737793
1592.054688 3036.506592
1593.110474 2461.288574
1594.099731 851.787537
1595.05835 409.357483
1596.28833 16.610386
1597.136719 24.165115
1602.054565 26.973999
1602.743896 21.594007
1605.391479 23.568708
1607.747192 31.089323
1608.308594 2.654891
1610.270386 11.89688
1611.980957 12.801518
1612.678711 4.360513
1636.216553 3.651348
1676.090942 1.185874
1697.727295 1.528494
1710.45459 1.254867
1738.467651 47.508564
1739.393799 59.242302
1740.325195 41.81073
1740.900879 6.871799
1744.899414 13.008381
1750.622314 9.76927
1751.244507 21.255716
1753.189087 66.257401
1754.166138 94.557831
1755.260498 54.337955
1756.098389 34.833488
1757.392456 10.757676
1773.859985 13.491832
1774.745239 38.188038
1775.827637 26.327934
1776.461182 11.762008
1777.373779 10.877298
1781.372559 8.909961
1785.13208 5.254135
1785.866089 2.744599
1807.471436 18.987141
1808.240479 13.363622
1809.308716 39.312668
1810.057251 42.153713
1810.856323 369.094543
1811.437866 218.449341
1811.96582 143.927856
1812.585693 39.036221
1813.244995 43.582199
1813.899536 11.814198
1814.681885 28.303768
1815.208984 23.502525
1816.169067 5.0946
1817.49707 2.584697
1820.077515 15.85433
1820.859253 4.160795
1829.134033 4.628661
1829.651245 51.065655
1830.255859 17.07312
1831.159302 65.981956
1832.114014 29.869223
1834.129272 2.686252
1835.681763 30.562679
1837.181641 23.119455
1882.888306 37.886276
1883.766113 401.546295
1884.567261 436.619324
1885.224365 263.934357
1885.866821 107.017334
1886.647217 58.72282
1887.731812 73.678635
1888.318237 9.140203
1889.96875 11.173743
1891.264038 4.26693
1891.780151 5.622496
1892.550293 122.463638
1893.326538 174.580261
1894.057861 52.211578
1894.836914 13.621988
1896.042603 3.285821
1896.723999 19.954161
1898.226929 4.407401
1900.456543 8.424795
1906.833862 6.749128
1923.505493 9.192663
1925.0 1.169487
1925.658325 16.137999
1926.765381 12.749445
1927.371826 17.238846
1928.057373 26.60725
1928.589844 2.454668
1929.576904 18.485413
1930.462036 102.01165
1931.420288 1494.568237
1932.323486 1528.113647
1933.175537 379.290527
1933.800171 114.060524
1934.601685 109.986717
1935.486206 34.204872
1936.165771 13.958698
1936.730835 69.303879
1937.476807 26.615526
1937.986206 48.892666
1938.585083 23.417934
1939.545532 1.115303
1940.189087 8.856135
1941.724243 9.196589
1942.410767 30.233969
1943.45459 1.058762
1944.732422 8.601721
1947.924805 8.92434
1949.417236 2.642156
1981.037231 5.014769
END IONS
