BEGIN IONS
PEPMASS=681.267
CHARGE=1
MSLEVEL=2
SOURCE_INSTRUMENT=LC-ESI-qTof
FILENAME=3b_7b-O-diacetoxy-5a_14b-O-dibenzoyloxy-15b-hydroxymyrsinol.mgf
SEQ=*..*
IONMODE=Positive
ORGANISM=GNPS-LIBRARY
NAME=3,7-O-diacetyl-5,14-O-dibenzoylmyrsinol M+Na
PI=LITAUDON/TOUBOUL
DATACOLLECTOR=Esposito
SMILES=C[C@H]1C[C@@]2(O)[C@]([C@@H](OC(C3=CC=CC=C3)=O)[C@@]([C@H](OC(C)=O)C=C[C@@H]4C(C)=C)(CO5)[C@]4([H])[C@]5(C)[C@@H]2OC(C6=CC=CC=C6)=O)([H])[C@H]1OC(C)=O
INCHI=
INCHIAUX=
PUBMED=N/A
SUBMITUSER=lfnothias
TAGS=
LIBRARYQUALITY=1
SPECTRUMID=CCMSLIB00000840358
SCANS=1
51.023304 417.040405
55.054085 271.431793
66.616348 99.586197
69.033028 462.606201
69.070122 292.071411
69.153824 50.333328
77.038681 1334.140991
77.117409 54.00658
77.221336 31.200001
79.05349 108.551903
81.033073 74.604446
81.068451 267.668793
83.009438 158.939804
83.048119 202.260406
85.027634 58.206631
91.052643 236.007401
93.070168 564.171875
95.048523 55.100609
97.061714 30.375
99.044243 119.845001
102.446335 110.0242
105.033669 19364.929688
105.091438 256.51059
105.150444 46.125
105.165237 98.201187
105.194939 107.486603
105.203835 97.375
105.254051 30.035721
105.275383 39.083328
105.296196 63.765629
105.323639 67.89286
105.372093 48.05896
105.433815 61.061279
105.458847 34.722221
105.507896 39.049999
105.608093 52.257141
105.701012 30.01786
105.743965 39.088772
105.776176 32.04348
106.019882 32.17308
106.037132 360.739899
106.827515 34.920921
107.084167 164.075699
109.064522 524.643188
111.082016 200.727295
113.643997 46.94231
115.055412 130.789093
117.070435 214.002502
117.589317 31.765631
119.048996 212.040894
119.087143 360.1008
119.628586 34.905491
120.83886 62.88908
121.01506 110.533096
121.064651 648.057922
121.121155 30.01087
123.079681 127.0
127.053558 148.266602
127.072418 202.097595
128.55513 27.612499
129.070465 275.409088
130.075806 97.184433
130.714935 52.972832
131.085266 836.546082
133.061783 126.020798
133.101166 305.859497
133.266769 29.4
135.081879 414.312897
139.075516 153.676102
141.067368 225.349106
143.084396 1502.078979
143.132172 36.09
143.311432 28.375
143.323761 29.10714
144.088516 111.847702
145.028305 98.796051
145.063858 212.055405
145.09993 669.167603
147.039658 123.674004
147.080185 464.305786
147.393707 38.3913
149.095657 222.983505
150.099258 83.340279
151.075439 33.089291
152.060883 32.666672
153.068115 52.686409
153.0914 92.695511
154.073608 143.593094
155.084625 837.223877
155.765457 47.215431
156.094177 78.01786
156.401184 51.335529
157.101074 831.211609
158.105026 188.116302
158.878754 28.25
159.081039 404.256409
159.115768 578.142517
161.058044 61.30769
161.09407 408.839905
163.074554 231.819702
165.068634 123.114304
166.078583 262.464905
167.084732 253.183807
169.064957 150.473495
169.100525 600.256226
170.102524 121.615196
170.356415 28.470591
171.079529 535.710083
171.11554 46.013161
171.338928 37.349491
173.095856 4572.648926
173.174072 30.157049
173.188126 49.197578
173.235748 52.471149
174.097153 79.920464
175.110229 462.199402
175.329529 32.007351
175.413193 83.564651
177.125931 116.454498
177.438141 28.01667
178.073425 65.951218
179.086044 403.890686
180.091431 267.588196
181.100906 716.62262
182.105209 74.333344
182.58754 54.19146
183.080582 267.240997
183.114929 243.079193
184.087906 348.292511
184.662262 48.008621
185.095825 1044.496948
186.407608 35.33654
187.110092 467.567108
188.117081 84.862244
192.093002 291.230804
192.340164 72.178574
192.992615 29.760139
193.065018 54.223209
193.099884 363.179596
194.108322 107.496002
194.129135 71.416656
195.078796 268.980988
195.11644 1782.186035
195.514648 35.007351
196.123672 151.067001
196.529556 44.787159
197.094971 718.711975
197.132507 2212.791992
197.31192 30.51524
197.461411 39.53186
197.726395 47.537788
198.131866 45.4767
198.377014 43.598679
199.110489 288.635101
199.148758 125.440201
201.085068 144.207794
202.075424 214.512695
203.10466 686.097595
203.641983 29.575001
203.67926 54.36742
205.10022 247.650894
205.117355 96.521744
206.108078 293.096497
207.117325 793.017822
207.167984 33.107761
208.117203 121.878403
209.093658 417.422089
209.131699 527.630981
209.609726 34.537788
210.104126 83.019073
210.132034 119.147499
211.111313 571.981812
211.148132 497.083893
211.806702 31.44643
212.117676 38.13306
213.092056 51.010422
213.127625 116.142899
215.107285 147.071793
215.596985 32.17308
216.109314 74.539177
217.102112 290.595093
217.122543 242.680801
217.483887 47.347832
219.115784 527.913818
219.133072 355.355896
219.381332 28.28017
220.124237 531.782227
221.133255 1468.043945
222.136597 35.48077
223.112259 420.625
223.148254 572.763672
223.528168 47.129028
224.11879 58.470749
224.159149 92.223213
224.298935 35.84375
225.126404 362.574707
225.161407 415.683289
225.499313 36.002781
227.107147 46.289291
227.142029 101.903198
230.123703 109.163803
231.117569 215.404999
232.124252 463.157104
233.130783 727.687378
234.139328 628.652588
234.183868 29.05921
235.112869 452.305298
235.147308 2634.795898
235.314194 30.032141
235.602386 49.18409
235.719879 36.130322
235.874847 35.275002
236.114288 90.241379
236.149506 183.136093
237.129272 788.000977
237.163498 1674.918945
237.331741 45.370369
237.572632 51.681599
237.776138 38.612289
238.097885 112.757599
238.13179 80.408333
239.10643 96.798912
239.142502 1795.312012
239.588104 48.002659
239.727707 82.189392
240.145477 297.265686
240.32666 27.01667
241.122025 118.0056
243.096939 43.206631
243.716019 28.64015
244.124496 257.044403
244.221512 34.541672
244.316605 62.002449
245.132172 219.837708
245.834457 46.10746
246.891891 31.111839
247.109192 109.625
247.14798 3894.745117
247.237167 42.720589
247.333267 76.080177
247.430283 32.065788
247.517502 31.01042
247.719955 37.00658
248.1194 210.485306
248.153839 267.006592
248.575729 30.489861
249.126343 73.910713
249.16449 1937.988037
249.317337 29.375
250.137802 107.0
250.170609 158.710098
251.142349 312.560699
251.176407 256.123199
252.112457 247.149902
253.123016 573.476318
253.159042 985.013428
253.254715 68.820457
253.344269 32.015629
254.27742 29.4
255.139206 122.510597
256.119049 60.38409
257.153748 63.59259
257.432068 30.47368
259.147461 1106.102051
259.332214 32.805
259.563934 30.01042
259.680267 37.55603
260.148804 64.371948
261.114227 73.6875
262.092834 34.17308
262.136414 356.677612
262.296997 55.314289
262.454987 30.00379
263.107422 255.060593
263.847626 64.51136
265.159607 5527.957031
265.245941 31.375
265.744965 50.14286
266.154816 56.41021
266.585846 38.022961
267.138336 134.384598
267.174164 1453.760986
267.467346 39.18182
267.554077 35.462841
267.877289 29.013889
268.167938 55.155769
268.726349 30.13587
269.152832 152.041702
271.162384 35.107761
275.152496 37.799999
277.159454 3911.639893
277.23053 64.289383
277.330444 45.941181
277.375885 38.125
277.642944 56.75
277.961853 75.49588
278.165833 55.222221
278.454742 31.09783
279.099731 28.297621
279.136749 133.875
280.17392 30.92045
281.506165 43.04546
283.169159 277.339294
285.18399 110.333298
287.141235 31.785721
295.126312 36.260422
295.169586 3743.062988
295.239319 61.533329
295.507019 69.688889
295.918304 64.560349
296.084167 54.031719
296.171509 105.845001
297.147034 299.476288
299.136444 132.802795
299.162537 139.009598
299.398621 35.73724
301.830353 39.038792
307.13208 141.011795
307.168152 150.396103
307.900604 43.012501
309.178772 41.281979
313.072357 57.136189
313.180878 543.525574
315.170746 26.875
317.151917 295.134613
318.159363 119.079697
319.202423 44.544491
325.179077 467.381012
327.1362 33.14286
327.185852 27.816669
329.155304 63.852612
335.159393 61.43269
337.181671 441.111115
338.185089 40.135872
339.134125 67.801323
343.17514 65.640152
344.173248 67.207153
347.159454 85.445976
353.185364 77.715912
355.190918 302.371887
356.029236 28.890631
356.194275 71.040092
357.185211 452.803406
358.723877 33.91848
359.161621 101.013199
361.108643 160.023895
367.819458 27.976351
369.184418 881.114624
369.474609 39.91848
369.812866 80.719116
371.158112 58.875
371.213165 38.080132
373.212646 123.067802
377.172943 914.491577
377.756165 36.224998
381.183167 671.57312
383.81543 63.111839
385.197632 128.397507
387.191315 51.257809
389.13324 173.862701
391.165833 54.365261
399.194977 940.099487
400.200317 76.254517
408.569733 38.27174
409.173492 103.222603
410.175995 36.003201
417.207153 817.285706
418.050446 48.195309
418.15387 58.224998
418.205688 55.640148
421.176514 82.90625
429.194031 41.55682
435.208282 34.224998
437.19397 319.043396
439.187836 2191.163086
439.651459 44.297619
439.955231 101.054199
440.039032 49.066669
440.126617 48.25
440.191376 130.290802
440.373444 34.722221
440.43277 45.89352
440.999573 61.523548
457.199341 105.368401
473.207062 74.375
477.227783 197.166397
478.23175 87.036293
481.197235 159.779404
482.189117 46.67593
499.210327 3995.305908
499.390961 28.242649
499.473358 38.235291
499.565155 34.375
499.616364 49.0
499.71463 45.761909
499.832611 50.183819
499.940521 30.11574
500.210449 274.187988
500.545868 29.625
500.571991 48.68597
501.061523 32.166672
501.170593 30.3913
502.888336 27.160721
517.22052 88.008331
526.675903 40.541672
537.237671 44.926281
537.636597 31.640631
539.232239 63.190479
541.221558 68.820457
559.23053 1358.464966
560.228027 41.25
561.225464 1875.483032
561.4328 54.00893
561.834473 33.140629
562.128052 56.0303
562.225037 33.640629
564.90741 28.0
567.314392 28.28017
569.26001 126.407303
579.233398 61.720242
621.246521 6740.47998
621.34967 56.080132
621.55658 48.025002
621.699951 28.004629
621.730042 28.42857
621.808105 29.049999
621.931641 40.445648
621.984924 58.625
622.120605 38.06649
622.212158 40.520161
622.247559 535.366882
622.416382 33.226849
622.549622 30.816669
622.850708 125.1875
622.971619 34.408779
625.797607 43.004631
677.63739 33.375
678.877441 41.695511
679.135498 35.578949
680.285339 28.04167
681.268066 26456.189453
681.501282 186.701004
681.594727 107.816704
681.655029 32.755798
681.719849 35.606022
681.760925 54.758888
681.808777 74.861839
681.884277 78.87973
681.997192 43.149559
682.113464 44.29327
682.176086 83.719002
682.209839 68.493698
682.273926 1909.124023
682.370972 141.622101
682.429321 70.022728
682.608582 44.041672
682.667053 75.930832
682.692688 52.013161
682.811157 31.08013
682.880249 176.561005
682.9375 47.160709
682.99884 39.041672
683.308777 86.025002
683.366455 43.0947
683.513489 77.347221
683.586792 51.799999
683.66626 29.003571
683.84082 37.78241
683.878174 45.223679
683.912354 59.840279
684.121277 56.00198
684.451965 38.111839
685.997742 34.708328
688.224243 58.592209
690.64917 31.142241
694.346375 67.146744
703.712219 31.25
742.174683 49.69231
END IONS
