BEGIN IONS
PEPMASS=853.394
CHARGE=0
MSLEVEL=2
SOURCE_INSTRUMENT=LC-ESI-qTof
FILENAME=f.philipwi/GNPS_Marine_Invertebrate_Secondary_Metabolites_UHManoa/GNPS_SpongeSpectraAlreadyConvertedTo_mzXML/PW-125_P2-C-7_01_Hymenamide_B_830amu_Scan526-573_15591.mzML;
SEQ=*..*
IONMODE=Positive
ORGANISM=GNPS-LIBRARY
NAME=Hymenamide B M+Na
PI=Philip Williams
DATACOLLECTOR=Williams
SMILES=O=C2N5[C@H](C(=O)N1CCC[C@H]1C(=O)N[C@H](C(=O)N[C@H](C(=O)N[C@H](C(=O)N[C@H](C(=O)N[C@H]2Cc3ccccc3)CCC(=O)O)C(C)C)Cc4ccccc4)CC(=O)N)CCC5
INCHI=
INCHIAUX=
PUBMED=
SUBMITUSER=philipwi
TAGS=
LIBRARYQUALITY=3
SPECTRUMID=CCMSLIB00000425024
SCANS=548
184.110794 72.0
187.098099 84.0
189.143906 56.0
195.12265 104.0
209.751984 40.0
212.110321 264.0
213.433029 24.0
213.954849 68.0
214.102356 88.0
214.421295 20.0
220.162292 96.0
227.092072 76.0
229.113785 96.0
230.128006 276.0
233.593094 296.0
233.710022 40.0
234.125244 108.0
235.127411 120.0
245.130768 84.0
246.139801 100.0
247.592026 144.0
248.164078 96.0
250.136154 80.0
256.597717 128.0
259.096832 48.0
261.895203 56.0
262.225403 20.0
264.133087 84.0
269.092834 44.0
273.27063 28.0
274.124847 36.0
277.126434 124.0
281.156036 64.0
281.230865 32.0
282.161652 88.0
289.099426 168.0
290.129974 132.0
291.15152 196.0
292.981659 32.0
293.123535 108.0
293.199921 32.0
295.649963 124.0
303.147614 108.0
306.890686 36.0
308.814392 32.0
309.161407 408.0
309.296265 40.0
310.160095 200.0
311.699982 36.0
315.175873 60.0
318.170563 76.0
326.202576 76.0
326.501953 36.0
326.617157 32.0
327.158844 24.0
331.183502 164.0
332.181885 72.0
332.298096 24.0
335.174408 124.0
336.097015 100.0
338.035919 136.0
338.192078 36.0
341.046692 20.0
341.164398 64.0
345.16748 64.0
347.100555 116.0
347.647064 124.0
350.159424 68.0
352.884338 80.0
355.175171 88.0
356.171478 96.0
357.169281 116.0
358.884918 108.0
359.166931 228.0
360.178192 108.0
361.177155 168.0
362.080048 40.0
362.65036 112.0
363.136078 112.0
364.181488 104.0
368.353729 28.0
370.191132 96.0
371.209808 136.0
376.868439 44.0
377.462677 32.0
377.90863 28.0
379.163055 84.0
379.633087 20.0
381.197296 320.0
382.180511 100.0
383.081238 88.0
383.230988 52.0
385.005005 28.0
385.142609 128.0
387.171448 108.0
388.138275 28.0
389.143616 96.0
389.256805 72.0
392.104279 56.0
392.988373 56.0
398.176147 256.0
399.166534 44.0
399.918304 68.0
401.104706 44.0
403.175537 32.0
404.674469 144.0
407.194702 80.0
409.445862 20.0
411.719177 28.0
412.948853 44.0
413.217438 164.0
415.725586 24.0
416.024567 120.0
416.617889 52.0
419.620819 68.0
419.960388 28.0
421.163055 64.0
421.359314 44.0
422.131683 52.0
424.151001 100.0
426.167053 136.0
426.676056 180.0
426.886078 32.0
427.171082 276.0
428.22583 284.0
429.240692 396.0
430.235352 184.0
430.899292 68.0
431.251495 76.0
433.188446 72.0
433.426727 88.0
433.709076 28.0
434.758453 20.0
434.957855 24.0
435.182159 2104.0
435.343475 24.0
435.436584 32.0
435.681763 928.0
435.900909 40.0
436.178101 252.0
436.2883 20.0
436.807739 48.0
437.007599 32.0
437.170166 40.0
437.700806 204.0
438.194397 108.0
438.7995 24.0
439.209106 64.0
439.984283 28.0
440.352051 32.0
440.546051 44.0
441.161713 112.0
443.158905 40.0
443.924133 48.0
447.922028 88.0
448.650848 36.0
448.920929 124.0
450.218445 376.0
451.20636 100.0
453.199005 64.0
453.511169 36.0
455.30484 144.0
455.917114 48.0
456.22821 300.0
457.220184 144.0
457.483734 36.0
458.239349 188.0
459.230591 60.0
460.050568 88.0
461.076569 52.0
462.035217 48.0
463.159454 68.0
463.255493 84.0
463.996674 132.0
464.271332 52.0
465.921021 76.0
466.172089 196.0
467.186646 76.0
468.22168 80.0
469.201508 88.0
470.223846 48.0
472.202606 40.0
473.020203 36.0
473.769165 28.0
474.245911 52.0
475.254944 136.0
477.276276 80.0
478.19165 116.0
478.777283 28.0
479.167358 104.0
480.955658 32.0
481.109436 84.0
484.274536 52.0
486.184204 76.0
486.282593 64.0
490.224976 36.0
491.99231 108.0
492.119598 80.0
492.232727 168.0
493.213135 88.0
493.775482 40.0
494.202179 116.0
494.342224 24.0
494.937683 44.0
495.185883 164.0
495.916687 40.0
496.186432 140.0
497.9487 40.0
500.227234 200.0
501.23999 108.0
502.139496 116.0
502.268066 52.0
505.267273 96.0
505.860291 76.0
506.218781 68.0
506.921783 32.0
507.926941 36.0
508.186249 424.0
508.358032 24.0
508.61676 28.0
509.033752 56.0
509.194946 152.0
510.178619 56.0
510.285767 84.0
511.18692 80.0
511.265411 80.0
511.92865 84.0
517.221008 104.0
520.230652 84.0
521.011719 72.0
521.22998 36.0
522.234619 76.0
525.254395 136.0
525.882812 28.0
527.30658 336.0
527.858093 48.0
528.196716 136.0
528.242615 96.0
528.296265 132.0
529.309021 88.0
531.276001 32.0
536.179993 76.0
536.490051 92.0
538.189331 84.0
538.972412 60.0
540.266968 100.0
541.848206 80.0
541.952087 64.0
544.269531 48.0
545.225037 72.0
547.322449 80.0
549.277161 120.0
550.054993 36.0
550.27179 68.0
551.221741 92.0
551.401306 36.0
554.94751 76.0
555.308289 248.0
556.295837 224.0
557.374939 92.0
558.097534 32.0
558.315735 116.0
559.222107 100.0
560.283264 40.0
563.27478 64.0
567.275879 72.0
569.281738 36.0
570.273621 64.0
570.712341 100.0
571.245422 36.0
572.307922 108.0
573.059937 32.0
575.305298 40.0
576.30896 52.0
577.290894 136.0
578.282959 80.0
579.290527 60.0
580.303345 64.0
581.268311 72.0
584.669739 124.0
587.285767 88.0
587.401123 124.0
588.290466 76.0
589.257202 184.0
590.200806 64.0
591.223328 76.0
592.293274 44.0
594.1875 96.0
594.973206 80.0
596.2323 68.0
597.278015 220.0
598.294861 100.0
598.998596 160.0
600.325439 108.0
603.813416 36.0
606.432129 20.0
607.255371 76.0
607.562866 20.0
609.251282 84.0
609.295471 104.0
613.358826 40.0
614.24823 144.0
615.096619 44.0
615.2547 32.0
617.977295 52.0
619.277405 40.0
620.298462 152.0
621.30957 92.0
622.279175 52.0
625.176636 48.0
627.202454 56.0
629.343506 44.0
630.23938 64.0
630.367371 52.0
633.331726 32.0
635.1297 68.0
639.168396 32.0
639.345703 44.0
641.281311 92.0
642.259216 36.0
644.287354 76.0
645.323303 44.0
647.325867 112.0
649.264282 80.0
653.268677 92.0
653.771301 56.0
655.842896 24.0
656.104126 44.0
656.347107 120.0
657.344116 148.0
658.342957 52.0
658.506531 32.0
659.930481 32.0
660.323547 28.0
661.273926 200.0
662.331482 80.0
666.357666 60.0
667.332397 96.0
668.34137 96.0
674.221008 60.0
675.336121 76.0
677.336365 96.0
677.917114 28.0
678.331421 540.0
679.335632 200.0
680.158142 44.0
680.558655 36.0
680.874634 28.0
683.038696 52.0
684.351562 324.0
684.522217 28.0
685.139465 32.0
685.326477 488.0
685.756958 32.0
686.344299 136.0
686.925964 100.0
687.358337 64.0
688.346802 24.0
688.932312 120.0
689.367371 44.0
690.33844 56.0
691.317566 64.0
691.930481 52.0
692.349731 52.0
696.360413 216.0
697.357117 60.0
698.344177 124.0
699.024658 52.0
702.331848 20.0
703.304504 108.0
704.340027 104.0
704.986633 28.0
705.321167 52.0
706.325317 156.0
707.321777 120.0
708.307922 108.0
713.338501 80.0
714.292236 32.0
714.411499 76.0
715.338867 88.0
716.321045 80.0
718.318542 44.0
719.337219 40.0
722.30481 48.0
723.393433 100.0
724.402832 96.0
725.168701 52.0
725.288818 56.0
726.329468 148.0
727.315063 72.0
728.322327 68.0
728.760803 52.0
729.32019 56.0
732.103027 24.0
733.328125 68.0
734.295166 72.0
735.383789 72.0
736.300232 56.0
736.767334 16.0
738.412048 52.0
742.297241 48.0
743.322266 24.0
745.339661 64.0
747.324951 124.0
749.696777 72.0
752.334595 48.0
759.625732 136.0
761.594727 36.0
763.319702 60.0
766.424438 100.0
768.374207 40.0
769.07196 68.0
769.567017 16.0
770.433716 96.0
772.310364 40.0
774.38446 36.0
774.615051 124.0
777.758484 36.0
780.142517 32.0
782.36969 116.0
785.376831 92.0
786.154236 28.0
786.363281 64.0
787.262756 36.0
787.397217 92.0
790.360046 72.0
791.453613 56.0
791.884033 28.0
792.386414 68.0
792.960693 132.0
793.376404 68.0
793.912354 32.0
794.36145 32.0
795.367859 72.0
798.372986 60.0
803.406128 188.0
804.066589 44.0
804.42218 196.0
805.105408 40.0
805.435852 168.0
806.064331 32.0
806.263428 24.0
806.39917 68.0
807.363953 116.0
808.002014 60.0
808.398682 188.0
809.394104 156.0
810.399536 100.0
811.393921 128.0
814.665649 40.0
815.361145 108.0
815.520996 32.0
817.451782 32.0
825.395203 1396.0
825.710449 28.0
826.058533 52.0
826.410522 436.0
826.9198 76.0
827.066467 36.0
827.398804 184.0
827.891663 56.0
828.295227 36.0
828.592896 160.0
828.864014 28.0
829.481079 32.0
829.708435 28.0
830.461426 64.0
831.405579 860.0
831.674316 120.0
831.802979 20.0
831.986816 32.0
832.232666 44.0
832.408081 868.0
832.816345 40.0
833.108826 32.0
833.413025 724.0
834.426575 184.0
834.581421 24.0
835.398193 328.0
836.362488 212.0
836.811157 24.0
837.401367 104.0
838.329956 92.0
839.948914 108.0
842.389343 68.0
842.925964 68.0
843.388672 112.0
843.684937 156.0
844.092285 28.0
846.538696 48.0
846.724182 52.0
846.928223 60.0
847.095215 40.0
847.243652 28.0
847.567505 44.0
847.74469 24.0
848.20874 52.0
848.450134 36.0
848.713989 28.0
848.780334 36.0
848.899597 60.0
849.230164 48.0
849.391663 64.0
849.554138 64.0
849.76825 64.0
849.928528 68.0
850.158081 68.0
850.228943 32.0
850.377502 756.0
850.588928 136.0
850.885864 640.0
851.392639 648.0
851.88501 360.0
852.074707 36.0
852.40094 208.0
852.66095 68.0
853.014648 132.0
853.395935 20616.0
853.989441 92.0
854.398865 11060.0
854.948669 84.0
855.132446 96.0
855.400391 2864.0
855.746826 56.0
855.893494 64.0
856.097046 80.0
856.391846 512.0
856.830872 44.0
857.10614 32.0
857.395447 88.0
857.717712 36.0
857.87146 44.0
858.089233 48.0
858.123535 32.0
858.431641 24.0
858.599792 40.0
858.917358 52.0
859.377014 60.0
859.683472 28.0
860.188171 32.0
860.503723 32.0
861.060852 36.0
861.385132 40.0
861.852905 28.0
862.077515 28.0
864.624817 28.0
865.243469 28.0
865.487244 32.0
866.235352 68.0
866.494934 104.0
866.894287 60.0
867.100769 32.0
867.851746 72.0
868.546753 36.0
868.997681 52.0
869.359741 988.0
869.636658 48.0
870.363342 416.0
870.953064 28.0
871.130615 64.0
871.369019 36.0
871.950378 40.0
872.345703 72.0
873.513428 44.0
875.045715 104.0
876.398315 28.0
877.333313 36.0
877.686462 68.0
878.468628 56.0
879.344727 36.0
883.470337 24.0
884.247375 40.0
885.328186 68.0
886.352661 40.0
886.7323 32.0
886.941101 32.0
895.065918 44.0
896.191467 36.0
903.917603 104.0
907.48584 36.0
908.311768 20.0
910.484009 32.0
914.874756 104.0
917.267151 60.0
918.271362 56.0
927.760925 28.0
944.984741 180.0
970.412354 112.0
977.414795 76.0
978.391541 136.0
981.804138 200.0
1006.930054 96.0
1023.136475 32.0
1144.685791 108.0
1182.607666 56.0
1201.137451 68.0
1202.596069 112.0
1205.205933 132.0
1236.185059 104.0
1296.429199 36.0
1336.556763 96.0
1340.614868 96.0
1351.958618 108.0
1408.46106 56.0
1414.831909 172.0
1457.273438 108.0
1665.465088 68.0
END IONS
