BEGIN IONS
PEPMASS=1000.41
CHARGE=1
MSLEVEL=2
SOURCE_INSTRUMENT=LC-ESI-Hybrid FT
FILENAME=f.novakj/siderophores/Desferri_ferrichrome_A.mzXML;
SEQ=*..*
IONMODE=Positive
ORGANISM=GNPS-LIBRARY
NAME=Desferrichrome A M+H
PI=Havlicek
DATACOLLECTOR=
SMILES=C\C(CC(O)=O)=C/C(=O)N(O)CCCC1NC(=O)CNC(=O)C(CO)NC(=O)C(CO)NC(=O)C(CCCN(O)C(=O)\C=C(/C)CC(O)=O)NC(=O)C(CCCN(O)C(=O)\C=C(/C)CC(O)=O)NC1=O
INCHI=
INCHIAUX=
PUBMED=27956353
SUBMITUSER=novakj
TAGS=
LIBRARYQUALITY=3
SPECTRUMID=CCMSLIB00001059074
SCANS=1
165.820816 528825.0
173.496414 669393.0
193.279785 502630.0
194.496384 780654.0
204.949173 505640.0
209.194168 513566.0
210.624527 654182.0
212.17775 505088.0
233.395386 714395.0
241.033203 512684.0
244.88237 505015.0
251.91597 529011.0
288.345337 7594575.0
304.099701 525176.0
311.193512 621855.0
340.486816 517083.0
345.032135 552702.0
363.042694 631482.0
370.190826 529403.0
389.02182 1875847.0
395.128113 532481.0
407.032379 884420.0
414.359192 547170.0
415.001099 673377.0
432.996704 690880.0
433.011688 32237780.0
433.014252 2396140.0
433.017059 754358.0
434.015045 6307315.0
450.996246 597531.0
451.022186 16465257.0
451.025085 1255289.0
452.025604 3675311.0
466.789764 526090.0
476.975067 1507013.0
476.977753 1383520.0
488.198761 1294023.0
492.241241 560366.0
493.048035 2650211.0
494.051178 821536.0
494.986115 8251396.0
495.989532 1600572.0
496.626221 525157.0
511.058502 792705.0
513.219116 1057188.0
560.053955 710630.0
578.038208 1085160.0
578.064148 1291648.0
596.048889 653461.0
605.486389 588192.0
614.230103 701083.0
618.272278 843260.0
621.046326 659227.0
622.028137 5106690.0
622.054199 6807916.0
623.031799 1761564.0
623.057495 1909696.0
666.01825 3067119.0
666.639282 619042.0
667.021606 1076991.0
696.649231 583292.0
723.091492 870654.0
744.304565 3994503.0
745.307495 1047166.0
767.080994 6626308.0
768.084473 2636954.0
810.195862 737906.0
810.261475 1521321.0
810.283386 807327.0
811.071045 2677903.0
811.179688 2285959.0
811.19928 608195.0
811.23114 682560.0
811.27063 893327.0
812.074158 1223372.0
812.210571 658431.0
812.264832 693711.0
813.195007 810489.0
813.226624 709288.0
838.358398 683555.0
856.367981 1517650.0
870.335754 2642437.0
871.340027 1012807.0
873.371399 804192.0
874.353149 1666637.0
874.378662 6406231.0
875.357056 746043.0
875.38208 2297917.0
887.307922 1096528.0
888.310242 738762.0
889.265808 796141.0
889.287964 599613.0
890.382874 698914.0
899.332275 707021.0
900.335144 651350.0
933.572021 799800.0
940.388306 637401.0
952.258606 956417.0
956.395203 662072.0
956.420837 930566.0
964.389282 733287.0
971.307251 660258.0
981.337219 1054139.0
981.390442 651660.0
982.268982 875107.0
982.340881 780667.0
982.399658 2349885.0
983.40332 1018383.0
999.271362 756798.0
999.324036 1206946.0
999.348145 3741696.0
999.385986 1895664.0
999.402344 2632144.0
999.41626 2524005.0
999.42804 14969583.0
999.439819 10729620.0
999.450684 3964879.0
999.460266 1206533.0
999.478882 1622459.0
999.49408 882581.0
1000.281006 1246056.0
1000.300232 1479900.0
1000.315063 1299897.0
1000.337769 1741305.0
1000.364319 2166731.0
1000.386108 5212569.0
1000.4104 38437044.0
END IONS
