BEGIN IONS
PEPMASS=1291.0
CHARGE=1
MSLEVEL=2
SOURCE_INSTRUMENT=DI-ESI-Hybrid FT
FILENAME=f.l2sanchez/PureCompoundsforGNPSLIbs/GMI1000_Extract9_1291_5_CID35_V2.mzXML;
SEQ=*..*
IONMODE=Positive
ORGANISM=GNPS-LIBRARY
NAME=Ralsolamycin M+H
PI=Dorrestein
DATACOLLECTOR=LM Sanchez
SMILES=CCCCCCCCCCCCCCC[C@H](N)[C@H](O)C(N[C@@H]([C@@H](C)O)C(N[C@@H]([C@H](C1=CC=C(O)C=C1)O)C(N[C@@H](CO)C(N[C@@H](CCO)C(NCC(N[C@@H](C(N[C@@H](C(C)C)C(NC(C(NCC(N[C@@H](C)C(NCC2)=O)=O)=O)=C)=O)=O)CCOC2=O)=O)=O)=O)=O)=O)=O
INCHI=InChI=1S/C60H98N12O19/c1-7-8-9-10-11-12-13-14-15-16-17-18-19-20-40(61)51(81)60(90)71-48(37(6)75)58(88)72-49(50(80)38-21-23-39(76)24-22-38)59(89)69-43(33-74)56(86)68-41(26-29-73)54(84)64-32-45(78)67-42-27-30-91-46(79)25-28-62-52(82)35(4)65-44(77)31-63-53(83)36(5)66-57(87)47(34(2)3)70-55(42)85/h21-24,34-35,37,40-43,47-51,73-76,80-81H,5,7-20,25-33,61H2,1-4,6H3,(H,62,82)(H,63,83)(H,64,84)(H,65,77)(H,66,87)(H,67,78)(H,68,86)(H,69,89)(H,70,85)(H,71,90)(H,72,88)/t35-,37+,40-,41-,42+,43-,47-,48-,49-,50-,51-/m0/s1
INCHIAUX=
PUBMED=26943626
SUBMITUSER=l2sanchez
TAGS=Nonribosomal peptide[Chemical Family]
LIBRARYQUALITY=3
SPECTRUMID=CCMSLIB00001059690
SCANS=1
697.320435 2.117141
748.447266 7.137532
766.454346 8.912285
1056.277832 7.918046
1058.592529 2.107572
1076.602539 8.921482
1094.632324 3.424726
1157.544434 8.405493
1220.59314 2.106815
1229.625244 23.446472
1237.635986 3.365805
1238.565796 26.020428
1255.578125 68.570328
1256.641479 33.232479
1273.543335 136.928757
1274.637695 6.447906
END IONS
