BEGIN IONS
PEPMASS=1036.58
CHARGE=1
MSLEVEL=2
SOURCE_INSTRUMENT=LC-ESI-qToF
FILENAME=P2_C3_conc_GE3_01_2421.mzXML
SEQ=*..*
IONMODE=Positive
ORGANISM=GNPS-LIBRARY
NAME=Aculeacin A_130020 M+H
PI=Cichewicz
DATACOLLECTOR=Luzzatto
SMILES=O[C@@H]([C@H](NC1=O)C(N[C@H](C(N2[C@H](C(N[C@H](O)[C@H](O)C[C@H](NC(CCCCCCCCCCCCCCC)=O)C(N[C@H](C(N3[C@H]1C[C@@H](O)C3)=O)[C@@H](C)O)=O)=O)[C@@H](O)[C@@H](C)C2)=O)[C@H](O)C)=O)[C@H](C4=CC=C(O)C=C4)O
INCHI=N/A
INCHIAUX=N/A
PUBMED=
SUBMITUSER=tal_lk
TAGS=
LIBRARYQUALITY=2
SPECTRUMID=CCMSLIB00000478455
SCANS=1939
86.058907 852.0
100.075745 3960.0
101.078873 348.0
114.058342 276.0
127.089813 316.0
129.066437 620.0
131.081451 5976.0
132.085693 732.0
139.087265 364.0
140.070801 380.0
141.064346 936.0
142.083115 888.0
143.083603 464.0
145.097046 15604.0
146.056808 252.0
146.099472 1284.0
147.041626 616.0
148.049332 592.0
151.04776 576.0
151.085602 468.0
153.068039 476.0
155.088623 384.0
156.101089 768.0
157.064804 404.0
157.097931 600.0
164.067841 764.0
166.084198 460.0
167.080994 4836.0
168.065491 328.0
168.083679 612.0
169.060257 1384.0
169.097046 1088.0
171.075485 944.0
171.106827 420.0
173.092484 380.0
174.0952 316.0
175.039078 560.0
175.071259 492.0
177.063217 676.0
178.071152 256.0
179.046371 764.0
179.076965 380.0
180.085938 528.0
181.096573 604.0
182.083694 556.0
183.111389 1908.0
184.100327 344.0
185.090897 3864.0
186.09462 776.0
187.069427 572.0
187.106537 2768.0
188.108353 328.0
192.066025 624.0
193.097961 932.0
194.086044 428.0
195.075745 7772.0
196.074951 1508.0
197.090591 2448.0
198.094254 384.0
201.122589 1356.0
202.085785 376.0
202.117371 432.0
203.081879 420.0
209.054199 404.0
209.087708 372.0
210.124664 756.0
211.106613 2832.0
212.109848 408.0
213.086533 9908.0
214.08876 1560.0
215.10202 3808.0
220.092575 452.0
221.091064 3764.0
222.098587 336.0
223.102753 520.0
225.085327 2704.0
226.087997 972.0
226.120056 600.0
228.096222 556.0
228.132599 2956.0
229.116241 1572.0
230.079681 1964.0
230.118301 828.0
231.082062 700.0
232.127686 1200.0
233.130325 420.0
236.106201 316.0
237.086594 284.0
238.117081 1688.0
239.102158 2876.0
239.232574 640.0
240.100266 520.0
241.085098 484.0
241.116882 436.0
242.116241 632.0
243.094681 260.0
245.098297 344.0
246.144547 7208.0
247.106491 2772.0
247.14447 1364.0
248.090698 1764.0
249.087463 404.0
249.122162 544.0
250.106003 1040.0
252.096375 684.0
254.110565 2036.0
255.095581 504.0
256.126587 844.0
256.257294 344.0
257.091888 1440.0
258.077148 1256.0
258.144806 788.0
259.107544 11416.0
260.108307 2152.0
261.121765 764.0
262.117096 1252.0
263.103912 276.0
264.096436 316.0
265.116089 972.0
266.114197 328.0
267.09491 1208.0
268.094849 596.0
270.106934 944.0
271.103241 352.0
272.121399 1388.0
273.110687 388.0
275.10202 4432.0
276.085938 7788.0
277.117035 6408.0
278.121948 1348.0
279.132874 4232.0
280.128754 4792.0
281.133881 1280.0
282.105164 1524.0
283.108124 556.0
284.123596 4496.0
285.127838 544.0
287.101929 3596.0
288.116577 4856.0
289.115601 1020.0
290.110718 1020.0
291.100189 364.0
293.111481 2768.0
294.09848 912.0
294.143219 884.0
294.276459 520.0
295.139282 400.0
296.126648 444.0
297.130157 476.0
298.141357 476.0
299.111664 308.0
299.143066 344.0
301.15152 1996.0
302.163025 328.0
303.095398 348.0
303.126709 296.0
304.093658 256.0
304.129913 1464.0
305.112152 27884.0
306.114777 4632.0
307.124451 504.0
308.123688 39796.0
309.126617 5604.0
310.127747 704.0
311.125916 728.0
312.157135 368.0
312.291779 1788.0
313.289032 284.0
314.134247 332.0
315.133301 1660.0
320.127502 324.0
321.152893 452.0
322.138702 4868.0
322.273956 992.0
323.124298 6244.0
324.129303 1432.0
324.288452 1272.0
325.149811 512.0
325.287415 372.0
326.132996 7484.0
327.093536 256.0
327.139008 1008.0
328.142212 496.0
331.123901 308.0
334.135529 684.0
335.138336 336.0
337.145752 280.0
338.299561 880.0
339.164673 1096.0
339.302826 428.0
340.14856 4324.0
340.282288 508.0
341.153992 1672.0
342.144379 1660.0
343.125946 712.0
343.159393 2324.0
344.122955 2708.0
344.158508 3436.0
345.134277 772.0
345.166534 720.0
346.12326 348.0
349.160156 384.0
350.266388 1964.0
351.160065 328.0
351.266998 572.0
352.128571 452.0
352.283447 2132.0
353.116119 296.0
353.159943 316.0
353.289948 1156.0
356.165161 328.0
357.143738 1616.0
358.141357 1176.0
359.143646 344.0
360.154144 13724.0
361.155029 3312.0
361.296783 508.0
362.135712 1772.0
362.167816 2364.0
363.134979 704.0
363.165802 1212.0
363.291809 256.0
364.182709 372.0
366.30014 504.0
367.154236 640.0
367.294189 616.0
368.285095 560.0
369.175842 888.0
369.307831 284.0
370.139465 7536.0
370.30304 264.0
371.140961 2088.0
372.148193 564.0
373.156219 320.0
375.162415 648.0
376.145386 260.0
378.1651 9712.0
379.167206 3148.0
379.290405 608.0
380.16571 884.0
380.296753 352.0
381.172394 508.0
383.152161 396.0
383.323669 2696.0
384.151367 484.0
384.328674 812.0
385.137146 1632.0
386.139038 1128.0
387.129822 308.0
388.149872 50100.0
389.153229 11244.0
389.275146 308.0
390.155457 1888.0
391.155914 696.0
395.1604 420.0
396.184998 440.0
397.168762 1324.0
398.136566 252.0
398.192841 600.0
399.165375 560.0
400.185577 292.0
401.180084 960.0
402.164825 7768.0
403.171783 1344.0
404.168213 624.0
405.167542 640.0
405.310944 1940.0
406.16037 34976.0
406.312286 600.0
407.164246 8232.0
407.289337 788.0
408.16806 1592.0
408.289215 560.0
409.17041 808.0
410.171967 280.0
412.174591 604.0
413.197021 256.0
414.197388 17668.0
415.200104 4288.0
415.301239 468.0
416.147461 512.0
416.20108 684.0
417.182648 964.0
417.920776 276.0
418.176971 296.0
419.187988 700.0
420.180237 528.0
421.339661 732.0
422.199005 432.0
423.32074 2648.0
424.171173 24312.0
424.320007 576.0
425.173462 7032.0
425.307983 452.0
426.174561 596.0
427.195129 832.0
428.165741 308.0
429.176331 428.0
430.295837 336.0
432.359528 768.0
433.306366 3976.0
434.211853 656.0
434.309174 732.0
435.18576 1356.0
435.316956 716.0
437.190216 440.0
438.196838 360.0
441.177765 408.0
443.192017 820.0
444.189667 432.0
445.173828 1028.0
446.162201 316.0
447.186646 584.0
448.185791 360.0
448.352478 1300.0
449.34729 996.0
450.190247 452.0
450.335114 628.0
451.184082 456.0
451.314545 3680.0
452.148743 396.0
452.211273 572.0
452.318176 1592.0
453.19162 1120.0
453.327972 424.0
454.157806 284.0
455.190643 492.0
458.330017 252.0
460.173462 252.0
461.200775 940.0
462.19339 576.0
463.181488 324.0
463.221161 904.0
464.179504 276.0
465.180176 548.0
466.184875 588.0
466.362549 8280.0
467.189423 344.0
467.364594 3748.0
468.203186 376.0
468.354431 968.0
469.169495 1020.0
469.324982 1044.0
470.154846 564.0
470.180115 764.0
470.326172 440.0
471.186218 1752.0
472.188385 600.0
473.19577 836.0
474.341156 344.0
476.346466 6028.0
477.346375 1040.0
478.197205 272.0
478.353638 292.0
479.213684 2928.0
480.20816 484.0
481.172791 780.0
482.184906 608.0
484.207123 500.0
484.381256 304.0
485.336304 428.0
486.342102 424.0
487.186798 936.0
488.213654 1328.0
489.196564 6024.0
490.19519 1264.0
491.198975 552.0
492.34259 324.0
494.358002 7660.0
495.361603 2784.0
496.2117 828.0
496.368591 908.0
497.214752 432.0
498.194153 456.0
498.34552 256.0
499.178864 3476.0
500.184357 900.0
500.349884 1684.0
501.353485 932.0
503.215515 384.0
506.223999 1292.0
507.206268 3232.0
508.214539 1432.0
509.203827 756.0
510.201538 432.0
510.35434 524.0
511.388977 316.0
512.193787 416.0
512.379517 364.0
513.239014 316.0
513.324402 644.0
513.385986 260.0
514.229553 4512.0
514.323059 372.0
515.230286 2920.0
515.341919 472.0
516.220947 1000.0
516.344971 316.0
517.190674 3960.0
517.357239 272.0
518.196594 1864.0
518.357056 2656.0
519.203125 608.0
519.360535 1196.0
520.211487 908.0
520.340881 864.0
522.36676 868.0
525.220764 2464.0
526.219971 1000.0
526.344482 428.0
527.338013 492.0
528.211121 744.0
528.34198 272.0
530.216248 380.0
531.220947 296.0
531.279968 276.0
531.342896 624.0
531.391235 596.0
532.238281 13760.0
533.239563 4064.0
533.36731 992.0
534.240662 836.0
534.341614 356.0
535.201233 644.0
536.210266 584.0
536.37085 588.0
537.373474 288.0
538.202759 272.0
538.335632 376.0
539.386597 284.0
543.344116 1124.0
544.345947 316.0
545.226868 488.0
545.374695 332.0
546.350464 3420.0
547.351501 1672.0
548.366028 516.0
549.237488 252.0
549.400757 936.0
550.248047 8044.0
550.381653 1272.0
551.255066 1208.0
551.378479 524.0
552.244995 880.0
553.247559 472.0
554.228149 896.0
555.217224 984.0
556.20459 860.0
557.203186 396.0
558.23175 412.0
559.383545 1240.0
560.38562 876.0
561.351379 880.0
562.351562 716.0
563.373962 616.0
564.208801 1136.0
564.367615 2012.0
565.21283 448.0
565.363953 596.0
567.411926 1556.0
568.260803 1816.0
568.417297 644.0
569.263977 528.0
570.25708 332.0
572.237366 2236.0
573.234863 1532.0
574.21991 712.0
575.241455 344.0
575.361145 252.0
577.394714 5936.0
578.397766 2400.0
579.196533 484.0
579.396484 620.0
581.254517 316.0
581.39502 284.0
582.217163 4204.0
582.379272 264.0
583.223328 2320.0
586.391785 260.0
588.256104 252.0
588.378235 256.0
590.246704 1008.0
591.242371 1072.0
591.373047 276.0
592.260986 824.0
593.395386 268.0
595.403748 6988.0
596.406494 3308.0
597.263855 368.0
597.41394 536.0
598.25 432.0
598.385559 2128.0
599.273926 400.0
599.383179 1324.0
600.2276 10284.0
600.390137 512.0
601.231445 2628.0
601.38092 272.0
602.23761 1112.0
602.382141 256.0
603.374695 380.0
604.409851 376.0
605.386841 648.0
606.2771 260.0
606.397339 312.0
607.418335 760.0
608.268311 2220.0
609.263794 756.0
610.267517 720.0
613.417358 280.0
615.273315 548.0
615.374451 528.0
616.255066 676.0
616.395508 2032.0
617.253784 336.0
617.397522 588.0
618.239929 7600.0
619.242981 2412.0
620.241272 760.0
621.29834 360.0
623.388489 436.0
626.262085 892.0
626.379028 3300.0
627.273926 576.0
627.382202 1368.0
628.282166 436.0
628.389099 464.0
632.402649 388.0
633.283936 632.0
633.383057 1608.0
634.417236 536.0
635.39679 660.0
636.247131 1172.0
637.254395 576.0
638.26593 368.0
639.260498 316.0
640.401062 416.0
642.418213 336.0
643.268799 556.0
643.405579 312.0
644.272461 472.0
644.388672 6252.0
645.392761 1944.0
646.272339 372.0
646.408997 544.0
647.282837 404.0
647.424744 704.0
650.422302 280.0
651.291626 776.0
651.426819 1012.0
652.301453 412.0
652.420898 2008.0
653.428772 1024.0
654.433044 276.0
657.429138 344.0
660.426819 380.0
662.399109 4528.0
663.399048 1932.0
664.424866 1232.0
665.13031 312.0
665.263184 444.0
666.258362 460.0
667.40033 292.0
668.456421 304.0
669.310181 500.0
670.307312 368.0
672.426086 464.0
673.281067 320.0
676.406433 280.0
678.440979 632.0
679.431885 532.0
680.44989 892.0
681.309265 600.0
681.458191 296.0
682.277954 1052.0
683.275696 720.0
690.444153 1744.0
691.267212 972.0
691.43396 1096.0
692.274536 388.0
692.45166 508.0
693.437927 368.0
694.424744 380.0
696.444641 1408.0
697.450317 328.0
698.426086 272.0
699.302673 784.0
700.294922 616.0
700.427917 308.0
701.291016 512.0
702.444031 304.0
705.425415 344.0
706.4328 568.0
707.455261 984.0
708.297485 524.0
708.453308 1384.0
708.572815 384.0
709.284607 2772.0
709.425781 732.0
710.288696 852.0
711.276917 564.0
711.420837 328.0
716.414673 840.0
717.307739 680.0
717.44281 328.0
718.319397 528.0
718.445435 316.0
719.398315 272.0
720.397339 344.0
722.425476 312.0
723.430481 636.0
724.433228 328.0
725.406555 320.0
725.471985 660.0
726.307068 4244.0
726.476501 492.0
727.299438 2864.0
727.427551 508.0
728.298645 1040.0
729.301575 468.0
733.432007 320.0
734.350891 292.0
734.432739 912.0
735.438232 904.0
736.421875 256.0
737.414917 1380.0
738.409241 720.0
744.318726 4096.0
745.312927 2260.0
746.314758 772.0
746.468506 424.0
747.334167 284.0
749.449036 280.0
750.443054 456.0
751.433533 948.0
752.432861 636.0
753.450195 384.0
754.447388 404.0
755.421753 1456.0
756.422302 776.0
757.442932 628.0
762.330078 2824.0
763.328552 1444.0
763.455139 1164.0
764.327942 272.0
764.467773 428.0
765.493713 408.0
770.465637 2988.0
771.471375 1036.0
772.461792 1056.0
773.425964 504.0
774.444214 348.0
778.429382 252.0
780.345947 952.0
781.339294 436.0
784.289307 336.0
784.440125 284.0
785.292786 1436.0
786.304382 504.0
788.475769 2548.0
789.480896 744.0
790.475952 624.0
792.452637 676.0
793.470276 280.0
794.444763 520.0
800.498596 268.0
802.456055 560.0
803.477844 440.0
804.482239 296.0
806.494995 412.0
807.472229 324.0
810.459167 1428.0
811.473267 588.0
812.453552 864.0
819.496704 376.0
820.457458 1232.0
821.466309 848.0
826.495117 252.0
828.477173 488.0
829.465149 684.0
830.481812 400.0
831.442078 260.0
832.499451 396.0
833.474487 376.0
834.461182 324.0
836.50592 432.0
837.514648 260.0
838.463562 3112.0
839.46106 1768.0
840.453247 700.0
845.488892 264.0
846.493164 2924.0
847.501343 1884.0
848.508118 1272.0
849.499939 1148.0
852.474609 684.0
853.490906 380.0
854.522461 392.0
855.514221 960.0
856.469543 2648.0
857.471985 1780.0
858.490417 692.0
860.505005 372.0
863.470093 532.0
864.506958 3044.0
865.514526 1340.0
866.513123 892.0
867.528137 412.0
871.493958 528.0
871.541443 288.0
872.503052 264.0
874.477356 3932.0
875.481812 1464.0
876.48584 460.0
881.500183 860.0
882.512512 1096.0
883.499756 460.0
884.541565 300.0
892.487061 1560.0
893.493225 592.0
894.500671 416.0
899.501343 736.0
900.509155 316.0
901.515137 576.0
902.520203 512.0
903.503235 412.0
917.521301 412.0
918.51593 312.0
920.514404 1240.0
921.54657 388.0
922.510315 548.0
936.542053 352.0
937.531128 712.0
938.543579 584.0
939.542236 760.0
940.533875 396.0
946.530396 1012.0
947.507507 1352.0
948.519653 600.0
954.553101 664.0
955.549622 556.0
956.545349 724.0
957.554077 632.0
964.537109 5008.0
965.540771 2912.0
966.547363 1308.0
967.545715 272.0
972.564026 660.0
973.544556 256.0
974.565918 372.0
982.546387 10456.0
983.552368 5520.0
984.549316 1748.0
985.547119 976.0
990.519531 316.0
1000.37793 332.0
1000.558594 35324.0
1001.561951 22660.0
1002.562988 5804.0
1003.317749 264.0
1003.565735 1612.0
1004.557617 1220.0
1009.566772 364.0
1013.048401 272.0
1016.137207 316.0
1016.1875 348.0
1017.757507 260.0
1018.179504 336.0
1018.361145 284.0
1018.38208 656.0
1018.436401 880.0
1018.572327 159500.0
1018.808167 300.0
1019.121155 540.0
1019.216125 496.0
1019.576477 114900.0
1019.745789 416.0
1020.169312 480.0
1020.403137 356.0
1020.575745 36716.0
1021.105896 356.0
1021.393005 544.0
1021.576477 5900.0
1022.573914 880.0
1023.179138 272.0
1023.570374 740.0
1023.747375 264.0
1024.065308 256.0
1024.316895 280.0
1024.412842 280.0
1024.598999 252.0
1025.416382 252.0
1025.483887 464.0
1036.580322 28788.0
1037.582886 14264.0
1038.583862 4512.0
1039.596558 1712.0
1040.549683 3756.0
1041.560791 1288.0
1042.554443 828.0
1043.558716 312.0
1057.547607 308.0
1058.563354 1852.0
1059.563965 880.0
1060.560547 768.0
END IONS
