BEGIN IONS
PEPMASS=740.471
CHARGE=1
MSLEVEL=2
SOURCE_INSTRUMENT=LC-ESI-Hybrid FT
FILENAME=f.novakj/Pseudacyclin_A.mzXML;
SEQ=*..*
IONMODE=Positive
ORGANISM=GNPS-LIBRARY
NAME=Pseudacyclin A M+H
PI=Havlicek
DATACOLLECTOR=
SMILES=C1CCC(NC(=O)C(NC(=O)C)C(C)CC)C(=O)NC(CC2=CC=CC=C2)C(=O)N2CCCC2C(=O)NC(C(CC)C)C(=O)NC(C(CC)C)C(=O)N1
INCHI=
INCHIAUX=
PUBMED=26195308
SUBMITUSER=novakj
TAGS=
LIBRARYQUALITY=3
SPECTRUMID=CCMSLIB00000531485
SCANS=1
183.149216 2172361.0
211.14415 7553575.0
227.175385 2033299.0
228.170639 1863724.0
261.15976 4086244.0
313.191132 3440140.0
324.22818 87814760.0
329.222321 2085092.0
341.254578 771955.0
358.212524 85923928.0
359.21582 10084461.0
426.275055 13883153.0
438.307404 49339976.0
443.301575 144941152.0
444.304779 20858574.0
453.286072 4849269.0
471.296509 217800160.0
472.299225 34701412.0
473.29483 1980992.0
567.365295 31961780.0
568.349243 70147880.0
568.367615 6097582.0
569.352844 12803751.0
585.375916 403250016.0
586.379456 76537824.0
587.38269 1398907.0
722.4599 15740273.0
723.462952 3680323.0
740.47052 32784942.0
741.473877 8590691.0
END IONS
