BEGIN IONS
PEPMASS=474.26
CHARGE=2
MSLEVEL=2
SOURCE_INSTRUMENT=LC-ESI-Orbitrap
FILENAME=f.Rolandoo1/20190519 Moroidin paper GNPS/Moroidin-[ALLVWRGH].mzXML;
SEQ=*..*
IONMODE=Positive
ORGANISM=GNPS-LIBRARY
NAME=Moroidin-[ALLVWRGH] M+2H
PI=Jing-Ke Weng
DATACOLLECTOR=Roland Kersten
SMILES=CC(C(NC(C(NC(CC(C)C)C(NC(C(C)C)C(NC(C(NC(C(NCC(NC(CC1=CN2C=N1)C(O)=O)=O)=O)CCCNC(N)=N)=O)CC3=C2NC4=C3C=CC5=C4)=O)=O)=O)C5C(C)C)=O)N
INCHI=
INCHIAUX=
PUBMED=
SUBMITUSER=Rolandoo1
TAGS=
LIBRARYQUALITY=3
SPECTRUMID=CCMSLIB00005435907
SCANS=1
65.866898 1005.747925
65.867401 2343.918213
65.867912 3214.89917
65.868416 3169.915771
65.868927 2135.729248
65.869431 400.023376
66.832855 1189.845703
66.833374 2555.474365
66.833893 3573.162109
66.834412 3775.234863
66.83493 2984.984619
66.835449 443.693604
69.067955 615.736206
69.068497 1750.238159
69.069038 3334.521484
69.069588 5733.80957
69.070129 4043.512695
69.070671 2618.49707
69.07122 1113.060547
69.071762 255.640564
70.062057 4.569485
70.062614 1562.593384
70.063171 7396.98291
70.063728 21506.488281
70.064285 39188.960938
70.064842 52636.058594
70.065392 44633.328125
70.065948 26549.732422
70.066505 10314.331055
70.067062 3131.090332
70.067619 620.648865
72.075127 40.689884
72.075706 561.406494
72.076286 2488.240234
72.076866 6778.103027
72.077446 10017.0625
72.078026 17267.964844
72.078606 66377.421875
72.079185 216742.046875
72.079765 415514.0
72.080345 596826.75
72.080925 549805.875
72.081505 346751.09375
72.082085 155451.328125
72.082672 45344.933594
72.083252 14736.336914
72.083832 9514.806641
72.084412 2879.670654
72.084991 2140.402832
72.085571 755.452576
73.081757 59.318245
73.082352 630.861572
73.082939 1320.747925
73.083534 1830.8927
73.084129 1840.928955
73.084717 1365.696655
73.085312 682.091736
73.1707 55.386585
73.171295 550.887146
73.171883 930.830933
73.172478 1093.149902
73.173073 914.919922
73.173668 485.056915
73.827324 1689.883667
73.827927 3188.204102
73.828529 3871.428955
73.829124 3372.352783
73.829727 2132.933838
73.83033 110.420578
76.029953 1446.106567
76.030579 2822.151855
76.031204 3451.567627
76.031837 2983.62085
76.032463 1774.123535
76.033096 126.827049
78.494606 1980.997314
78.495262 3402.6521
78.495926 3909.505371
78.496582 3167.349365
78.497246 1694.75769
78.497902 33.49519
79.556374 1988.700806
79.557045 3254.209717
79.557716 3780.303955
79.558388 3290.887451
79.559067 2119.991699
79.559738 66.578629
81.544113 0.28904
81.544807 196.959671
81.545509 440.679932
81.546204 599.396362
81.546906 558.046631
81.5476 349.304626
83.058365 138.681198
83.05909 1196.702515
83.059807 1830.17688
83.060524 1889.678589
83.061241 1297.545288
83.061958 527.616333
84.07827 107.255264
84.078995 999.100342
84.079727 1743.06189
84.08046 2182.193848
84.081192 1964.7677
84.081924 1239.796265
84.082657 503.195587
85.073898 1528.71228
85.074638 3360.259521
85.075386 4482.756348
85.076126 3898.69043
85.076874 2112.03125
85.077621 9.570516
86.088829 154.417557
86.089592 3823.638916
86.090347 15299.421875
86.091103 33578.042969
86.091866 55264.023438
86.092621 78690.898438
86.093376 234789.65625
86.094131 750539.0625
86.094894 1555037.75
86.09565 2356408.5
86.096405 2394260.25
86.097168 1583775.25
86.097923 783724.0625
86.098679 230605.46875
86.099434 71217.5
86.100197 44908.039062
86.100952 28196.583984
86.101707 9092.816406
86.10247 4469.236328
86.103226 80.697456
87.095825 219.17157
87.096596 3121.89624
87.097366 15555.458984
87.098137 36187.335938
87.098907 56486.945312
87.099686 60621.136719
87.100456 41506.644531
87.101227 21129.697266
87.101997 4748.352051
87.102768 457.784912
88.676979 31.642969
88.677773 2795.04541
88.678566 4215.167969
88.679352 6301.958496
88.680145 7058.271484
88.680939 6565.293945
88.681732 4766.479492
88.682526 3904.561523
88.683311 1560.498657
88.684105 984.992859
88.684898 374.270386
88.692818 15.138637
88.693611 346.710022
88.694405 562.273315
88.69519 645.923706
88.695984 592.30481
88.696777 497.976807
88.697571 397.878723
88.851433 12.756742
88.852226 272.142181
88.85302 472.504944
88.853813 555.78833
88.854607 452.088562
88.855408 229.140839
88.961128 14.560978
88.961922 294.561401
88.962715 489.450531
88.963516 550.806641
88.96431 450.763062
88.965103 255.139999
89.067039 76.114212
89.067833 676.077759
89.068634 5029.707031
89.069427 10088.560547
89.070229 13943.709961
89.071022 13421.314453
89.071823 8647.183594
89.072617 3856.077881
89.073418 638.5625
91.295052 12.143946
91.295876 306.749176
91.296707 534.231934
91.297531 613.970459
91.298363 486.781342
91.299187 241.17981
92.388313 21.902946
92.389153 394.430237
92.389999 1252.161987
92.390839 1166.757935
92.391678 452.328247
92.392525 5.708071
96.262337 6.761557
96.263229 1997.929199
96.26413 3462.427979
96.265022 4276.289062
96.265923 3916.939209
96.266815 2618.994873
96.267708 581.154846
98.093468 158.907135
98.094391 1039.203003
98.095314 1714.791504
98.096237 1902.225464
98.097153 1449.824829
98.098076 684.846741
100.324234 31.035271
100.325188 305.259735
100.326134 519.528259
100.327087 587.965088
100.328041 478.135956
100.328995 265.909027
110.067001 249.138382
110.068092 1762.379272
110.069191 4236.276855
110.070282 6515.15332
110.071381 6918.699219
110.072472 4596.199707
110.07357 1874.701294
110.074661 478.635834
112.081543 308.436188
112.082664 2738.629639
112.083794 11744.266602
112.084915 26131.496094
112.086044 38572.574219
112.087166 37038.035156
112.088295 23126.642578
112.089417 10592.641602
112.090546 2758.537354
113.06572 95.988274
113.066856 587.447144
113.067993 1675.474121
113.069138 3037.407227
113.070274 3855.099609
113.071419 3555.901611
113.072556 2361.816162
113.0737 1046.805664
113.074837 322.425964
114.088326 247.247147
114.089485 1371.850586
114.090637 2201.286865
114.091797 2457.188721
114.092949 1944.070801
114.094101 954.914185
116.217178 274.274078
116.218369 2053.70166
116.219551 3173.207031
116.220741 3688.677002
116.221931 3247.877197
116.223122 1938.449219
118.496635 350.606903
118.497856 3029.182129
118.499084 5424.492188
118.500305 7251.261719
118.501526 7258.927246
118.502747 5291.648926
118.503975 2515.880371
118.622711 184.075562
118.62394 1270.613647
118.625168 4106.02832
118.626389 6338.466797
118.627617 6935.273438
118.628838 5502.644531
118.630066 2816.351074
120.716698 161.40567
120.717957 698.613708
120.719208 1121.332153
120.720467 1200.781738
120.721725 910.609497
120.722984 422.209778
134.604462 223.987564
134.605942 762.121765
134.607422 1136.549316
134.608902 1159.291504
134.610382 853.943237
134.611862 382.625824
140.824005 606.8396
140.825577 2411.416992
140.827164 3637.091553
140.828751 3864.055176
140.830338 2973.156738
140.831924 1415.748047
156.068939 166.234985
156.070786 803.100403
156.072632 1969.254028
156.074478 3157.235352
156.076324 3633.554688
156.078186 3065.605469
156.080032 1852.155396
156.081879 599.758667
157.101944 324.64978
157.103806 1024.578491
157.105667 1635.185059
157.107544 1785.854126
157.109406 1367.891602
157.111282 709.992615
157.113144 190.119873
159.538513 1256.780273
159.540436 3876.683838
159.542343 5429.061035
159.54425 5662.994141
159.546158 4434.757324
159.548065 2224.120605
159.549988 1377.116211
159.551895 2850.315674
159.553802 3399.279297
159.55571 3486.423828
159.557632 2876.328613
159.55954 1412.538452
159.592026 811.315186
159.593948 2699.585938
159.595856 3947.596924
159.597763 4829.000488
159.599686 6678.395508
159.601593 9693.066406
159.6035 13269.31543
159.605408 15193.805664
159.60733 14045.515625
159.609238 9862.955078
159.611145 4776.804688
159.613068 1520.066772
159.614975 210.438522
159.655136 414.924744
159.657043 1842.564819
159.658966 3621.166016
159.660873 4494.865234
159.662796 3802.311279
159.664703 1961.36377
161.616455 855.085693
161.618408 2516.626709
161.620361 3467.807373
161.622299 3515.374756
161.624252 2600.42627
161.626205 1077.484619
163.117203 220.063889
163.119171 624.125366
163.12114 882.504028
163.123123 901.09906
163.125092 659.233521
163.127075 255.742096
169.102448 511.603638
169.104523 1366.108521
169.106613 1972.059814
169.108704 1998.041748
169.110779 1459.813965
169.112869 747.428711
169.114944 197.106766
175.313156 313.639038
175.315353 848.716309
175.317551 1242.7948
175.319763 1235.453247
175.32196 828.613525
175.324158 238.476746
175.738724 1230.873779
175.740936 2987.249023
175.743149 3653.429199
175.745346 3413.509033
175.747559 2405.114746
175.749771 875.13324
176.29451 838.678223
176.296722 2380.83252
176.29895 3474.788086
176.301163 3587.55957
176.303391 2625.992676
176.305603 941.644348
180.081024 1390.808716
180.083313 4108.673828
180.085602 6636.090332
180.087891 7621.894531
180.090179 6411.40625
180.092484 3831.080566
180.094772 1072.456055
183.141876 468.906921
183.144226 1198.726318
183.146576 1758.084351
183.148926 1856.365723
183.151276 1443.686279
183.153625 794.119446
183.155975 168.765945
185.148743 726.462463
185.151123 1287.807861
185.153519 4828.465332
185.155914 24825.919922
185.158295 86175.023438
185.16069 170613.8125
185.163071 243322.09375
185.165466 229535.765625
185.167847 152214.84375
185.170242 69287.351562
185.172638 20716.263672
185.175018 5910.84082
185.177414 2179.560547
185.179794 343.757599
186.158539 261.319824
186.16095 933.095337
186.163361 1960.642456
186.165771 2877.993408
186.168182 3119.047852
186.170593 2534.327148
186.173004 1514.859985
186.1754 658.557678
186.177811 143.364197
197.091797 383.845001
197.094421 1249.727661
197.097046 3669.437256
197.09967 6740.614258
197.102295 8952.703125
197.104919 7872.689941
197.107544 4965.623047
197.110168 2046.956421
197.112793 683.916443
197.115417 121.264664
199.568008 492.684235
199.570679 1081.125854
199.573349 2455.482422
199.576019 4190.969727
199.57869 5444.308105
199.581375 7165.696289
199.584045 6946.143066
199.586716 4771.258301
199.589386 3576.541992
199.592072 2864.732666
199.594742 982.378296
199.602753 143.676987
199.605438 432.638184
199.608109 721.216919
199.610779 850.591919
199.613449 743.846619
199.616135 477.859985
199.618805 125.373611
211.13353 437.480438
211.136444 1273.291504
211.139359 2353.042725
211.142258 2943.43457
211.145172 2570.145508
211.148071 1553.345825
211.150986 602.434326
211.1539 77.489975
213.087265 385.885498
213.09021 1408.495361
213.09317 2750.416016
213.096115 3729.486328
213.09906 3643.087158
213.10202 2507.904785
213.104965 1141.0625
213.10791 132.366089
213.146271 535.557495
213.149216 4337.161621
213.152176 14664.513672
213.155121 31354.673828
213.158066 45705.292969
213.161026 40698.902344
213.163971 25057.65625
213.166931 10704.669922
213.169876 2541.02832
213.172821 134.107452
214.123337 492.779572
214.126297 1089.054932
214.129272 1400.789917
214.132248 1193.013428
214.135223 658.768616
214.138184 99.56366
215.104141 832.902954
215.107132 3553.11499
215.110123 7906.550781
215.113113 10565.896484
215.116104 9295.071289
215.119095 5364.103027
215.122086 1792.385498
215.125076 163.947754
220.703354 676.9646
220.706467 1192.796265
220.709579 1351.505371
220.712677 1123.951904
220.71579 706.971741
220.718903 82.039131
223.176926 250.678101
223.180084 471.567108
223.183243 592.633057
223.186417 575.305664
223.189575 427.682953
223.192734 81.322906
224.131546 766.090515
224.134735 1422.886108
224.137909 1683.691528
224.141098 1351.893433
224.144287 670.001404
224.147461 70.824905
232.13147 762.709534
232.134827 1995.673096
232.138184 3044.001953
232.141541 3071.390625
232.144882 2075.123535
232.148239 876.41571
232.151596 50.462891
240.139954 548.475098
240.143478 1162.802856
240.147003 1729.117798
240.150528 1853.042236
240.154068 1461.560181
240.157593 867.413635
240.161118 11.901455
242.138931 592.474426
242.142502 1268.734863
242.146072 1816.234009
242.149643 1846.392944
242.153214 1283.946045
242.156784 530.182556
242.16037 10.07971
250.074463 240.07399
250.078217 499.545654
250.081955 671.594299
250.085709 634.522034
250.089462 404.549377
250.093216 33.882137
250.942917 21.345064
250.946686 707.570801
250.950455 1279.019043
250.954224 1651.974487
250.957993 1565.382202
250.961761 999.563477
250.96553 17.268938
259.870117 1668.448853
259.874084 3418.453125
259.878052 4759.506348
259.882019 4771.376465
259.886017 3408.719238
259.889984 1555.246582
259.893951 72.192917
261.590637 1945.82373
261.594666 3750.752686
261.598663 5095.174805
261.602692 5019.755371
261.606689 3503.789307
261.610718 1533.652832
261.614716 60.844418
270.945007 29.644678
270.949219 2678.414307
270.953461 4140.089844
270.957703 4513.809082
270.961914 3547.632568
270.966156 1910.337769
270.970367 75.972885
299.649475 151.524323
299.654419 777.202576
299.659332 1323.079834
299.664246 1687.997314
299.669159 1636.037476
299.674072 1137.17041
299.678986 379.639435
304.13562 123.361931
304.140656 1539.246216
304.145691 4751.851074
304.150726 8483.193359
304.155731 10268.282227
304.160767 8374.990234
304.165802 4916.488281
304.170837 1910.760742
304.175873 413.946136
304.659332 386.62915
304.664368 2378.847656
304.669434 3545.197998
304.674469 4001.976074
304.679504 3470.362793
304.68454 2056.20459
307.150269 368.104919
307.155365 2191.564209
307.160461 3485.771484
307.165558 3908.883545
307.170685 3080.143555
307.175781 1461.027954
308.158264 121.810341
308.163391 766.215942
308.168518 1987.751465
308.173645 2817.081299
308.178772 2711.221436
308.183899 1787.218628
308.189026 752.291504
308.194153 168.827896
308.66156 222.244812
308.666687 899.615723
308.671844 1199.561157
308.676971 1219.390991
308.682129 959.367615
308.687256 79.372528
310.137421 1145.731445
310.142609 6901.04834
310.147766 13958.40625
310.152954 19913.865234
310.158142 19114.433594
310.1633 13943.878906
310.168488 7517.024414
310.173676 2687.494629
310.178864 206.109039
314.15863 168.619461
314.16391 924.461792
314.169189 2220.998779
314.174469 3307.084473
314.179749 3685.94165
314.185028 3116.071533
314.190308 1930.366821
314.195618 730.93103
316.67099 126.09446
316.676361 630.514404
316.681702 1377.797607
316.687042 2168.844727
316.692383 2526.807129
316.697723 2159.565918
316.703064 1289.355957
316.708405 377.000122
318.646545 862.36261
318.651947 6419.346191
318.657349 20445.958984
318.66275 40414.566406
318.668121 56816.011719
318.673523 54965.457031
318.678925 36512.007812
318.684326 17562.888672
318.689697 4862.958984
318.695099 631.50238
319.154144 334.173187
319.159546 1536.944824
319.164948 2955.670654
319.17038 3756.148926
319.175781 3473.814941
319.181183 2339.361572
319.186584 983.706177
321.174835 188.962097
321.180298 814.30127
321.18576 1420.602295
321.191223 1662.761719
321.196686 1352.650146
321.202148 636.603882
322.154022 180.457062
322.159515 861.345276
322.164978 1861.345825
322.170471 2807.821045
322.175964 2991.509033
322.181427 2241.834473
322.18692 1125.579834
322.192413 310.348022
322.675507 326.751801
322.681 1217.262085
322.686523 1748.591797
322.692017 1894.158691
322.69751 1570.513794
322.703003 937.577759
322.708496 318.207825
326.138184 481.297913
326.143768 2430.067383
326.149353 3742.441162
326.154938 3961.302002
326.160522 2902.013672
326.166107 1251.216675
328.152374 203.524948
328.15802 1238.65979
328.163666 3461.664062
328.169312 6321.291504
328.174927 8320.256836
328.180573 7375.712402
328.186218 4314.890137
328.191833 1605.595459
328.197479 153.455002
331.160309 172.46373
331.166016 767.113342
331.171722 1566.949951
331.177429 2098.237061
331.183167 1864.790283
331.188873 1047.366699
331.19458 287.027771
331.65799 345.125061
331.663727 2250.040039
331.669464 6462.032227
331.675171 10436.635742
331.680908 11867.709961
331.686646 9206.90918
331.692352 4577.01709
331.69809 569.894348
332.639526 70.842857
332.645264 1382.091675
332.651031 7037.58252
332.656769 17426.064453
332.662537 30237.8125
332.668274 36260.46875
332.674042 28088.482422
332.679779 15058.833984
332.685547 5498.627441
332.691284 996.64032
332.697052 351.461426
332.863983 430.907501
332.86972 2103.465088
332.875488 3722.78125
332.881256 4594.147949
332.887024 4146.182617
332.892761 2327.712646
334.499603 849.803894
334.505402 3641.110107
334.5112 6213.094238
334.517029 7214.583984
334.522827 5690.581055
334.528625 2760.598145
334.534424 536.876038
336.182404 308.70993
336.188232 1051.951904
336.194092 1538.541748
336.199921 1568.769653
336.20578 1153.578735
336.211609 489.127167
336.66217 320.365051
336.66803 1592.703125
336.673889 5836.83252
336.679749 14454.009766
336.685608 21301.751953
336.691467 21620.113281
336.697327 14911.349609
336.703186 7011.443848
336.709045 1447.066772
336.714905 252.417755
337.160583 311.76358
337.166473 1844.357666
337.172333 4636.108398
337.178192 7165.86084
337.184082 7763.336426
337.189941 5772.053223
337.195831 3209.138672
337.201691 1121.956787
337.20755 160.547638
337.660126 173.312546
337.666016 721.254456
337.671875 1454.473633
337.677765 2051.697754
337.683655 2156.845947
337.689545 1789.651245
337.695435 1170.696167
337.701324 467.108917
339.669373 130.193756
339.675323 676.959229
339.681244 1704.799683
339.687195 3505.701416
339.693115 5095.070312
339.699066 4227.173828
339.704987 2372.103516
339.710938 998.174133
339.716858 286.439423
345.178711 489.26532
345.184814 2441.361572
345.190887 6188.048828
345.19696 10054.489258
345.203064 11832.257812
345.209137 10148.149414
345.21521 6040.824707
345.221283 2252.88916
345.66571 526.707458
345.671814 5203.637695
345.677887 19507.722656
345.68399 45962.558594
345.690094 72607.179688
345.696198 83347.65625
345.702271 62022.292969
345.708374 33538.816406
345.714478 10523.469727
345.720551 2536.75415
345.726654 4290.074219
345.732758 4117.490723
345.738861 3221.983154
345.744934 1487.450806
346.172058 139.294693
346.178162 818.28125
346.184265 2754.859375
346.190369 5422.475098
346.196472 6721.320801
346.202576 5881.714844
346.20871 3574.373047
346.214813 1514.313843
346.220917 411.853546
347.15741 327.277832
347.163544 1605.286743
347.169678 4847.686035
347.175812 10039.606445
347.181946 12894.668945
347.18808 11976.857422
347.194214 8112.652344
347.200348 3626.344238
347.206482 444.456604
349.679565 233.712463
349.68576 882.056702
349.691986 1670.569702
349.698181 2279.373535
349.704376 2271.793457
349.710571 1600.026733
349.716766 608.910645
350.667511 368.369202
350.673737 1402.480713
350.679962 2548.770752
350.686188 3073.610352
350.692413 2506.823975
350.698639 1361.399292
350.704865 746.608337
350.71109 1298.385498
350.717316 2480.080078
350.723541 3104.801758
350.729767 2575.219727
350.735992 1404.938599
350.742218 413.331879
351.153687 253.008621
351.159912 1831.694824
351.166138 5365.364258
351.172394 8792.56543
351.178619 10395.367188
351.184875 8420.891602
351.191101 4259.101074
351.197357 872.282104
351.203583 236.87587
351.665863 78.298416
351.672119 806.593567
351.678375 2298.829834
351.684631 4250.359863
351.690887 5792.663086
351.697144 4998.166016
351.7034 2820.068359
351.709656 1144.937622
351.715912 278.770721
352.147858 281.467499
352.154114 1121.133301
352.1604 2302.851807
352.166656 3371.040771
352.172913 3450.785156
352.179199 2326.601074
352.185455 782.935852
352.191711 180.689545
352.197998 782.750549
352.204254 1465.031616
352.21051 1610.585693
352.216797 1145.529541
352.223053 425.12204
352.681061 429.72345
352.687347 1422.374878
352.693634 2344.877686
352.699921 2868.523438
352.706207 2604.143555
352.712463 1738.587158
352.71875 832.000183
352.725037 232.343323
353.177734 289.316467
353.184021 937.855774
353.190308 1564.224487
353.196625 2047.581665
353.202911 2044.807739
353.209198 1474.507446
353.215485 535.796204
353.656525 512.273743
353.662842 3783.669922
353.669128 16699.644531
353.675446 51245.1875
353.681763 106911.132812
353.688049 154947.4375
353.694366 156567.21875
353.700684 106916.507812
353.70697 53055.414062
353.713287 14905.62207
353.719604 1969.210083
353.725891 233.587463
354.16156 937.077576
354.167877 9422.889648
354.174194 33424.28125
354.180542 65139.683594
354.186859 92923.640625
354.193176 90816.359375
354.199493 59755.609375
354.205811 30175.056641
354.212128 10454.324219
354.218445 1847.974854
354.224762 150.112427
354.667694 346.403229
354.674042 1145.946533
354.680359 1959.099243
354.686707 2548.556152
354.693024 2473.657471
354.699371 1707.395142
354.705688 629.077576
356.186218 107.880722
356.192596 391.983826
356.198975 625.36792
356.205353 675.695862
356.211731 514.409058
356.218109 216.988129
356.703094 418.796661
356.709473 1074.5354
356.715881 1279.501221
356.72226 1260.503784
356.728638 986.791382
356.735046 417.010742
358.189728 492.285736
358.196167 1555.212036
358.202576 2508.095947
358.209015 3034.563477
358.215454 2730.846191
358.221863 1749.839233
358.228302 604.057556
358.678772 317.283691
358.685211 2756.537842
358.69165 8291.547852
358.69809 14022.205078
358.704529 17307.09375
358.710968 15337.523438
358.717407 9616.010742
358.723846 3959.993408
358.730286 583.925293
359.168793 213.021652
359.175232 972.088257
359.181702 3558.686523
359.188141 8364.993164
359.194611 12532.639648
359.20105 13155.681641
359.20752 9880.782227
359.213959 4930.166992
359.220428 1123.761353
359.226868 216.029282
359.653351 376.813995
359.659821 3178.184082
359.66629 18032.380859
359.67276 66609.195312
359.67923 152969.109375
359.685699 244930.875
359.692169 280676.0
359.698608 216389.609375
359.705078 119207.460938
359.711548 44564.0
359.718018 10920.112305
359.724487 3281.384277
359.730957 1539.484985
359.737427 575.860107
360.164825 2770.942871
360.171295 15371.832031
360.177765 42063.675781
360.184265 78125.648438
360.190735 102311.945312
360.197235 92085.835938
360.203705 57630.339844
360.210175 25898.316406
360.216675 6506.868164
360.223145 431.61145
362.188965 459.640778
362.195496 1296.396973
362.202026 1857.865356
362.208557 2039.105469
362.215088 1666.104614
362.221649 956.539124
362.22818 293.335907
363.670593 375.218353
363.677185 1315.021118
363.683746 2798.443359
363.690338 4433.935059
363.696899 4099.367188
363.703491 2346.702148
363.710052 1155.530396
363.716644 303.231415
364.705231 628.365051
364.711853 1990.275635
364.718445 2817.894775
364.725067 2663.672363
364.731659 1718.303589
364.738251 587.348938
366.674622 331.651154
366.681274 1092.962158
366.687927 1894.806763
366.69458 2406.23999
366.701233 2223.835449
366.707886 1451.570068
366.714569 488.567871
367.194458 208.185181
367.201141 659.205811
367.207794 919.201355
367.214478 889.85022
367.221161 596.35144
367.227814 217.020844
368.143707 162.479385
368.150391 2782.534668
368.157104 10689.558594
368.163788 20550.439453
368.170502 30123.994141
368.177185 71358.539062
368.183899 244713.125
368.190582 602408.125
368.197296 1049458.75
368.203979 1311799.125
368.210693 1107362.25
368.217377 655652.1875
368.224091 281173.09375
368.230774 81737.070312
368.237488 32484.771484
368.244171 22636.572266
368.250885 13481.800781
368.257599 4909.879395
368.264282 53.988773
368.659973 294.254852
368.666687 2020.743652
368.673401 6447.275879
368.680115 21068.765625
368.686829 75671.335938
368.693542 179159.359375
368.700256 292828.5625
368.70694 341033.46875
368.713654 264807.03125
368.720367 145562.921875
368.727081 53639.152344
368.733795 13124.265625
368.740509 3743.284668
368.747223 1661.000977
368.753937 618.870911
369.184052 550.872131
369.190765 1512.951904
369.19751 2102.685059
369.204224 2318.610352
369.210968 2082.026855
369.217682 1476.391602
369.224396 570.203796
369.709259 141.694427
369.716003 447.372253
369.722717 637.51593
369.729462 634.395386
369.736206 446.050232
369.74295 172.795029
370.695343 795.617188
370.702087 3480.356445
370.708862 7630.233887
370.715637 11277.305664
370.722412 11628.55957
370.729156 8259.890625
370.735931 3349.901611
370.742706 275.038879
371.18985 270.525665
371.196625 979.627441
371.20343 1943.130981
371.210205 2773.223389
371.21698 2898.0354
371.223755 2242.054443
371.23053 1284.271606
371.237335 414.53363
371.70575 490.433014
371.712555 1332.174072
371.71933 1797.414551
371.726135 1766.75769
371.732941 1232.627075
371.739716 441.506714
372.18869 465.670776
372.195496 1620.139648
372.202301 3744.201904
372.209106 5764.862305
372.215912 5588.150391
372.222717 3407.032471
372.229523 1213.58313
372.236328 235.563583
372.672546 44.931202
372.679382 1275.804932
372.686188 4401.144043
372.693024 8325.647461
372.699829 11018.4375
372.706665 10064.949219
372.71347 6506.081055
372.720306 3026.372559
372.727142 459.569092
373.171021 1600.77124
373.177856 9078.805664
373.184692 20342.376953
373.191528 33403.542969
373.198364 34353.261719
373.2052 22139.498047
373.212036 10640.662109
373.218872 4165.585938
373.225708 3179.60791
373.232544 3240.286865
373.23941 2938.089355
373.246246 2200.45752
373.253082 1105.65625
373.259918 275.867218
373.663666 1162.363647
373.670532 5530.731445
373.677368 12530.947266
373.684204 19984.070312
373.691071 22633.150391
373.697906 17966.955078
373.704773 9992.553711
373.711609 3736.64917
373.718475 746.864075
374.171021 300.562073
374.177856 3083.114014
374.184723 11516.519531
374.191589 26549.626953
374.198456 43295.792969
374.205322 48359.589844
374.212189 36872.207031
374.219055 19974.585938
374.225922 6828.619629
374.232788 1064.713623
374.239655 63.72678
374.686249 605.857056
374.693146 1647.539673
374.700012 2261.916504
374.706879 2395.41626
374.713776 1852.252197
374.720642 724.877075
375.188782 457.052551
375.195679 1616.106079
375.202576 3014.890625
375.209473 3919.953613
375.216339 3771.805908
375.223236 2702.641113
375.230133 1327.484009
375.23703 306.591583
376.189972 367.027618
376.196899 1078.91687
376.203796 1554.814331
376.210724 1542.385254
376.217651 1109.869141
376.224579 411.973419
378.176514 557.44574
378.183472 1448.039551
378.19046 1903.563965
378.197418 1800.1604
378.204407 1171.924805
378.211365 427.577728
379.203674 333.732452
379.210693 2081.337891
379.217682 5921.264648
379.22467 11177.130859
379.231689 15021.183594
379.238678 13621.682617
379.245697 8213.320312
379.252686 3336.883057
379.259705 350.12027
379.701294 1577.245972
379.708313 6594.249023
379.715332 13300.131836
379.722351 18604.505859
379.72937 17896.714844
379.736389 12443.987305
379.743408 5963.883301
379.750397 1828.028687
379.757416 243.1875
380.213959 814.833313
380.220978 2358.331299
380.228027 4647.278809
380.235046 6658.931152
380.242065 6257.716797
380.249115 3875.813477
380.256134 1518.145752
380.263184 346.18399
380.692444 531.736816
380.699463 1219.167358
380.706512 1429.949463
380.713562 1414.058472
380.720612 1252.31897
380.727661 527.339172
381.171814 54.16357
381.178864 1781.591919
381.185944 10958.110352
381.192993 41038.980469
381.200043 92087.570312
381.207092 146607.96875
381.214172 161228.734375
381.221222 119907.71875
381.228271 63301.953125
381.235321 23287.333984
381.242401 5321.34375
381.249451 653.231812
381.680389 376.703033
381.687469 3176.042236
381.694519 11428.436523
381.701599 25287.380859
381.708679 40162.640625
381.715729 44157.75
381.722809 32443.763672
381.729889 16559.025391
381.736969 5000.410156
381.744019 46.578285
382.168732 225.274597
382.175812 5342.615723
382.182892 17789.546875
382.189972 32784.746094
382.197052 46063.265625
382.204132 43050.34375
382.211243 27794.335938
382.218323 12233.533203
382.225403 4214.260254
382.232483 599.24231
382.239563 177.531677
382.67218 416.541229
382.679291 4235.940918
382.686401 12010.113281
382.693481 20296.431641
382.700592 24548.328125
382.707672 20242.462891
382.714783 11467.06543
382.721893 4236.305176
382.728973 672.45697
384.688904 253.138351
384.696045 3127.169678
384.703217 9000.972656
384.710358 14936.262695
384.717499 17467.136719
384.72467 14255.373047
384.731812 8137.513184
384.738983 2781.302246
384.746124 320.983215
385.197357 331.617706
385.204529 1091.318237
385.2117 1900.149536
385.218872 2311.439209
385.226013 2103.399414
385.233185 1507.991211
385.240356 557.17572
385.706818 457.218964
385.713989 1302.421875
385.721191 2012.844849
385.728363 2246.711914
385.735565 1792.494019
385.742737 951.775757
385.749908 248.374634
386.181305 580.607544
386.188507 1834.625122
386.195709 3587.501953
386.202911 3841.137695
386.210114 2479.910156
386.217285 1080.79126
386.224487 426.176239
386.231689 1200.289673
386.238892 2567.197021
386.246094 3152.277832
386.253296 2488.872803
386.260468 1220.221069
386.26767 269.733124
386.678314 418.111755
386.685516 1226.307251
386.692749 2328.156006
386.699951 3420.907471
386.707153 3705.890625
386.714355 2995.900635
386.721588 1712.689209
386.72879 500.259277
387.704163 554.078613
387.711395 1604.325073
387.718628 2482.037354
387.725861 2704.761963
387.733124 2134.943848
387.740356 1243.250122
387.747589 383.086334
388.211365 386.171997
388.218597 2383.326904
388.225861 5302.156738
388.233124 7823.084961
388.240356 8090.571289
388.24762 5656.383789
388.254883 2394.734863
388.262115 346.003998
393.198029 1765.587036
393.205414 8348.65625
393.21283 24763.431641
393.220215 46838.824219
393.2276 62426.039062
393.234985 55491.554688
393.242401 35050.023438
393.249786 15168.458984
393.257172 3714.694336
393.264587 315.973969
393.693817 280.60434
393.701233 4062.796387
393.708649 15112.816406
393.716064 29538.730469
393.72345 40212.460938
393.730865 38335.601562
393.738281 26088.685547
393.745697 12025.201172
393.753082 2989.452881
393.760498 347.790924
394.197998 128.842392
394.205414 1441.523682
394.21283 4276.561035
394.220245 7830.682129
394.227661 10803.248047
394.235107 10515.361328
394.242523 7394.933105
394.249939 3827.541016
394.257355 1349.743042
394.264771 293.362823
395.179413 551.744751
395.186859 3252.728027
395.194305 12189.588867
395.201752 26394.230469
395.209198 38357.222656
395.216675 38010.09375
395.224121 25971.798828
395.231567 12594.244141
395.239014 3430.758057
395.24646 367.024384
395.686432 873.726379
395.693878 3734.425049
395.701355 7937.734863
395.708832 14442.086914
395.716278 15958.192383
395.723755 10808.162109
395.731201 6605.803223
395.738678 1617.108765
396.157043 342.332123
396.16452 1830.05603
396.171997 13806.129883
396.179474 54226.734375
396.186951 111750.242188
396.194427 164493.109375
396.201904 160698.6875
396.209381 109772.71875
396.216858 53183.769531
396.224335 19404.679688
396.231812 7731.621094
396.239288 6037.84375
396.246765 4899.719238
396.254242 1874.553711
396.665924 47.305004
396.673431 2217.99585
396.680908 9884.974609
396.688416 21639.806641
396.695892 33031.753906
396.7034 34562.089844
396.710876 25055.787109
396.718384 12052.950195
396.725861 3694.149902
396.733368 1191.703369
396.740845 407.834747
398.696259 649.726624
398.703796 1650.730591
398.711365 2340.46875
398.718903 2499.017822
398.726471 1967.547119
398.734009 719.18988
400.1875 141.628708
400.195099 426.916656
400.202698 655.243652
400.210266 699.335022
400.217865 538.412109
400.225464 206.057739
401.717651 1820.480225
401.725311 6398.29541
401.732941 11520.767578
401.74057 15189.698242
401.748199 15115.708008
401.755829 11184.170898
401.763489 5385.574707
401.771118 1358.888306
401.778748 304.637207
402.191437 1139.685303
402.199066 3394.538818
402.206726 13437.587891
402.214386 50732.460938
402.222015 116412.960938
402.229675 190621.859375
402.237305 218560.34375
402.244965 170578.5625
402.252625 94698.054688
402.260254 36489.234375
402.267914 8626.720703
402.275574 1659.325562
402.283203 416.792938
402.704346 1729.904175
402.712006 7355.817871
402.719666 21358.613281
402.727325 41790.722656
402.734985 57025.78125
402.742645 52919.03125
402.750305 33952.601562
402.757996 14806.275391
402.765656 3386.929688
402.773315 261.863831
403.19519 396.315674
403.202881 1152.026367
403.210541 1932.428467
403.218231 2458.411621
403.225891 2435.563477
403.233582 1821.105103
403.241272 939.900879
403.248932 227.154785
403.663879 973.053223
403.67157 5214.408691
403.67926 9498.010742
403.686951 17550.925781
403.694641 60793.269531
403.702332 207533.390625
403.710022 440894.625
403.717712 677405.625
403.725403 718064.5625
403.733093 523997.28125
403.740784 273452.5625
403.748505 99561.148438
403.756195 28958.822266
403.763885 12198.262695
403.771576 6059.703125
403.779266 2561.401855
403.786957 905.960266
404.179626 2568.903076
404.187317 6182.053223
404.195038 16038.34082
404.202728 56729.027344
404.210449 129738.703125
404.21814 212042.15625
404.225861 242926.625
404.233551 189154.90625
404.241272 103738.90625
404.248962 39177.15625
404.256683 9300.237305
404.264374 3047.208984
404.272095 1700.695312
404.279785 1150.501343
404.287506 398.672028
406.213623 1421.350586
406.221405 4363.792969
406.229156 8038.733887
406.236938 10306.703125
406.24469 9243.363281
406.252441 4917.409668
406.260223 1613.962524
406.267975 484.066071
406.710938 374.117981
406.718719 1062.587769
406.726471 1581.156738
406.734253 1621.063843
406.742035 1227.789307
406.749817 243.565216
407.193542 308.088715
407.201355 4426.600586
407.209137 15028.060547
407.216919 30272.238281
407.224731 42198.292969
407.232513 37906.957031
407.240295 23825.792969
407.248108 10271.838867
407.25589 2631.202881
407.263672 221.657852
407.684845 78.180878
407.692657 3062.766357
407.700439 12038.621094
407.708252 25293.984375
407.716064 39388.113281
407.723877 42148.058594
407.731689 31336.132812
407.739471 16413.732422
407.747284 6112.004395
407.755096 1804.505493
407.762909 225.35051
408.192657 268.204987
408.20047 1059.033203
408.208313 4764.573242
408.216125 11046.862305
408.223938 16913.876953
408.23175 18883.910156
408.239594 15505.740234
408.247406 9643.03418
408.255219 3397.864746
408.263062 119.954041
408.68576 2398.965332
408.693604 6620.70459
408.701416 11276.935547
408.709259 13013.541016
408.717102 10636.408203
408.724945 6802.142578
408.732758 2365.901855
408.740601 386.852997
408.748444 57.70026
409.171906 305.381348
409.179749 4371.621582
409.187592 18518.115234
409.195465 37684.335938
409.203308 55846.472656
409.211151 55890.726562
409.218994 39428.496094
409.226837 20075.751953
409.234711 6720.577148
409.242554 1432.218628
409.250397 159.455612
409.682495 502.972809
409.690369 1730.74353
409.698242 4263.087891
409.706085 7423.585938
409.713959 8425.875
409.721832 6754.949219
409.729675 4273.127441
409.737549 1795.307373
409.745422 322.578278
410.201935 404.55307
410.209808 1794.563843
410.217682 4034.226562
410.225586 6457.433594
410.233459 7113.125488
410.241333 5312.085938
410.249207 2575.753906
410.25708 881.114502
410.264954 209.437668
410.714478 229.199585
410.722351 993.682251
410.730255 2859.57251
410.738159 4833.04248
410.746033 5035.516113
410.753937 3256.055664
410.761841 1583.03833
410.769714 452.556915
414.721344 352.729797
414.72937 3316.628906
414.737366 8840.880859
414.745392 13572.636719
414.753387 14052.063477
414.761383 10037.532227
414.769409 5128.306152
414.777405 1392.212769
415.210297 499.765411
415.218323 3788.034424
415.226318 10247.300781
415.234344 17511.478516
415.242371 21561.425781
415.250397 18816.748047
415.258423 11943.09082
415.266449 4933.145996
415.274475 892.257324
415.282501 19.017269
415.70813 1516.972778
415.716156 6592.436523
415.724182 18169.304688
415.732239 33874.714844
415.740265 43229.722656
415.748322 37208.078125
415.756348 22459.140625
415.764374 9512.978516
415.77243 2140.563477
415.780457 121.428604
416.166595 1602.81958
416.174652 4760.298828
416.182709 10062.149414
416.190765 14488.520508
416.198792 34752.277344
416.206848 124811.21875
416.214905 341543.1875
416.222961 628760.625
416.231018 828871.25
416.239075 735058.9375
416.247101 464826.625
416.255157 206235.390625
416.263214 61992.089844
416.271271 20041.148438
416.279327 11099.316406
416.287384 9331.130859
416.295441 4465.41748
416.690369 854.653687
416.698425 7034.955566
416.706482 32631.583984
416.714539 106386.96875
416.722626 208480.859375
416.730682 295864.53125
416.738739 282964.59375
416.746826 191281.296875
416.754883 90416.484375
416.762939 29206.064453
416.771027 8270.521484
416.779083 2129.213623
416.78714 358.038666
417.215088 1207.750366
417.223175 3923.924316
417.231262 6763.498535
417.239349 8052.760254
417.247406 6979.175293
417.255493 3758.217773
417.26358 1003.526001
417.684174 150.931244
417.692261 3796.653564
417.700348 14375.849609
417.708435 29345.6875
417.716553 44471.011719
417.72464 44117.855469
417.732727 30776.138672
417.740845 14320.380859
417.748932 3784.66333
417.757019 506.92511
418.19458 310.668152
418.202667 1498.748901
418.210785 4105.664551
418.218903 6403.244141
418.22702 6199.416016
418.235107 4054.958252
418.243225 1730.352051
418.251343 340.416138
420.221069 633.969971
420.229218 1343.642578
420.237396 1674.457886
420.245575 1530.622437
420.253723 972.089294
420.261902 169.590775
421.194733 581.24884
421.202942 2610.528076
421.211151 5922.555176
421.21933 9634.710938
421.227539 10211.686523
421.235718 7169.065918
421.243927 3729.383301
421.252136 1424.441772
421.260315 324.590027
421.69519 702.002869
421.7034 2268.046631
421.711609 4347.778809
421.719818 5962.325684
421.728027 5463.180176
421.736237 3094.92334
421.744446 1353.305176
421.752655 351.856598
422.212952 274.757935
422.221161 613.698425
422.229401 764.701355
422.23764 730.148987
422.24585 524.083801
422.254089 173.424362
423.333954 1945.142334
423.342194 5943.206055
423.350464 9996.731445
423.358734 12665.024414
423.366974 12977.621094
423.375244 10423.171875
423.383514 7270.124512
423.391754 4623.480469
423.400024 2324.141602
423.408295 886.995483
423.416534 430.302246
423.424805 103.107323
423.730652 2508.690918
423.738922 8064.369629
423.747192 16478.677734
423.755463 23207.947266
423.763733 20670.054688
423.772003 12031.713867
423.780273 4586.355957
423.788544 1012.861023
424.699982 2822.777344
424.708282 14721.702148
424.716583 54416.648438
424.724884 166523.3125
424.733185 337377.0
424.741486 497856.125
424.749756 512820.40625
424.758057 364697.3125
424.766357 185014.421875
424.774689 59979.464844
424.78299 12718.779297
424.79129 2304.093506
424.799591 517.212219
425.206665 1416.957886
425.214966 9845.363281
425.223297 35016.855469
425.231598 81459.226562
425.239929 136689.9375
425.24823 161729.703125
425.256561 130070.0625
425.264862 73862.609375
425.273193 28337.427734
425.281494 5798.919434
425.289825 1189.973389
425.298126 284.563934
428.720123 1873.699097
428.728516 7312.728516
428.736938 15955.805664
428.745361 24155.623047
428.753784 23675.791016
428.762207 15011.289062
428.77063 6586.431641
428.779022 1470.339111
429.217163 970.6427
429.225586 3293.802246
429.234009 6061.297363
429.242462 7407.665527
429.250885 5943.567871
429.259308 3310.222656
429.267761 1277.539917
429.276184 270.665161
429.698151 135.643265
429.706604 3458.423096
429.715057 15920.286133
429.723511 35961.066406
429.731964 58516.847656
429.740387 66489.921875
429.74884 51625.863281
429.757294 28865.583984
429.765747 10828.101562
429.7742 2129.302002
429.782623 132.534424
430.171539 316.900208
430.179993 4849.200684
430.188446 9338.22168
430.196899 30534.228516
430.205383 117359.679688
430.213837 281042.78125
430.22229 478583.9375
430.230743 567654.125
430.239227 451463.34375
430.247681 262258.25
430.256134 106773.867188
430.264587 32260.992188
430.273071 12218.930664
430.281525 7327.395996
430.289978 2524.310059
430.298462 85.094322
430.696533 1708.182007
430.704987 22431.357422
430.71347 79415.976562
430.721954 157838.265625
430.730438 238185.671875
430.738892 254130.296875
430.747375 192655.734375
430.755859 110695.789062
430.764343 45252.636719
430.772797 10093.876953
430.781281 403.911682
431.213989 1854.15625
431.222473 7605.327148
431.230957 19400.154297
431.239471 32299.484375
431.247955 34782.964844
431.256439 25306.414062
431.264923 12894.999023
431.273438 3989.541016
431.281921 518.100769
435.189423 457.201752
435.198029 1305.108032
435.206635 1994.595947
435.21524 2025.69458
435.223846 1422.39917
435.232483 321.864105
437.228119 490.517395
437.236786 2470.565918
437.245483 6401.231934
437.25415 11036.750977
437.262817 12999.78418
437.271484 9958.967773
437.280151 5559.225098
437.288818 1935.575928
437.297485 298.796265
437.705322 623.008179
437.713989 2857.79248
437.722687 16377.890625
437.731354 62688.773438
437.740051 133496.421875
437.748718 206566.046875
437.757416 215860.5625
437.766113 155059.0625
437.77478 78793.632812
437.783478 26893.923828
437.792145 6350.386719
437.800842 1696.002441
437.80954 373.706879
438.209381 571.218018
438.218079 2647.504639
438.226776 9047.087891
438.235474 26797.212891
438.244171 52164.183594
438.252869 73208.132812
438.261566 68388.101562
438.270264 44613.652344
438.278961 19982.71875
438.287659 5178.353027
438.296356 555.868469
438.679443 337.683258
438.688141 5561.202148
438.696869 11185.720703
438.705566 34009.414062
438.714294 128753.492188
438.722992 393484.125
438.73172 750229.75
438.740448 1040106.375
438.749146 962806.125
438.757874 635615.8125
438.766571 290343.75
438.775299 90698.617188
438.783997 26606.179688
438.792725 11161.554688
438.801422 3085.264648
438.81015 3.059771
439.167725 95.874001
439.176453 1673.502441
439.185181 2754.884766
439.193909 3367.277832
439.202637 6520.049805
439.211365 21576.376953
439.220093 76854.25
439.228821 174170.890625
439.237549 287593.5625
439.246277 329125.125
439.255005 255282.59375
439.263733 142421.140625
439.272461 55189.0625
439.281189 14064.00293
439.289917 3688.519531
439.298645 1768.964478
439.307373 891.684814
439.316132 236.343002
442.71463 584.558777
442.72348 2095.978271
442.7323 4793.274414
442.74115 7855.015625
442.749969 8332.208008
442.75882 5260.998047
442.767639 2283.986084
442.776489 696.041992
442.785309 116.649757
443.218536 1400.360107
443.227386 5498.297363
443.236237 10626.62207
443.245087 13380.958008
443.253906 11351.686523
443.262756 6824.725586
443.271606 2292.604248
443.280457 37.080894
443.705536 4235.94043
443.714417 15518.017578
443.723267 31109.142578
443.732147 47101.777344
443.740997 49148.40625
443.749878 35714.605469
443.758728 18784.367188
443.767578 6873.803711
443.776459 1248.092896
443.785309 46.48431
444.19339 458.821899
444.20224 1419.637573
444.211121 5653.979004
444.220001 11767.056641
444.228882 16828.207031
444.237762 16111.94043
444.246643 10931.324219
444.255524 5007.162598
444.264404 1253.983276
444.273285 167.339294
451.217316 1619.125244
451.22641 10239.241211
451.235504 37703.769531
451.244598 80231.40625
451.253662 126105.8125
451.262756 134535.890625
451.271851 97017.640625
451.280945 49492.152344
451.290039 16779.232422
451.299133 3045.295654
451.308228 1278.505493
451.317322 211.407562
451.71759 2622.608398
451.726685 16216.547852
451.735809 46011.136719
451.744904 79651.9375
451.753998 99448.023438
451.763123 80853.976562
451.772217 49533.363281
451.781311 19779.375
451.790436 5133.395508
451.79953 965.372498
452.218689 404.797546
452.227814 1416.751953
452.236938 4198.547852
452.246063 7177.655273
452.255157 8941.729492
452.264282 7958.844238
452.273407 5223.680176
452.282532 2378.296875
452.291656 902.509155
452.300781 171.799774
452.674957 973.33728
452.684113 7310.641113
452.693237 13070.264648
452.702362 36037.878906
452.711487 134141.609375
452.720642 380879.0625
452.729767 695441.5
452.738892 917689.0
452.748047 798106.1875
452.757172 504364.03125
452.766296 217252.53125
452.775452 66782.664062
452.784576 22250.28125
452.793701 10784.826172
452.802856 2743.151367
452.811981 75.42675
453.195953 2626.005859
453.205109 12386.289062
453.214264 49484.75
453.223389 129792.75
453.232544 229759.34375
453.241699 290152.75
453.250854 242273.765625
453.26001 146935.75
453.269165 60656.730469
453.27829 16323.413086
453.287445 3762.992432
453.2966 945.286926
453.305756 169.011276
456.720093 1116.83374
456.72937 2738.452393
456.738617 3907.010498
456.747864 3867.462402
456.757141 2700.228027
456.766388 1146.948486
456.775635 189.084656
457.220276 575.919434
457.229553 1321.82605
457.238831 1908.716309
457.248108 2103.439697
457.257385 1752.943726
457.266632 1029.528564
457.275909 227.795807
459.229248 907.774231
459.238586 1759.845215
459.247925 2106.998291
459.257263 1922.329712
459.266571 1327.166138
459.275909 298.683105
460.182526 406.423645
460.191895 2267.733154
460.201263 6395.070801
460.210632 17275.277344
460.219971 31164.492188
460.22934 90256.71875
460.238708 309107.1875
460.248077 676116.25
460.257446 1091593.125
460.266785 1206681.0
460.276154 904005.5
460.285522 490450.53125
460.294891 184793.96875
460.30426 54804.371094
460.313629 27765.474609
460.322968 17934.464844
460.332336 11358.651367
460.341705 4109.391113
460.351074 277.939758
460.707184 765.750244
460.716553 2283.598389
460.725922 12731.010742
460.735291 52270.761719
460.74469 154284.625
460.754059 284708.65625
460.763428 383260.1875
460.772827 339058.8125
460.782196 216997.125
460.791565 93361.242188
460.800964 26683.023438
460.810333 6047.072266
460.819702 1720.498047
460.829102 336.010376
465.212524 1661.346924
465.222046 11520.048828
465.231567 43599.078125
465.241089 93973.976562
465.25058 147422.03125
465.260101 158454.703125
465.269623 116711.203125
465.279144 61266.804688
465.288666 22174.140625
465.298187 6162.896484
465.307678 2190.823486
465.3172 2449.591553
465.326721 1186.152466
465.336243 155.935532
465.679077 686.855713
465.688629 1725.62793
465.698151 4545.275879
465.707672 11763.613281
465.717194 43178.007812
465.726746 140221.9375
465.736267 272513.125
465.745789 391687.40625
465.755341 374329.15625
465.764862 253540.453125
465.774384 119253.851562
465.783936 38775.414062
465.793457 10301.685547
465.802979 2487.155029
465.812531 796.280273
465.822052 143.038391
466.203613 1409.229614
466.213165 7333.581055
466.222687 32495.974609
466.232239 79168.398438
466.241791 134873.234375
466.251343 157554.71875
466.260895 120523.5
466.270416 67059.382812
466.279968 24095.09375
466.28952 5601.289062
466.299072 1303.588135
466.308624 187.959045
466.719452 426.350922
466.729004 3083.114258
466.738586 7526.06543
466.748138 11564.355469
466.75769 11808.466797
466.767273 7636.340332
466.776825 2614.631348
466.786377 278.158417
473.728882 1118.621338
473.738678 3747.725098
473.748444 7448.84668
473.758209 10311.036133
473.768005 9362.391602
473.777771 5930.541016
473.787567 1823.856689
473.797333 146.135376
474.149567 1637.525513
474.159363 726.562195
474.178955 2661.176514
474.188721 18092.947266
474.198517 84046.890625
474.208313 142751.25
474.218109 277439.0625
474.227905 900511.5625
474.237701 2891793.0
474.247498 5701675.5
474.257263 8366013.0
474.267059 8165324.5
474.276855 5601945.0
474.286652 2703682.75
474.296448 913170.875
474.306244 275696.34375
474.31604 149765.71875
474.325836 77068.382812
474.335632 21031.691406
474.345428 2806.107178
474.67865 3258.176514
474.688477 10590.318359
474.698273 31176.167969
474.708099 53350.316406
474.717896 86807.6875
474.727692 263687.25
474.737518 885629.25
474.747314 1843932.0
474.757111 2860327.5
474.766937 2987462.75
474.776733 2144778.25
474.78656 1108873.5
474.796356 400333.6875
474.806183 121418.75
474.815979 63785.496094
474.825806 36635.796875
474.835602 11471.734375
474.845428 1763.686646
474.855225 175.661667
475.228302 399.217499
475.238098 3082.714844
475.247925 8233.671875
475.257751 13227.94043
475.267578 14452.310547
475.277405 11131.332031
475.287231 5764.182617
475.297058 1306.056641
530.256836 521.420776
530.268433 1215.777344
530.280029 1933.367554
530.291565 2241.189697
530.303162 1873.172729
530.314758 1071.149292
530.326355 133.249542
546.227478 806.506592
546.239563 1520.731567
546.251648 2004.064331
546.263794 1926.052124
546.275879 1312.734863
546.287964 130.558502
552.921875 1864.786499
552.934204 3673.107178
552.946533 4502.359375
552.958862 3936.274658
552.971191 2467.04834
552.983521 380.292999
568.15918 1796.213379
568.171997 3662.626953
568.184814 4841.044922
568.197693 4577.10498
568.21051 2977.226807
568.223389 328.644989
573.265625 625.111633
573.278625 1460.077637
573.291626 2407.345459
573.304688 2951.605469
573.317688 2783.091064
573.330688 1968.715576
573.343689 938.636597
573.35675 42.919739
574.242981 394.348358
574.256042 1230.700073
574.269043 2172.980957
574.282104 2600.729492
574.295166 2280.338623
574.308228 1508.378418
574.321289 726.431335
574.33429 32.362907
584.23584 662.061768
584.249268 1781.297852
584.262634 2751.046631
584.276062 2752.769531
584.289429 1821.308716
584.302795 721.359253
584.316223 18.913492
590.240356 849.734802
590.253967 5364.123535
590.267578 9590.177734
590.281189 10872.524414
590.294739 8066.342285
590.30835 3853.624756
590.32196 916.927979
590.335571 11.992854
591.275085 988.602417
591.288757 2200.280518
591.302368 2997.055176
591.315979 2902.167725
591.329651 2090.495605
591.343262 880.091858
591.356934 11.830976
598.289673 665.890503
598.303528 1505.790283
598.317444 2112.92749
598.331299 1924.390381
598.345154 1034.805054
598.35907 0.860354
601.256287 1734.026123
601.270264 5284.312012
601.284241 8026.634277
601.298218 8240.691406
601.312195 5843.946289
601.326172 1619.851074
601.340149 697.631897
602.236023 5.182498
602.250061 810.54364
602.264099 1671.397827
602.278076 2403.211914
602.292114 2482.458984
602.306091 1821.46814
602.320129 913.971863
603.274414 2605.546631
603.288452 4844.480957
603.30249 5731.308105
603.316528 4550.654785
603.330627 2249.30542
607.241882 10.094318
607.256104 673.286804
607.270264 2580.065186
607.284485 5738.583496
607.298645 9002.955078
607.312866 9298.78125
607.327026 5957.617188
607.341248 2666.612549
607.355408 632.172913
608.264771 11.275253
608.278992 659.816772
608.293213 1254.882324
608.307434 1688.862183
608.321655 1763.261963
608.335938 1391.782959
608.350159 719.527893
619.221375 25.10326
619.235962 632.609253
619.250549 5125.932617
619.265198 21137.685547
619.279785 53915.890625
619.294434 85878.109375
619.309021 97479.632812
619.323608 70626.054688
619.338257 38497.707031
619.352844 11432.266602
619.367493 2435.176025
619.38208 18.615252
620.245361 35.011246
620.26001 980.344177
620.274658 3462.144531
620.289307 6463.451172
620.303955 8762.003906
620.318604 7093.675293
620.333252 4054.495361
620.3479 1202.356689
625.744995 2363.967285
625.759827 4365.428711
625.774658 5198.744629
625.78949 4067.87207
625.804382 1845.841431
625.819214 13.368662
629.247559 44.92627
629.262512 859.543762
629.277466 1674.025757
629.29248 2197.558105
629.307434 2028.806396
629.322388 1325.280029
629.337341 589.506165
631.257935 71.384735
631.272949 1269.67395
631.288025 2133.482422
631.30304 2524.425049
631.318115 2240.669922
631.33313 1485.80249
631.348145 664.013489
633.308167 6.512609
633.323303 354.351471
633.33844 598.8255
633.353516 696.976013
633.368652 611.75885
633.383728 394.321747
633.686157 14.046352
633.701294 2062.485107
633.716431 4099.48291
633.731567 5131.342773
633.746643 4366.73877
633.76178 2371.803223
636.250122 223.372314
636.265381 2509.473633
636.280579 11360.131836
636.295776 41692.972656
636.311035 85512.78125
636.326233 125315.984375
636.341492 121385.851562
636.356689 76874.320312
636.371887 35096.429688
636.387146 9762.425781
636.402344 1908.851929
637.270935 73.711037
637.286194 2664.869629
637.301453 7366.712402
637.316711 13142.636719
637.33197 17079.535156
637.347229 14665.525391
637.362488 8240.97168
637.377747 1965.445801
637.393005 588.993774
638.355408 30.118452
638.370667 4567.888672
638.385986 9396.0625
638.401245 12130.424805
638.416565 11962.498047
638.431824 8829.418945
638.447144 5248.960449
638.462463 2658.525146
638.477722 1585.775757
644.268738 13.045952
644.284241 359.71051
644.299744 622.279663
644.315247 766.782654
644.33075 724.670959
644.346252 505.615997
645.262268 90.254921
645.277771 1237.845337
645.293335 4437.918457
645.308899 8697.094727
645.324402 10784.28418
645.339966 9131.150391
645.35553 5022.765137
645.371033 818.750732
646.273682 53.130077
646.289246 688.49054
646.30481 1311.730469
646.320435 1668.603882
646.335999 1480.3573
646.351562 834.313477
647.240601 54.462502
647.256226 901.0224
647.271851 4205.400391
647.287476 7482.169922
647.303101 9586.280273
647.318726 7727.468262
647.33429 4540.878418
647.349915 1079.498535
648.256714 61.370121
648.272339 775.139282
648.288025 1588.657837
648.30365 2539.168457
648.319275 3375.244141
648.334961 4826.137695
648.350586 2311.73584
648.366272 1184.321167
648.381897 384.32074
660.31665 121.149345
660.332703 1237.141602
660.348816 2118.307861
660.364929 2544.105469
660.380981 2234.388184
660.397095 1382.039917
660.413208 504.287872
662.283875 96.512909
662.300049 1244.347168
662.316223 6046.051758
662.332397 11146.838867
662.348511 14275.337891
662.364685 12645.918945
662.380859 8328.167969
662.397034 4997.268555
662.413208 2356.894531
663.286987 152.939255
663.303223 2792.497314
663.319397 4251.66748
663.335632 5132.626465
663.351807 5278.318848
663.367981 4607.72998
663.384216 3105.768311
664.259949 152.861649
664.276184 1531.059326
664.292419 8543.750977
664.308655 15576.791992
664.32489 20058.662109
664.341125 17758.306641
664.357361 11094.935547
664.373596 4498.137695
664.389832 512.458618
665.267578 108.966782
665.283813 1078.546387
665.30011 2161.317627
665.316406 3090.298096
665.332642 3179.006592
665.348938 2356.625977
665.365173 1222.070312
665.38147 404.785004
672.269775 122.117241
672.286316 1216.010132
672.302856 3172.185547
672.319397 5315.260254
672.335938 6576.568848
672.352478 5113.239746
672.368958 2841.002197
672.385498 827.820618
673.312256 38.36095
673.328857 473.176453
673.345398 749.686279
673.362 818.172363
673.37854 656.267578
673.395142 368.712219
674.307373 135.758194
674.323975 1124.168457
674.340576 1642.532227
674.357178 1711.930054
674.373779 1361.138184
674.390381 765.605225
675.238098 181.407791
675.254761 1704.133789
675.271362 3200.129395
675.288025 4173.511719
675.304626 3968.651855
675.321289 2722.632812
675.337952 1200.832642
676.25415 29.893982
676.270813 360.836945
676.287476 676.624084
676.304138 848.67511
676.320862 763.49823
676.337524 462.684784
689.279114 105.972061
689.296265 836.611694
689.313416 1859.301025
689.330566 3479.413574
689.347778 4630.320801
689.364929 2985.91333
689.38208 2134.604248
689.399231 1090.172729
689.416382 9.266129
689.519409 167.890656
689.53656 2233.658691
689.553711 3622.135254
689.570923 4235.87793
689.588074 3515.361328
689.605225 1849.127563
690.275391 359.804565
690.292603 1704.040161
690.309814 7788.425781
690.327026 14728.683594
690.344177 20578.105469
690.361389 19040.685547
690.378601 12167.788086
690.395813 5484.703125
690.413025 507.952942
691.291138 147.52063
691.30835 1027.686523
691.325562 1497.423462
691.342834 1831.374634
691.360046 1982.658325
691.377319 1839.78064
691.394531 1344.023315
691.411804 515.304443
692.257263 1195.577148
692.274536 7348.274902
692.291809 18849.648438
692.309082 30007.548828
692.326355 34532.089844
692.343628 28921.613281
692.360901 18323.183594
692.378174 7395.41748
692.395447 1260.064575
692.41272 298.517029
693.277344 134.103546
693.294617 1219.611938
693.311951 3572.709473
693.329285 5848.518066
693.346558 7092.661133
693.363892 5975.160156
693.381226 3789.398193
693.398499 1086.515015
700.288147 146.068054
700.305725 977.070312
700.323303 1590.494629
700.340881 1967.64209
700.358459 1889.476562
700.376038 1316.750366
700.393616 547.271973
701.273193 112.566483
701.290833 889.822388
701.308411 2345.138672
701.32605 3610.112061
701.343628 4178.07666
701.361267 3563.648438
701.378845 2117.811768
701.396484 630.236267
703.231873 41.906803
703.249573 358.840179
703.267273 635.471619
703.284973 717.329407
703.302612 542.177368
703.320312 239.446579
706.301025 93.652237
706.318848 1656.970093
706.336609 5202.60791
706.354431 10138.259766
706.372253 14725.414062
706.390015 13252.166992
706.407837 7921.634277
706.425659 3191.370361
706.44342 704.608887
707.280945 252.753235
707.298828 3616.850098
707.31665 17606.533203
707.334473 48294.730469
707.352295 82567.046875
707.370178 105789.484375
707.388 86309.625
707.405823 50656.175781
707.423706 18804.257812
707.441528 3197.905273
707.459351 264.851227
708.298706 256.790253
708.316589 1713.110962
708.334473 4948.066895
708.352356 8768.801758
708.370178 10994.819336
708.388062 9095.075195
708.405945 5225.79248
708.423828 2102.447998
708.441711 488.061798
716.302063 200.487106
716.320251 1279.171997
716.33844 2711.949463
716.356567 4679.936035
716.374756 4348.288574
716.392944 2224.612793
716.411133 954.351135
718.269348 175.824814
718.287598 5067.366699
718.305847 20664.037109
718.324097 47490.410156
718.342346 76118.546875
718.360596 95777.710938
718.378845 82090.007812
718.397095 51699.203125
718.415344 23102.333984
718.433655 4822.142578
719.274292 23.50642
719.292603 480.108978
719.310852 1641.934326
719.329163 4427.041992
719.347473 7721.727539
719.365784 10657.478516
719.384033 10025.169922
719.402344 6591.217773
719.420654 3194.186035
719.438965 822.76239
720.318054 193.187958
720.336365 1882.699829
720.354675 7223.476562
720.373047 12291.291016
720.391357 14526.394531
720.409668 10988.599609
720.42804 5395.746582
720.44635 659.151123
728.302856 185.084839
728.321472 1016.004578
728.340149 1551.335083
728.358765 1737.255615
728.37738 1494.662476
728.396057 853.158691
730.301086 52.381283
730.319824 522.986633
730.338501 1637.996216
730.357239 2685.631592
730.375977 3087.849365
730.394653 2539.905518
730.413391 1357.887695
730.432129 254.884766
731.331421 190.433151
731.350159 1094.75354
731.368958 1950.892578
731.387695 2388.563477
731.406433 2108.802979
731.425171 1374.120361
731.44397 622.721497
735.285522 203.376892
735.304443 7593.799316
735.323364 35347.097656
735.342285 91753.335938
735.361145 159135.921875
735.380066 220112.671875
735.398987 208605.21875
735.417908 139444.234375
735.436829 70785.648438
735.45575 19807.625
736.288574 2.838272
736.307495 983.48645
736.326477 7279.75
736.345398 19390.021484
736.364319 35443.117188
736.383301 49446.445312
736.402222 48667.652344
736.421204 33042.929688
736.440125 16868.537109
736.459106 4222.128418
743.348267 390.450836
743.367493 2525.27417
743.386719 4166.573242
743.405884 4962.234863
743.42511 4483.160645
743.444336 2749.009766
744.348572 284.894867
744.367798 1433.026489
744.387085 2152.136475
744.406311 2353.810303
744.425598 2036.551514
744.444824 1460.356323
744.464111 748.48938
745.312317 121.547363
745.331604 801.110535
745.350891 2382.019287
745.370178 5002.989746
745.389465 6058.390625
745.408752 4454.914551
745.42804 1864.229736
745.447388 645.087402
746.277893 324.309296
746.297241 3386.013184
746.316589 12106.9375
746.335876 28148.826172
746.355225 41618.085938
746.374573 42840.15625
746.393921 28766.580078
746.413269 14099.073242
746.432556 4872.246582
746.451904 655.58313
747.303528 216.235153
747.322876 1513.319946
747.342224 4117.728516
747.361633 6632.333496
747.380981 7905.728516
747.400391 6511.203613
747.419739 3757.558594
747.439087 817.27655
760.333679 310.945709
760.353577 1502.908203
760.373474 2457.474854
760.393311 2682.213867
760.413208 2213.333008
760.433105 1299.582275
760.453003 403.681458
761.348572 872.520203
761.368469 4866.61377
761.388428 8567.369141
761.408325 10874.445312
761.428284 10290.456055
761.448181 7150.213867
761.468079 3133.026367
763.304443 670.121338
763.324463 5098.965332
763.344421 16682.214844
763.364441 35687.550781
763.38446 52343.546875
763.404419 51698.4375
763.424438 33666.550781
763.444458 15287.179688
763.464417 2219.389404
763.484436 196.550186
764.305237 111.870621
764.325256 1089.758911
764.345337 4644.0625
764.365356 10367.439453
764.385376 15972.664062
764.405457 17854.892578
764.425476 13665.894531
764.445496 7253.151855
764.465576 1979.772217
771.163147 84.625244
771.183472 437.071228
771.203796 680.498657
771.22406 770.788391
771.244385 676.376465
771.264709 399.58667
772.301575 193.858017
772.321899 910.888062
772.342224 1547.751221
772.36261 1925.073242
772.382935 1866.608276
772.40332 1425.447754
772.423645 704.288757
773.320129 470.553497
773.340515 3023.057373
773.360901 6795.398926
773.381287 11057.012695
773.401672 14957.454102
773.422058 13760.147461
773.442444 9399.402344
773.46283 3869.425537
773.483276 1804.067017
773.503662 399.187714
774.279358 74.269379
774.299805 2272.794922
774.320251 7808.255859
774.340637 13838.724609
774.361084 16930.486328
774.381531 14176.777344
774.401978 9326.731445
774.422424 3852.940918
774.44281 250.441391
777.332336 338.541565
777.352844 1982.12439
777.373413 4758.342285
777.393982 7699.782227
777.41449 9025.438477
777.435059 6957.45752
777.455627 3725.6875
777.476196 1209.323975
777.496765 367.176788
786.391113 360.402435
786.411987 1474.259888
786.432922 2061.829346
786.453857 2108.793701
786.474731 1546.299194
786.495667 685.317017
788.360352 356.537262
788.381348 1470.106689
788.402344 2155.955566
788.42334 2431.86499
788.444336 2159.483887
788.465332 1462.234131
788.486328 621.107361
789.326721 1060.286377
789.347778 6498.585449
789.368774 16272.935547
789.389832 27468.839844
789.410828 33010.164062
789.431885 25297.072266
789.452942 12664.541992
789.473938 4612.797852
789.494995 605.590393
790.337036 54.248131
790.358093 515.205383
790.37915 1669.93689
790.400208 2949.69873
790.421326 3779.900146
790.442383 3658.148438
790.46344 2647.118408
790.484497 1205.186768
791.243713 110.329086
791.264832 966.215088
791.28595 4499.536621
791.307068 19194.914062
791.328125 70914.195312
791.349243 179672.40625
791.370361 297699.53125
791.391479 365410.46875
791.412598 290338.6875
791.433716 164879.625
791.454834 60994.402344
791.475891 14328.636719
791.497009 2654.019531
791.518127 1536.651245
791.539246 689.45874
792.27887 213.190384
792.299988 3069.866699
792.321106 9826.375977
792.342285 29161.150391
792.363403 59739.769531
792.384583 89155.851562
792.405701 89960.273438
792.42688 59414.492188
792.448059 27793.138672
792.469177 5852.535645
792.490356 686.023926
797.591797 375.421478
797.613159 2173.953369
797.634521 5317.685547
797.655884 6834.01123
797.677246 6914.503906
797.698608 5895.500977
797.719971 5039.037109
797.741333 4427.335449
797.762695 6016.852539
797.784058 6331.144043
797.80542 5310.741211
797.826782 3702.512939
797.848206 1942.073853
805.336853 175.88269
805.358582 968.701538
805.380249 2223.242188
805.401917 2966.059082
805.423584 2821.605225
805.445251 1848.461182
805.466919 658.218323
806.312927 107.558205
806.334656 1409.742188
806.356384 8270.654297
806.378052 30918.982422
806.39978 70712.554688
806.421509 106981.84375
806.443237 115555.804688
806.464905 81909.703125
806.486633 42108.089844
806.508362 12425.555664
806.53009 2185.400635
806.551819 150.433014
807.33429 54.276077
807.356018 741.033752
807.377808 3673.932861
807.399536 11185.160156
807.421265 19763.910156
807.443054 24727.494141
807.464783 19275.019531
807.486572 9972.348633
807.508301 2537.17627
807.53009 189.761337
813.371277 232.593552
813.39325 970.28833
813.415222 1730.199585
813.437256 2413.806885
813.459229 2620.062744
813.481262 2143.969727
813.503235 1245.178711
813.525269 420.13089
814.361938 217.687698
814.383972 1057.546509
814.406006 2696.768311
814.42804 4950.550293
814.450134 5495.774902
814.472168 3922.218262
814.494202 2023.547852
814.516235 752.55011
817.300659 172.701599
817.322815 2153.782227
817.344971 9973.712891
817.367126 24935.591797
817.389282 40954.070312
817.411438 44292.601562
817.433594 29763.462891
817.45575 15510.444336
817.477905 4576.153809
817.500061 593.482056
817.854797 599.812927
817.877014 2724.255371
817.89917 4054.623535
817.921326 4872.097656
817.943542 4798.649414
817.965698 3754.807129
817.987915 1924.557739
818.32074 178.742401
818.342957 1330.413574
818.365112 4743.725586
818.387329 9672.685547
818.409546 12646.089844
818.431763 11149.732422
818.453918 6605.138672
818.476135 2185.92627
820.366638 438.827057
820.388916 3155.27002
820.411255 8856.805664
820.433533 13652.227539
820.455811 16024.808594
820.478088 13096.119141
820.500366 7074.046387
820.522644 1850.318237
820.544922 463.76236
821.392517 445.291473
821.414795 1830.655151
821.437134 2982.186279
821.459473 3371.465088
821.481812 2658.260986
821.50415 1126.609741
831.371033 890.24939
831.393799 5304.489746
831.416504 14130.767578
831.43927 23814.84375
831.461975 29737.689453
831.484741 23982.554688
831.507446 12182.255859
831.530212 5118.012207
831.552917 1495.318848
832.394836 339.885284
832.417603 1350.964966
832.440369 2245.948242
832.463135 2571.894287
832.485962 2021.571411
832.508728 902.959167
834.219604 87.63533
834.242432 837.027344
834.265259 2815.067871
834.288147 6153.99707
834.310974 10812.526367
834.333801 20086.169922
834.356689 63730.566406
834.379517 174870.453125
834.402405 333255.375
834.425232 463609.3125
834.44812 437714.0625
834.470947 276442.28125
834.493835 128792.367188
834.516663 34381.296875
834.539551 8896.949219
834.562378 3995.650879
834.585266 2786.558838
834.608093 955.661682
835.317322 417.430481
835.34021 5559.152832
835.363098 18781.054688
835.385986 53371.808594
835.408875 98956.835938
835.431763 134506.609375
835.454651 118110.320312
835.477539 70357.765625
835.500488 28074.324219
835.523376 5405.31543
835.546265 670.805969
841.393677 461.882996
841.416809 1537.137939
841.440002 1964.414429
841.463135 1825.469849
841.486267 1188.039307
841.509399 449.455872
844.363708 1003.629089
844.386963 4007.129395
844.410217 5922.004883
844.433533 6296.834961
844.456787 4825.137695
844.480042 2279.509766
848.098389 662.166626
848.121826 2908.429688
848.145264 4789.94043
848.16864 5436.725098
848.192078 4340.14502
848.215515 2044.772583
848.356079 1193.213501
848.379517 9675.053711
848.402954 32748.582031
848.426392 68873.320312
848.449829 103303.140625
848.473206 114517.773438
848.496643 86465.28125
848.520081 48779.398438
848.543518 17020.404297
848.566956 2127.477539
849.364441 868.00647
849.387939 5465.646973
849.411377 15217.088867
849.434875 27932.152344
849.458374 38165.597656
849.481812 36744.828125
849.50531 23110.855469
849.528809 9437.399414
849.552246 2726.676514
858.378296 245.618866
858.4021 993.901306
858.425964 1948.531738
858.449829 2852.507568
858.473694 3110.506348
858.497498 2496.712646
858.521362 1440.531128
858.545227 479.67038
859.356812 1287.851685
859.380676 6588.402344
859.404602 15855.529297
859.428467 27207.210938
859.452393 32719.931641
859.476257 25405.716797
859.500122 12975.970703
859.524048 5015.57666
859.547913 479.140778
860.384888 477.92215
860.408813 1939.561279
860.432739 3762.699951
860.456665 5071.668457
860.480591 4504.358887
860.504517 2512.206299
860.528503 758.121948
876.300415 403.209656
876.325012 1540.186646
876.349609 3486.607666
876.374207 11187.543945
876.398804 36832.203125
876.423401 99654.679688
876.447998 186289.546875
876.472595 252294.5625
876.497192 231037.25
876.52179 142459.890625
876.546387 63340.546875
876.571045 15439.107422
876.595642 3119.518311
876.620239 2472.319092
876.644836 2852.883789
876.669434 2174.770508
877.359009 252.098663
877.383667 3186.653076
877.408325 13259.064453
877.432922 33643.496094
877.457581 58920.480469
877.482239 73374.859375
877.506897 61188.742188
877.531555 36070.945312
877.556152 14229.895508
877.580811 2412.396973
877.605469 210.084991
886.347778 803.286987
886.372803 4363.799316
886.397827 13912.782227
886.422852 32099.583984
886.447876 49097.945312
886.4729 52987.550781
886.497925 37402.164062
886.522949 18683.974609
886.547974 4487.015625
886.572998 123.350647
887.349426 84.207825
887.374512 2529.280273
887.399597 8791.616211
887.424622 15861.680664
887.449707 19462.462891
887.474792 16546.013672
887.499878 10272.155273
887.524902 4202.500977
887.549988 581.150513
888.37793 334.934814
888.403076 1134.322144
888.428162 1695.855225
888.453308 1734.802612
888.478394 1263.142334
888.503479 539.229736
904.254578 197.651093
904.280334 1018.513489
904.306152 2733.94165
904.331909 5900.439453
904.357727 15904.898438
904.383484 54824.371094
904.409302 159368.828125
904.43512 326605.5
904.460876 472836.9375
904.486694 480510.59375
904.512451 325657.78125
904.538269 161973.125
904.564087 46618.867188
904.589844 10841.464844
904.615662 3966.008301
904.641479 2248.926758
904.667236 430.524536
905.312622 577.670166
905.33844 2030.866821
905.364258 6297.950684
905.390137 23828.837891
905.415955 65288.730469
905.441772 124227.742188
905.46759 167820.96875
905.493469 155092.96875
905.519287 97407.203125
905.545105 43295.566406
905.570984 11442.111328
905.596802 2242.06543
905.62262 694.671326
957.973083 174.726379
958.001221 508.834045
958.029297 693.069031
958.057434 706.098877
958.085571 517.732483
958.113647 202.413788
END IONS
