BEGIN IONS
PEPMASS=1104.56
CHARGE=1
MSLEVEL=2
SOURCE_INSTRUMENT=LC-ESI-qTof
FILENAME=3006_1104.mzXML
SEQ=*..*
IONMODE=Positive
ORGANISM=GNPS-LIBRARY
NAME=Stenothricin A M+H
PI=Dorrestein
DATACOLLECTOR=Peng
SMILES=CC1OC(CN(C(C(NC(C(NC(C(NC(/C(NC(C(NC(C(NC(C1NC(C(NC(CC(CCCCCCCCCC)=O)=O)CS(O)(=O)=O)=O)=O)CO)=O)CN)=O)=C/C)=O)C(C)C)=O)CO)=O)CCCCN)=O)C)=O
INCHI=InChI=1S/C47H81N11O17S/c1-7-9-10-11-12-13-14-15-18-29(61)21-36(62)50-35(26-76(72,73)74)44(68)57-39-28(5)75-37(63)23-58(6)47(71)31(19-16-17-20-48)52-42(66)33(24-59)54-45(69)38(27(3)4)56-40(64)30(8-2)51-41(65)32(22-49)53-43(67)34(25-60)55-46(39)70/h8,27-28,31-35,38-39,59-60H,7,9-26,48-49H2,1-6H3,(H,50,62)(H,51,65)(H,52,66)(H,53,67)(H,54,69)(H,55,70)(H,56,64)(H,57,68)(H,72,73,74)/b30-8-
INCHIAUX=N/A
PUBMED=N/A
SUBMITUSER=y6peng
TAGS=
LIBRARYQUALITY=2
SPECTRUMID=CCMSLIB00000075070
SCANS=1
311.168243 0.234064
315.390869 0.494449
318.31311 0.512281
319.229279 0.800735
321.105774 0.949311
323.897522 0.839149
335.161896 0.847074
338.369781 1.82888
339.379883 0.532629
342.080719 0.843564
353.343475 0.283867
356.300415 2.248929
363.219086 1.194505
364.45929 0.437003
368.806152 0.157699
373.14798 0.890887
375.069519 0.455882
377.22821 1.51051
378.232605 0.926045
379.153107 0.237753
380.162048 0.620828
381.144226 2.963406
382.932495 0.152676
384.278931 0.337749
386.337646 0.43023
388.728119 0.318135
391.171387 0.656804
391.982727 0.153356
396.542175 0.733342
398.332092 1.419829
399.102783 0.187147
404.381195 2.735091
410.197998 0.328464
411.313263 1.347765
416.134705 0.855234
421.275391 0.921281
422.199219 1.476912
425.233948 1.621421
426.238739 0.985972
428.350464 2.424979
429.179871 1.474171
431.376831 1.074355
432.405701 0.217708
434.517578 1.270484
437.055573 1.033365
439.241882 0.652382
443.096863 2.62196
444.155029 0.399145
445.307739 1.625637
449.434021 0.416436
450.344727 1.870839
451.122437 0.944664
452.153076 2.516918
457.11145 0.939564
463.19397 0.275357
467.207703 0.546231
470.292236 2.971396
472.317291 0.359877
473.174866 0.684307
476.177124 0.905754
479.281433 11.766688
480.217316 0.51012
481.503113 1.275376
482.517761 0.230004
484.293152 6.9975
487.260559 0.831788
489.245331 0.470437
490.128265 0.89522
491.167267 1.427624
492.172791 1.823925
493.548706 1.607579
496.251221 0.808755
497.195984 10.45833
498.570984 0.189472
500.217224 1.6342
502.217957 0.420415
504.316528 0.797733
507.323792 3.723634
508.166595 1.116599
510.533417 0.29906
511.404785 1.637733
514.286621 3.814243
516.093018 0.484069
518.236389 2.667705
519.236816 0.291088
521.289673 0.499318
522.470093 1.001742
525.094238 0.300353
526.32782 1.785464
528.30127 4.119915
529.687805 0.367772
532.083984 6.588715
533.184631 0.532168
534.244873 1.426296
536.343445 0.65486
537.594299 1.336921
538.502075 1.460132
539.20575 5.679649
542.182983 0.916081
544.205566 1.891152
545.384888 0.595862
546.349609 0.749896
548.964111 1.253883
550.039307 0.10311
551.175476 5.100692
552.335815 0.690543
553.305786 2.600687
554.262329 1.926399
555.442993 1.368838
556.445923 6.692874
557.236938 1.76291
559.645752 0.553896
562.438354 1.223446
567.279907 0.784515
568.463745 1.082065
570.240906 0.614345
571.34436 11.899638
572.320007 2.584075
573.289795 6.033347
575.325623 1.022803
576.192749 0.524345
578.210938 1.186299
580.327759 17.305799
581.41394 0.967078
584.278931 0.433043
586.295776 0.544786
588.981262 1.184603
590.198792 15.327061
591.521118 0.834612
592.857056 0.847895
596.384644 2.118704
597.549377 0.928981
598.294373 0.776662
599.333374 0.311648
600.419312 0.541968
602.351318 0.48642
603.527954 1.139678
604.414673 0.332661
606.499023 0.64136
607.382446 13.582756
608.342773 6.428256
610.68103 0.67394
611.457031 1.675624
612.56958 4.172917
613.361938 6.544356
614.103394 1.879843
615.614746 1.360713
617.46228 1.382598
618.428955 0.387887
619.293335 1.629648
620.107666 0.196883
621.160645 1.150121
622.455811 0.606473
623.091675 0.164623
625.546875 5.555277
626.502808 2.31995
629.239258 1.193691
631.239746 16.180174
632.110352 2.284804
633.622192 0.215401
634.330627 0.852212
635.415222 1.544725
637.335205 1.153116
638.234619 11.43807
640.208618 0.926261
641.197021 1.351747
642.394287 4.844722
643.346497 9.593221
644.131042 0.766238
644.968384 1.151416
650.333496 4.841562
651.347534 2.530379
654.029724 5.402226
655.384277 1.618437
659.233887 0.436577
660.299561 50.351337
661.231812 20.192989
662.250916 5.394244
662.92926 0.654793
664.676758 2.282438
667.091858 0.800085
670.271973 1.059218
671.786865 5.167457
672.588989 3.369664
673.354553 0.921462
674.61969 1.132711
675.997314 0.917397
677.232422 7.581842
678.152832 4.72641
679.192383 50.353699
679.995605 0.791473
681.35614 0.73912
682.365601 0.250517
683.797485 1.351531
684.401855 2.165197
685.148315 0.217857
687.287231 0.719696
688.106812 0.93205
689.237427 39.491226
690.463745 7.739482
691.621582 2.004938
693.277466 0.207923
694.270508 3.962323
695.295532 1.033298
696.352539 1.845692
697.351624 0.644925
698.408081 6.948101
700.574463 0.848068
701.315491 2.057706
704.083374 3.472709
704.74176 3.23959
706.323486 9.796874
707.23053 26.253069
708.363342 4.510604
710.937012 1.048008
712.135986 3.737226
713.303162 0.668753
714.286865 15.741075
715.721436 1.211889
717.984741 6.558139
718.825562 3.219122
719.676514 0.177822
720.733582 1.198971
721.37561 2.425979
723.407227 8.207882
724.649475 5.823464
725.506226 24.476627
726.37738 7.037204
730.200684 0.907547
731.395508 3.532781
732.418579 1.8129
736.445068 1.076927
737.53772 0.733381
741.613464 0.744465
743.409241 91.250656
744.251404 2.409099
745.298279 0.260082
746.983948 2.512717
747.774414 2.428146
748.438721 2.325271
749.420776 5.767089
750.229431 0.564027
751.480713 1.662386
753.188721 0.597647
754.185303 2.290506
755.32074 0.244309
756.045654 0.534411
758.534424 0.60102
759.511841 0.853076
761.253357 9.523899
762.268188 8.647828
764.209961 2.127264
765.526306 3.545642
766.256531 11.872367
767.072449 4.815423
768.526306 1.543378
770.507507 1.194888
771.552429 2.461683
772.352783 8.939611
773.359375 2.99373
774.2771 1.491626
775.141846 0.812039
776.543701 1.015549
777.568054 5.331012
778.475586 4.011984
782.248474 12.275334
783.162231 0.468181
786.156738 1.067395
787.433838 6.372107
788.599731 1.764533
789.512268 4.913875
790.352234 34.278748
791.217407 3.336938
792.359497 0.136253
795.223511 28.617821
796.610352 1.468838
800.147217 19.986839
802.286987 0.347893
804.238647 2.65957
805.276978 17.03311
807.308838 2.819775
808.217773 1.005117
810.939087 0.917358
812.442993 7.987761
814.39563 2.433578
815.225952 1.443852
816.368896 0.266255
817.488281 3.221369
818.370361 5.935197
820.253174 1.057839
821.536621 1.477111
822.221924 0.970848
823.638672 0.341996
824.258911 1.290006
826.364014 0.228336
827.547729 0.304793
829.281128 0.71561
830.262451 6.097705
831.411987 7.612605
832.397339 5.029881
833.461792 0.264819
835.169312 1.937218
836.373901 3.244431
840.296875 2.824106
841.50769 8.464724
842.39624 12.707429
843.671021 1.717969
844.585449 0.50305
845.321167 1.114879
846.428101 3.617777
847.230347 13.913825
848.523682 12.097792
849.360474 27.530905
850.607422 4.969401
851.449341 0.708889
853.162842 7.657115
854.195557 2.556411
854.825439 0.499142
856.156616 0.760445
858.364258 212.014847
859.296997 73.46093
860.249268 18.831629
861.405029 8.242835
863.47583 0.350612
865.326294 50.752716
866.444702 3.493908
868.168945 1.206947
869.238159 2.507497
869.951904 0.63345
871.178833 17.129871
871.995239 4.129426
873.153564 0.367485
875.611328 26.51058
876.31958 257.944519
877.293701 115.004364
878.397705 1.639468
881.34729 0.503308
882.472168 0.450241
883.58374 0.372359
884.273315 1.026182
885.337036 0.340408
886.731689 1.11826
887.448975 4.818625
889.360352 65.374382
890.338745 0.466242
891.216064 0.905704
894.308105 1454.272705
895.094116 9.924391
896.21582 0.786324
896.908081 2.234046
900.369019 0.52101
901.329834 0.787647
902.552002 0.632343
904.498413 4.83565
905.462158 2.718776
906.196899 0.933116
908.233765 1.105123
909.413086 0.369615
910.743408 0.368967
911.524536 0.467933
913.428589 0.249602
914.129272 5.529951
915.237427 2.580582
916.302734 1.495353
917.375244 3.933519
918.345703 1.962411
920.058838 1.345939
920.668945 1.165983
922.401367 7.832635
923.365967 4.299098
924.529419 0.620807
925.189087 0.659212
926.477905 1.584775
928.400024 2.435947
930.503052 1.807149
931.423096 5.262722
933.430054 15.242422
935.026123 4.21386
935.781616 0.326995
937.224365 1.104096
938.295288 1.400682
939.392456 2.409261
941.376587 8.622334
942.344238 3.513196
943.334106 1.547731
944.838013 1.540164
945.467896 0.123587
946.471558 1.757131
947.403442 4.486037
948.510254 1.16818
949.708252 0.206177
950.829224 1.658566
951.443359 2.122411
952.752319 1.704217
954.442993 1.170812
955.479492 2.221024
957.299072 4.662909
958.291992 11.020612
959.203979 0.88197
961.506226 1.039136
962.294067 1.628066
967.045166 1.871581
969.277466 2.772541
970.505249 0.638111
971.223145 1.376196
972.436279 6.69381
973.500732 1.93859
974.360718 0.847762
975.518188 2.048673
976.505981 8.002909
977.442993 6.272314
978.314087 2.408235
979.793579 0.576444
980.404175 0.484746
982.858276 0.85679
984.714233 4.006729
985.673096 1.296439
986.626465 0.617134
987.63562 3.939178
988.592407 3.71568
989.572144 4.134519
991.391968 3.109303
993.606567 1.22141
995.753296 0.865138
997.405518 6.855616
998.360718 2.512204
999.455811 3.159069
1000.355225 0.375094
1003.646851 1.401383
1004.780273 11.423738
1005.398804 33.033203
1006.152344 0.150154
1007.711426 0.702764
1008.334229 1.737932
1011.416626 0.22327
1013.098022 1.951731
1015.400757 2.778573
1017.025635 0.521806
1017.923584 1.759107
1018.606567 0.741362
1019.221436 0.214949
1022.523438 18.008228
1025.143677 1.049955
1025.77002 0.622411
1027.58374 1.706498
1028.407349 0.477363
1029.832275 3.908129
1030.702515 0.261482
1032.3125 0.637673
1033.388794 0.366872
1034.136719 1.03566
1036.30957 1.688925
1037.619995 1.626328
1039.112183 4.546142
1040.378784 7.230072
1041.50354 15.472668
1042.373657 5.289545
1043.228638 4.471955
1044.600342 1.139742
1045.258179 1.983794
1047.333862 1.033678
1049.312744 4.029773
1050.391235 2.770648
1051.380249 9.491301
1052.442627 4.988568
1053.409912 0.314022
1054.279175 0.635082
1055.771606 3.56902
1057.353027 54.399517
1059.244873 48.96257
1060.169067 5.726078
1061.130737 1.964437
1066.531006 1.385429
1068.425171 240.078568
1069.349243 151.850632
1070.736572 2.942791
1071.363159 2.502855
1072.228638 1.631093
1073.476196 0.969158
1075.300659 132.104874
1076.427246 8.697376
1077.427612 2.452158
1080.743164 0.598116
1082.250366 2.878998
1085.779785 107.194107
1086.404663 285.578003
1087.389771 134.436966
1089.260254 1.398373
1090.545898 0.312058
1093.682739 1.71874
1095.267212 1.738427
1097.216431 0.92712
1103.186035 2.835163
1104.551758 1.538494
1105.303345 1.55314
1106.222656 1.807925
1107.212769 0.632107
END IONS
