BEGIN IONS
PEPMASS=883.329
CHARGE=1
MSLEVEL=2
SOURCE_INSTRUMENT=LC-ESI-qTof
FILENAME=euphodendroidin_R.mgf
SEQ=*..*
IONMODE=Positive
ORGANISM=GNPS-LIBRARY
NAME=euphodendroidin R M+H
PI=LITAUDON/TOUBOUL
DATACOLLECTOR=Esposito
SMILES=C[C@@]1(OC(C2=CN=CC=C2)=O)C[C@](OC(C)=O)(C([C@@H](C)/C=C/C(C)(C)[C@H](OC(C3=CN=CC=C3)=O)[C@H](OC(C)=O)[C@@H](OC(C4=CC=CC=C4)=O)C([C@@H]5OC(C)=O)=C)=O)[C@]5([H])[C@H]1OC(C)=O
INCHI=
INCHIAUX=
PUBMED=N/A
SUBMITUSER=lfnothias
TAGS=
LIBRARYQUALITY=1
SPECTRUMID=CCMSLIB00000840329
SCANS=1
51.022526 144.490204
52.987621 153.451797
55.053417 84.056252
67.052444 255.653305
68.996094 137.0
69.032692 1203.659058
69.601479 95.289467
71.047951 87.455643
77.037727 984.088928
78.033745 2713.486084
79.053658 103.214302
80.048409 343.174988
81.030098 120.068802
83.048729 1563.140991
83.085037 232.858398
84.051643 93.46154
85.061523 112.703796
93.068527 441.923004
95.046265 125.857101
95.085495 1044.062012
105.01416 192.837799
105.032753 45597.171875
105.200127 82.570099
105.269951 87.146584
105.316124 91.49128
105.484398 81.094231
106.028091 18875.080078
106.098625 117.199997
106.28933 78.15593
106.320091 79.130432
107.031326 181.191605
107.047005 158.580597
107.085411 1393.055054
107.704277 79.162643
108.043365 118.882401
109.0261 103.224998
109.063202 473.117096
109.100121 1742.0
113.09449 140.285706
117.066734 217.816299
119.084732 726.636902
120.090462 80.153847
121.062813 158.258102
121.100533 811.682617
122.058952 165.138504
123.043106 1333.115967
123.079231 1637.223999
124.038414 56887.78125
124.100815 1718.21106
124.242294 129.271194
124.340431 111.502296
124.383369 82.0
124.420242 149.006104
124.450043 79.544273
124.46154 78.371223
124.48774 82.594391
124.604057 126.145302
125.003365 81.321426
125.04306 1532.016968
125.094437 178.880203
127.07077 123.379501
129.067108 198.667297
131.085266 423.257385
133.061966 170.225494
133.101562 402.657196
135.040482 103.688599
135.078064 764.740295
135.115173 314.491211
137.094849 394.057312
139.037201 189.754395
141.089005 219.900406
143.084885 694.69342
145.064209 676.825378
147.079712 168.560303
148.083252 193.0
149.094315 363.8125
151.073746 373.798889
151.109055 584.674622
152.112747 125.456001
154.0755 90.104378
154.089584 93.964508
155.066711 143.610199
155.084137 440.114288
157.057449 90.570763
157.099716 779.238586
158.109192 192.628601
159.041245 309.287292
159.078888 1000.184021
159.11409 684.565186
160.117828 129.085999
161.058334 243.3508
161.09285 640.405212
162.061462 330.1633
163.073013 542.671082
165.051086 150.743896
165.088776 573.481628
166.04805 5408.620117
166.121078 101.160698
166.255859 106.550003
167.050858 369.346497
168.092484 111.037498
169.063538 318.006287
169.098923 1005.633972
171.079605 152.803802
171.115097 2292.310059
172.073761 93.564102
172.121719 241.695496
173.018845 123.886497
173.056534 374.097687
173.094727 330.088806
173.129898 292.327515
175.072678 774.22229
175.108673 690.379211
176.066742 133.275803
176.112717 191.0
177.056564 239.010101
177.088776 690.443604
178.084305 382.264496
179.103928 145.0755
181.100174 363.719788
182.10173 108.001404
183.07724 234.320999
183.114258 240.050995
185.057266 325.959015
185.092865 538.039978
185.127853 153.349594
187.073959 1073.208008
187.110886 1264.843994
188.076019 256.644714
189.05336 267.058594
189.088196 504.204407
189.125153 461.310394
190.083191 450.310303
191.065109 86.61731
191.101913 317.913513
192.098389 171.402405
193.100021 578.85437
194.085098 117.161301
195.079605 190.111404
195.115921 1458.697998
196.083023 81.115562
197.057205 1436.751953
197.092926 678.142212
197.120621 231.833298
198.09845 154.959
199.072784 454.274292
199.109924 349.926392
199.141068 104.054802
201.057114 221.612396
201.088303 506.950806
201.134689 413.375
203.068542 128.603607
203.104935 578.977783
203.133514 145.028198
204.09169 92.177643
205.093628 354.266602
206.105286 258.66861
207.078293 212.303604
207.114731 828.582581
208.058685 79.595238
208.07933 114.321602
208.121201 302.700012
209.094345 900.118713
209.13063 1280.870972
210.138 128.010498
211.072403 282.598602
211.108521 616.165771
211.144257 170.390503
213.089081 853.00293
213.125275 1521.352051
215.068787 346.961304
215.106415 910.589417
216.144562 133.360397
217.094864 266.666687
218.087845 354.28949
219.112747 281.804993
221.095047 417.920288
221.13121 681.392212
222.101181 237.313599
222.137817 137.275894
223.072037 157.148804
223.110168 2243.943115
223.145462 1142.694946
224.115097 250.045502
225.087463 368.412109
225.124039 830.64978
225.440247 163.851395
226.088181 79.170212
226.129745 159.081604
227.066498 180.559998
227.105881 1187.733032
227.136719 423.678986
227.176712 214.472107
228.064163 2775.105957
228.143768 115.2071
229.070068 702.778015
229.120056 532.690186
231.11203 255.457901
231.128021 146.4142
232.127136 763.218323
233.088074 260.143707
233.133057 143.755096
234.134918 152.380203
235.107849 252.885101
236.116638 448.129608
236.15213 106.102303
237.089478 616.602478
237.125183 4209.839844
237.16095 3514.423096
238.128021 409.031708
238.158142 177.818207
239.064362 162.5625
239.104553 1114.463989
239.13913 441.23999
239.177628 511.5625
240.064163 221.512695
240.146332 180.548706
241.084427 198.462296
241.119553 1624.286987
241.15564 527.078125
243.100677 106.907402
243.134247 165.671906
245.088028 266.023499
245.113846 296.173889
246.104492 145.439499
247.089401 310.406494
247.10881 374.352905
247.14624 4326.098145
248.14856 406.742401
249.088013 82.139526
249.127396 594.94281
249.162155 2219.315918
250.089966 123.196404
250.13353 437.159485
251.104675 1100.636963
251.141281 2253.625977
251.659256 85.556824
252.107468 512.034119
253.12056 1324.01001
254.117111 320.11911
255.09787 511.771088
255.137466 1204.628052
255.172745 1380.020996
256.096039 111.641998
256.127533 148.9534
256.146637 161.621399
256.175232 189.790298
257.077362 157.725006
257.112274 389.860901
257.130432 434.960114
259.128143 184.790298
259.162476 118.347198
260.123657 1106.133057
260.746246 83.796051
261.126221 184.051498
263.141632 484.597504
264.102936 323.335907
264.146088 235.880203
264.194183 80.059212
265.119354 602.598083
265.156891 30639.099609
265.245605 491.002502
265.36676 98.032784
265.448883 90.894234
265.479645 84.813026
265.508484 118.822502
265.544739 113.423203
265.594452 99.376343
265.636871 131.072998
266.026001 80.852562
266.160309 3346.60498
267.099884 288.460205
267.133331 543.485229
267.172394 1213.001953
268.103912 102.173401
268.14328 253.965393
269.113312 542.701477
269.151459 968.076416
270.077057 150.571396
271.131134 416.0466
273.106232 171.222595
273.143127 317.368805
273.181854 144.375
275.066071 115.334503
275.096436 226.5952
275.141388 14922.049805
275.230896 220.000793
275.664124 90.284088
275.743164 84.560966
276.099335 581.968994
276.14447 1606.032959
277.120605 252.900101
278.075378 152.621597
278.126587 656.282593
279.097107 205.066299
279.135406 535.194824
279.168518 181.100296
280.135223 208.987701
281.11496 325.017914
281.151154 402.658508
282.110779 169.6371
282.159485 175.459396
283.128387 467.881714
283.167542 12824.290039
283.261169 255.314301
283.431976 132.125
283.966187 162.681503
284.093048 100.613602
284.135223 275.03949
284.17038 1029.810059
285.107117 262.976196
285.140503 121.633598
285.180908 171.059494
285.464447 78.809998
287.087585 119.416702
288.160065 101.360397
289.119751 98.00219
289.156982 503.534485
289.903442 107.142197
291.098816 266.446411
291.134674 204.018906
291.171143 245.406296
292.094666 1189.208008
292.143311 253.449005
292.735962 120.083298
293.077667 380.000885
293.151855 53467.738281
293.581635 255.610001
293.713593 127.374802
293.744843 96.947479
293.813354 92.618797
294.01123 98.227547
294.11142 1202.338989
294.154541 5772.194824
294.251099 91.920464
295.132477 633.184814
296.09082 85.898933
296.135986 199.289307
296.158539 124.988602
297.104675 137.778107
297.147675 1351.328003
297.183777 335.0625
299.126099 337.408295
300.126953 183.758606
301.176788 883.90033
302.077179 208.768204
302.109528 129.001099
302.147675 127.036903
302.180084 129.280701
304.098267 123.147903
304.123962 100.223198
306.07785 207.125
307.116699 111.692299
307.166595 2099.944092
308.165039 220.612503
309.112762 233.222794
309.144623 323.557098
309.18158 673.387329
310.10434 140.278397
311.161987 29139.380859
311.258667 328.390106
311.491638 128.402695
311.539459 207.964005
311.652283 149.250504
311.701294 80.370369
312.048859 98.555672
312.165161 2016.379028
313.109955 84.25
313.138519 262.0
313.155945 180.573395
313.707855 91.164467
315.150452 112.977402
316.093811 89.926277
316.13855 186.188507
317.148956 204.064499
319.093323 132.941193
319.151001 185.533096
320.090149 1627.128052
320.927704 96.934212
323.15921 141.240097
323.175476 181.012207
324.117523 108.2481
325.102722 151.297607
325.178772 6952.599121
325.276062 89.222816
326.121765 98.079536
326.18158 580.447998
328.148346 129.198502
329.172485 3113.39502
330.145355 451.38559
330.1745 343.173798
332.122559 116.201202
332.158875 93.18367
334.101898 98.245003
335.161804 8124.296875
335.260803 153.116104
335.844604 80.92308
336.118774 178.988205
336.163849 1486.640015
338.100281 737.927185
340.132141 225.401901
341.110931 88.902229
341.148102 202.875
342.112549 119.349503
342.145081 451.069702
343.14328 233.938797
343.186615 992.119385
344.123779 256.497498
344.188538 118.800003
344.585968 83.93399
345.144409 83.148148
346.141449 160.073898
346.176025 87.454536
347.12677 220.865097
352.115204 107.603401
353.172546 14997.480469
353.715881 103.920502
353.850616 78.375
354.129852 82.440002
354.176758 1522.213013
355.148193 111.845001
355.182068 150.402802
356.158447 126.013496
357.181335 114.538498
359.195953 171.246597
360.117462 108.795898
360.157257 742.512817
360.189392 296.469391
362.09549 107.557404
362.207916 147.0784
364.149078 139.959198
366.103638 115.9394
367.187897 281.177307
369.184692 597.55127
370.178833 929.124329
371.183746 5235.208008
372.145569 95.410004
372.188354 1319.676025
373.175568 271.978088
374.169495 268.469513
375.135925 339.502197
376.155487 102.487999
377.124146 84.579224
378.168579 225.5
379.166748 125.407402
380.108582 461.376709
380.157227 316.792114
385.17334 148.450699
385.198456 99.019737
386.173065 99.512497
387.194611 1201.019043
388.18808 7434.224121
388.301544 82.784637
389.193512 821.055725
395.18158 1073.175049
396.184906 143.329407
397.17807 4078.464111
398.133728 167.660202
398.173218 5425.625977
399.166779 180.128998
402.165588 397.838196
402.195343 296.111206
405.199738 197.4077
406.197937 4561.874023
407.199432 406.373993
407.651581 83.049606
410.190765 96.288269
412.137115 100.013901
413.191711 2039.432983
414.131805 166.265396
414.197266 353.008301
415.187775 3941.407959
415.711029 89.922752
416.089172 121.125
416.183563 25522.460938
416.267365 525.877625
416.442169 89.027344
416.483185 79.568497
416.518188 94.596657
416.580353 99.43
416.680603 117.201103
416.709442 88.493736
416.788239 152.531998
416.813629 86.682137
417.185303 2327.705078
417.329407 80.099998
417.367096 122.977402
417.619873 81.002449
420.176483 442.595612
424.117828 503.312988
424.173584 171.858795
424.205109 364.206085
424.671417 86.043266
425.207062 86.803574
430.138947 103.843002
430.197388 476.433594
431.202057 971.005005
432.212524 259.070801
433.197144 841.392395
434.194305 15046.349609
434.30484 148.031296
434.605194 94.788933
434.859863 110.485298
435.14743 98.041656
435.19751 1675.203979
439.175415 221.580399
440.120178 93.260803
441.181458 90.667931
442.12677 287.211212
443.124603 123.471199
447.209045 148.462601
448.151459 103.185204
448.209259 7010.754883
448.754181 78.568298
449.212585 788.582581
449.405457 79.5728
450.18631 182.139206
450.224426 237.508194
452.202911 3910.14209
453.207977 208.692505
455.204071 407.108612
456.208069 127.400002
457.198273 689.111816
458.192993 6751.296875
459.195923 563.825012
459.928925 95.781502
460.134583 408.069
464.178589 129.024994
466.219666 6157.25
467.221985 487.422089
473.214447 739.661194
473.860352 79.648529
475.209473 1293.980957
476.204529 48053.691406
476.574097 120.920097
476.630005 141.487396
476.730042 169.015396
476.769409 144.915298
476.82074 160.544296
476.860657 171.718597
476.914673 163.308594
477.001648 129.772705
477.096313 153.757904
477.207397 7162.375
477.336182 175.178406
477.556152 104.190498
477.593445 80.005951
477.806061 131.264893
477.821777 114.3274
478.030396 98.343468
478.071869 91.95871
478.156464 157.897095
478.372589 144.197403
479.372742 114.571404
489.548462 118.684898
490.212097 190.611603
492.219696 97.25
493.219818 448.004486
494.214539 17746.699219
494.329742 188.001495
494.444885 94.951271
494.48468 103.878403
494.603333 96.432693
494.701324 121.886597
494.751465 134.592697
494.917084 108.951302
494.942963 110.25
495.068756 96.211197
495.219452 2343.263916
498.147888 137.6651
498.173828 86.594391
500.146057 176.083694
508.22879 4243.099121
509.233582 883.877075
510.225983 635.200317
515.225586 163.389404
517.218201 253.809799
517.595947 90.007584
518.213928 6794.759766
518.510437 101.668198
518.843018 79.889153
519.217041 753.213196
520.208069 2059.875977
520.85144 88.906754
521.207703 173.416702
522.210876 99.643646
526.246216 301.69809
528.23761 1639.468994
528.389832 79.934319
529.234558 471.840088
535.231079 186.010406
536.224731 12412.070312
536.352051 129.395203
536.428406 97.814507
536.825562 98.07753
536.851685 112.042801
537.228027 2145.814941
537.381653 81.757584
538.219177 6638.554199
539.054504 85.227272
539.221252 1017.398987
539.378601 122.333298
539.850037 101.363197
546.203613 110.556297
554.236938 1615.562012
555.261108 120.351898
556.228638 5418.916016
556.572144 86.444618
557.235474 436.048492
558.22168 93.047867
562.239075 88.409088
568.248657 1010.992981
569.251831 261.217712
570.24585 8048.15918
571.24469 1053.814941
572.26416 200.228806
573.180359 88.92308
574.244568 220.111603
575.245117 104.0093
577.238342 343.094696
578.234802 2434.420898
579.236816 158.378098
579.687622 126.960503
580.230164 14827.589844
580.626709 82.011902
580.830078 144.003799
581.150452 126.240402
581.233337 3361.249023
581.351196 153.120102
582.22345 135.120697
588.254578 364.96701
589.249146 652.673889
592.204834 92.146843
595.251587 532.880127
596.001099 105.130402
596.248779 1533.349976
596.327454 89.408333
597.250549 391.7854
598.240723 77891.09375
598.829712 111.372902
598.950745 104.371498
599.056824 129.090897
599.243958 13136.299805
599.490906 221.436905
599.823853 138.710495
600.017883 146.636795
600.078918 88.960533
600.193604 89.976349
600.464111 100.932503
600.618286 122.801697
600.756958 106.290199
600.858948 101.400002
601.916382 101.222702
610.253113 90.361702
612.261353 92.232689
616.251282 71955.40625
616.912842 227.177002
617.007446 132.993393
617.040161 149.063995
617.089172 94.049339
617.176636 199.631195
617.254211 11095.339844
617.387451 278.1763
617.603027 87.735237
618.037537 125.823898
618.195984 91.425003
618.252258 121.844299
618.596619 103.25
618.777649 129.474503
618.81427 118.8209
626.118347 93.289948
630.266968 2091.602051
631.268127 914.000183
632.256836 86.146744
638.255737 411.014496
639.258118 95.029411
640.195801 101.925697
640.250366 9569.248047
640.907349 78.480766
641.253601 2298.73291
641.412781 93.002274
643.197266 82.019073
643.234497 87.941261
658.261658 33245.710938
658.407166 428.169708
658.522339 108.001404
658.588379 104.003601
658.69165 153.349594
658.789368 180.889496
658.823059 159.737793
658.883423 196.5625
658.954956 156.485199
659.032532 178.529404
659.133728 97.875
659.264771 6183.848145
659.405579 123.041702
659.473206 152.925903
659.908875 114.9869
660.262512 87.884804
660.560547 88.40625
672.277039 340.657898
676.27002 284.633087
690.2854 200.226303
691.285278 474.274414
692.282532 115.629799
700.271423 8908.69043
700.415527 118.727303
700.914429 175.263702
701.273132 1667.625977
702.276917 109.047897
703.255676 206.007095
718.281982 12921.620117
718.420288 118.511398
718.586243 106.125
718.621216 91.171608
718.969971 110.045403
719.117676 124.403397
719.28479 2433.941895
719.376892 139.335495
721.269226 229.389603
739.277222 94.240387
753.301453 610.312012
754.300171 157.016693
760.292542 22750.119141
760.81665 141.778793
760.935303 178.155807
760.969177 112.541702
761.127258 95.45153
761.296143 4037.762939
761.418335 89.25
762.2948 128.475006
763.278381 317.43399
774.809143 85.901314
781.286377 312.421814
782.303772 91.177643
823.302185 373.026306
824.302368 134.811005
841.310669 125.074997
842.321899 109.679199
882.32843 135.047806
883.251221 220.556793
883.324646 62545.070312
883.852417 173.676193
883.945862 100.197403
884.118286 208.074997
884.327026 14859.570312
884.684448 146.044495
884.854126 154.498596
885.006165 152.483902
885.101929 194.225693
885.288635 136.110001
885.774475 79.260406
886.006531 79.720238
886.13678 98.925926
886.468567 110.9095
922.437439 113.030296
END IONS
