BEGIN IONS
PEPMASS=1134.79
CHARGE=1
MSLEVEL=2
SOURCE_INSTRUMENT=LC-ESI-Orbitrap
FILENAME=f.lfnothias/1901_fungal_symbiont_annotation_confirmation/Pure_compounds/Pure_compounds_mzML/LeucinostatinAandB_1uL.mzML;
SEQ=*..*
IONMODE=Positive
ORGANISM=GNPS-LIBRARY
NAME=Leucinostatin D N9-Oxide observed in leucino A/B standard dereplicator annotation M+H
PI=Dorrestein
DATACOLLECTOR=lfnothias
SMILES=CCC(C)C=CC(=O)N1CC(C)CC1C(=O)NC(CC(C)C)C(=O)NC(C(C(C)C)O)C(=O)NC(C)(C)C(=O)NC(CC(C)C)C(=O)NC(CC(C)C)C(=O)NC(C)(C)C(=O)NC(C)(C)C(=O)NCCC(=O)NC(C)CN(=O)(C)C
INCHI=
INCHIAUX=
PUBMED=
SUBMITUSER=lfnothias
TAGS=
LIBRARYQUALITY=3
SPECTRUMID=CCMSLIB00005435722
SCANS=2407
75.419746 2236.820557
75.883598 1964.272705
84.080872 57748.085938
88.848892 2508.649414
111.080406 42914.640625
112.075302 5289.039062
127.31488 2579.724365
129.102158 2876.652344
131.441818 2517.842773
155.117615 5387.897461
172.144119 5231.967285
172.625305 2536.187012
187.143936 3531.430908
194.153885 197227.9375
215.138687 7068.357422
222.14888 162761.421875
223.15329 4640.516602
262.485596 2437.591064
275.208191 3008.366943
297.382233 2828.162354
335.233521 18336.955078
392.253265 10107.831055
418.308594 3380.576904
422.992004 2746.189941
435.10733 3023.898926
446.301575 42780.195312
464.311768 7831.530273
495.135132 3412.744141
527.785645 2813.016357
530.266296 2641.365967
531.353516 33644.570312
549.363953 10386.322266
662.444336 4896.351562
663.916687 3488.478271
775.531128 3418.119385
1134.779419 8857.270508
END IONS
