BEGIN IONS
PEPMASS=614.347
CHARGE=2
MSLEVEL=2
SOURCE_INSTRUMENT=LC-ESI-qTof
FILENAME=f.philipwi/0_WilliamsFreshwaterCyanosStandardsConvertedTo_mzXML_v2/PW-12_v5_P1-B-3_Puwainaphycin_C_1226amu_01_15618_Scan625-639.mzXML;
SEQ=*..*
IONMODE=Positive
ORGANISM=GNPS-LIBRARY
NAME=Puwainaphycin C M+H
PI=Philip Williams
DATACOLLECTOR=Williams
SMILES=NC(C[C@H]1C(N2[C@H](C(N[C@@H]([C@@H](O)C(N[C@@H](C(C)C)C(N/C(C(N[C@H](C(N[C@H](C(N[C@@H](CCC(N)=O)C(NCC(N[C@H](C(N1C)=O)[C@@H](OC)C)=O)=O)=O)[C@H](C)O)=O)[C@@H](O)C)=O)=C/C)=O)=O)[C@@H](C)CCCCCCCCCC(Cl)CC)=O)CCC2)=O)=O
INCHI=
INCHIAUX=
PUBMED=
SUBMITUSER=philipwi
TAGS=
LIBRARYQUALITY=3
SPECTRUMID=CCMSLIB00000424833
SCANS=626
72.095406 152.0
74.248909 48.0
84.774483 56.0
149.051056 160.0
152.058838 80.0
153.500656 52.0
153.808807 60.0
156.245285 104.0
163.286621 80.0
164.085815 40.0
167.087875 104.0
168.102875 96.0
169.060547 240.0
174.299469 76.0
175.11673 92.0
177.099045 116.0
179.103699 108.0
181.071121 100.0
181.757965 44.0
183.10968 60.0
184.110214 168.0
185.090256 124.0
186.210648 32.0
187.029175 64.0
190.101501 100.0
192.004593 44.0
193.119125 32.0
195.095535 124.0
196.098022 176.0
198.093628 152.0
201.128586 128.0
202.124222 116.0
203.104141 52.0
204.459961 44.0
205.107605 24.0
206.088181 184.0
206.37851 24.0
207.104095 120.0
208.07608 88.0
209.062469 216.0
209.799072 36.0
210.085388 88.0
211.07515 96.0
212.114853 96.0
213.098175 68.0
215.094818 84.0
215.731003 40.0
216.105667 108.0
217.071915 96.0
217.203415 52.0
217.6828 76.0
219.216232 272.0
220.163269 80.0
221.869034 36.0
222.118973 264.0
222.22049 40.0
223.115585 196.0
223.228867 36.0
223.58139 32.0
223.889313 48.0
223.962799 36.0
224.107224 532.0
224.242035 4220.0
224.35939 36.0
224.564194 32.0
224.659729 28.0
225.103394 96.0
225.241745 756.0
225.319458 32.0
225.664047 44.0
225.788544 28.0
226.085571 156.0
226.248535 100.0
226.325256 24.0
227.996933 24.0
229.141693 132.0
230.10968 72.0
230.196716 24.0
230.845154 48.0
231.099792 56.0
232.105911 116.0
233.087784 68.0
233.964478 44.0
234.096741 64.0
234.608429 28.0
235.087097 52.0
235.380386 72.0
236.238739 284.0
236.790771 40.0
237.134201 116.0
237.234192 172.0
237.418945 56.0
238.124542 88.0
238.251312 160.0
239.170471 40.0
239.269058 56.0
240.144745 196.0
240.493271 28.0
240.90863 44.0
241.121613 340.0
241.829636 32.0
242.117188 164.0
242.246155 24.0
243.122253 124.0
243.527679 28.0
244.136719 64.0
245.140121 116.0
245.511246 44.0
246.160889 144.0
246.230911 36.0
247.67337 188.0
248.054733 76.0
248.141068 80.0
248.245514 44.0
248.52681 56.0
250.120758 232.0
250.258728 108.0
250.399445 32.0
250.900665 48.0
251.109146 296.0
251.380508 48.0
251.500122 32.0
251.59111 40.0
251.995697 64.0
252.107162 320.0
252.284729 36.0
252.562683 44.0
253.112946 240.0
253.921967 120.0
254.054031 48.0
254.125168 92.0
254.250488 1624.0
254.470779 24.0
254.999817 144.0
255.121979 116.0
255.25737 448.0
256.028931 36.0
257.070343 60.0
258.113892 76.0
258.236786 84.0
260.114746 64.0
260.219727 104.0
260.526154 28.0
261.071747 44.0
261.220673 96.0
261.690063 72.0
262.122345 124.0
262.209198 156.0
263.148712 248.0
263.735779 36.0
264.103119 164.0
264.234467 280.0
265.097839 112.0
265.228577 68.0
265.498566 28.0
265.799866 40.0
266.142914 96.0
266.253021 280.0
267.145172 104.0
267.360992 56.0
268.13559 488.0
269.123169 408.0
269.261353 32.0
269.491516 120.0
270.035919 28.0
270.129517 296.0
270.360748 40.0
271.122498 148.0
272.108551 92.0
272.219116 104.0
272.629425 48.0
273.103271 36.0
273.219147 76.0
274.085938 100.0
274.216003 100.0
274.601166 132.0
275.087311 64.0
276.198517 160.0
277.174011 64.0
278.151215 76.0
278.276337 76.0
278.406433 32.0
279.151459 56.0
279.449738 88.0
279.534973 52.0
279.652222 28.0
280.089447 84.0
280.238831 72.0
280.911499 32.0
281.173492 132.0
282.13443 152.0
282.24469 176.0
282.644958 40.0
282.945099 24.0
283.123047 128.0
283.932404 40.0
284.171204 96.0
285.136688 72.0
285.933777 28.0
286.147614 108.0
286.238617 160.0
286.764343 32.0
287.133026 336.0
287.433258 116.0
287.557526 56.0
287.898895 28.0
288.142548 96.0
289.100708 52.0
289.425934 36.0
289.642883 28.0
290.144287 80.0
290.283752 96.0
290.696136 32.0
291.120148 56.0
291.228943 68.0
291.854767 40.0
292.10083 964.0
292.245392 112.0
292.764801 28.0
292.841125 48.0
293.098999 100.0
293.171326 108.0
293.266724 104.0
294.143829 156.0
294.308777 128.0
295.139618 224.0
295.248627 132.0
295.651276 32.0
295.738983 24.0
296.128937 64.0
297.136536 164.0
298.265656 124.0
298.562958 32.0
299.147003 124.0
299.279327 68.0
300.118011 72.0
300.216095 68.0
300.405182 104.0
301.149078 408.0
301.231842 140.0
302.208771 76.0
303.162506 176.0
304.163269 116.0
305.16214 60.0
305.302002 152.0
306.155457 124.0
306.278168 84.0
307.145142 200.0
307.305359 68.0
307.54007 48.0
308.121277 128.0
308.30069 60.0
308.479797 44.0
308.703766 156.0
309.164246 156.0
309.555542 28.0
309.735016 44.0
310.109894 128.0
310.244659 124.0
311.611328 28.0
312.061584 36.0
313.151764 496.0
314.146515 180.0
314.609558 64.0
315.160706 120.0
315.947266 32.0
316.173035 104.0
316.207458 96.0
316.236389 196.0
316.434662 72.0
316.888397 44.0
317.130707 104.0
317.302338 184.0
317.728668 164.0
317.830933 48.0
318.119019 304.0
318.283173 236.0
318.444916 28.0
318.672455 56.0
318.831787 28.0
319.117188 168.0
319.285767 180.0
320.107849 108.0
320.281342 152.0
321.136139 80.0
321.288239 352.0
321.512177 28.0
321.78656 24.0
322.209778 32.0
322.495911 48.0
322.726746 156.0
323.079987 52.0
323.217499 40.0
323.332123 40.0
323.458191 116.0
323.58432 40.0
324.176483 128.0
324.548248 48.0
324.640106 56.0
324.907196 32.0
325.154236 284.0
325.2836 36.0
326.192474 40.0
326.584045 24.0
327.132263 116.0
327.224762 108.0
327.967865 40.0
328.191803 112.0
329.146423 76.0
329.238953 64.0
330.118561 84.0
330.222809 140.0
330.616791 100.0
331.156738 300.0
332.160126 88.0
332.950592 52.0
333.157684 92.0
333.299622 308.0
333.404388 96.0
333.648834 144.0
333.940002 24.0
334.166809 128.0
334.289551 72.0
334.685944 36.0
335.134918 396.0
335.302155 372.0
336.147369 132.0
336.29126 596.0
336.519318 24.0
337.051056 44.0
337.209595 28.0
337.298553 468.0
337.537445 32.0
337.736542 244.0
338.195557 72.0
338.287384 80.0
338.76825 180.0
339.171936 80.0
339.214233 64.0
340.15213 48.0
340.259918 72.0
341.012878 56.0
341.130585 104.0
341.213013 112.0
342.156494 116.0
342.275421 172.0
342.686462 36.0
342.898895 28.0
343.20282 108.0
343.359406 36.0
343.50116 76.0
344.151245 72.0
344.289246 72.0
344.43512 124.0
344.77829 52.0
344.944031 24.0
345.223419 108.0
345.382202 104.0
346.309967 76.0
347.268372 104.0
348.18988 48.0
348.29071 68.0
349.100159 48.0
349.190735 128.0
349.288361 104.0
349.534546 100.0
349.636322 40.0
349.753693 68.0
349.922424 40.0
350.029755 32.0
350.242218 280.0
350.786499 28.0
350.965607 48.0
351.17453 160.0
351.302979 14180.0
351.551514 96.0
351.755188 20.0
351.893127 68.0
351.987061 68.0
352.162598 408.0
352.304565 3764.0
352.497375 44.0
352.857971 36.0
353.017609 32.0
353.147034 824.0
353.319397 2408.0
353.507111 28.0
353.663452 40.0
353.885498 48.0
354.032013 44.0
354.149353 328.0
354.234314 212.0
354.32135 540.0
354.466797 32.0
354.816437 60.0
355.1492 96.0
355.24881 108.0
355.324493 152.0
355.724213 36.0
356.018188 36.0
356.165894 128.0
356.220001 36.0
356.272827 120.0
356.800385 24.0
357.2211 172.0
357.378601 28.0
357.595551 144.0
357.764313 24.0
358.053741 32.0
358.21994 72.0
358.252808 56.0
358.2883 100.0
358.922729 52.0
359.164307 64.0
359.257904 256.0
359.758545 96.0
359.974152 40.0
360.260101 140.0
360.409698 104.0
360.757874 156.0
360.942352 60.0
361.196716 104.0
361.286987 88.0
361.742096 36.0
362.161621 108.0
362.372803 92.0
362.676239 112.0
362.858368 40.0
363.016235 32.0
363.128143 56.0
363.302307 2896.0
364.024994 24.0
364.155365 208.0
364.281616 268.0
364.523804 24.0
364.743439 352.0
364.848053 44.0
364.959839 44.0
364.982391 36.0
365.048645 72.0
365.148773 292.0
365.283661 304.0
366.025116 120.0
366.187408 88.0
366.309967 72.0
366.412659 64.0
366.644531 48.0
367.17569 208.0
367.3284 28.0
367.560547 32.0
367.915039 68.0
368.06485 32.0
368.208557 112.0
368.795898 32.0
369.040771 44.0
369.160797 104.0
369.262909 240.0
369.494019 28.0
370.17395 432.0
371.201752 116.0
371.276031 116.0
371.411041 96.0
371.589203 32.0
372.270721 344.0
372.75473 116.0
373.15274 172.0
373.26474 336.0
373.75058 176.0
373.930634 36.0
374.141846 104.0
374.254822 248.0
374.645935 32.0
374.7323 96.0
375.10257 64.0
375.271332 88.0
375.678314 52.0
376.304321 76.0
377.055756 32.0
377.142395 76.0
377.266205 112.0
377.451935 48.0
377.736847 36.0
378.168396 200.0
378.951935 40.0
379.157898 340.0
379.299377 812.0
379.5354 28.0
379.689972 36.0
379.932892 32.0
380.170471 360.0
380.298248 200.0
380.566833 56.0
380.678772 32.0
381.147308 104.0
381.307983 156.0
381.48761 40.0
381.612122 36.0
382.178772 228.0
383.305267 68.0
383.730438 32.0
383.881836 28.0
384.194153 56.0
384.594086 44.0
385.171936 116.0
385.260132 92.0
385.38205 40.0
385.477264 88.0
385.745026 56.0
385.845184 24.0
386.044281 40.0
386.302643 176.0
386.412872 100.0
386.697113 76.0
386.985474 28.0
387.166351 124.0
387.280273 3192.0
387.449585 24.0
387.750793 32.0
387.888885 24.0
388.176697 80.0
388.283997 908.0
388.416351 36.0
388.541992 72.0
388.755615 24.0
388.963013 32.0
389.2854 2052.0
389.623322 32.0
389.786926 32.0
390.160187 120.0
390.287537 412.0
390.738251 44.0
390.92749 64.0
391.189514 224.0
391.29007 832.0
391.407349 40.0
391.796478 40.0
392.162231 356.0
392.249817 320.0
392.383759 32.0
392.789062 44.0
392.962311 40.0
393.151581 156.0
393.263824 128.0
393.394592 28.0
394.191498 68.0
394.322632 148.0
394.900574 44.0
395.200836 84.0
395.28067 140.0
395.749756 132.0
395.965363 28.0
396.185822 404.0
396.309601 240.0
396.549042 28.0
396.891846 52.0
397.17627 592.0
397.565216 32.0
397.733643 32.0
397.921173 44.0
398.086487 48.0
398.192719 116.0
398.319092 84.0
399.175812 68.0
399.277649 1116.0
399.53772 80.0
399.818085 44.0
400.009308 40.0
400.149536 60.0
400.274689 316.0
401.029877 40.0
401.275391 560.0
401.46402 72.0
401.84729 32.0
402.212433 356.0
402.266083 160.0
402.296478 112.0
402.767853 172.0
402.870209 52.0
403.126129 108.0
403.258392 96.0
404.253204 128.0
404.496765 36.0
405.125214 284.0
405.256714 32.0
406.158264 60.0
406.279907 124.0
406.537781 36.0
406.769165 128.0
407.193512 164.0
407.315735 192.0
408.081573 40.0
408.19104 188.0
408.323486 56.0
408.533997 32.0
408.957672 64.0
409.176849 204.0
409.324646 172.0
409.679901 32.0
409.834717 28.0
410.169861 256.0
410.398132 56.0
410.82901 48.0
411.178925 104.0
411.304108 84.0
411.462341 52.0
412.184692 96.0
413.292694 80.0
414.199219 208.0
414.584473 32.0
414.794525 108.0
414.986908 32.0
415.09082 28.0
415.27002 1416.0
415.519501 100.0
415.688446 32.0
415.844421 48.0
416.06543 32.0
416.277649 404.0
417.106262 40.0
417.307373 428.0
417.900787 36.0
418.184113 444.0
418.312256 236.0
418.800415 28.0
419.167542 52.0
419.314758 92.0
419.609619 24.0
419.857758 28.0
419.975311 28.0
420.275818 112.0
420.458801 36.0
420.754578 64.0
420.916412 36.0
421.168823 108.0
421.358063 152.0
421.845459 36.0
422.15918 104.0
422.303833 84.0
423.19574 76.0
424.285248 48.0
425.295044 420.0
426.241394 144.0
426.289215 200.0
426.49295 76.0
427.270752 496.0
427.428131 64.0
427.652191 36.0
428.173065 72.0
428.279419 200.0
429.298676 380.0
429.619965 40.0
430.041504 24.0
430.293427 144.0
431.139404 36.0
431.303406 148.0
431.933929 48.0
432.289154 176.0
432.905212 44.0
433.206665 80.0
433.296753 180.0
434.162476 176.0
434.274597 244.0
434.826843 32.0
435.190186 248.0
435.39859 60.0
435.49173 60.0
435.771118 104.0
435.984039 24.0
436.1828 348.0
436.663116 28.0
436.772034 112.0
437.009521 64.0
437.170441 196.0
437.276093 116.0
438.168549 156.0
438.890472 24.0
439.224396 44.0
440.256927 116.0
441.215118 76.0
441.249023 128.0
441.391296 96.0
442.262238 212.0
443.30481 436.0
443.778381 80.0
444.300781 404.0
444.772644 44.0
444.960876 44.0
445.192322 148.0
445.304016 260.0
446.338043 260.0
447.308899 192.0
448.283264 64.0
448.787842 32.0
448.922913 44.0
449.044464 36.0
449.266785 96.0
449.693085 40.0
450.058136 32.0
450.227203 64.0
450.372223 1468.0
450.599213 36.0
451.059418 44.0
451.374023 404.0
451.750122 32.0
452.048248 28.0
452.281708 108.0
452.410553 68.0
452.685455 44.0
452.983887 56.0
453.283905 480.0
453.811859 32.0
454.20816 360.0
454.735748 40.0
455.262482 80.0
455.891907 28.0
456.295807 220.0
457.248352 120.0
457.635742 36.0
458.163177 152.0
459.27652 388.0
459.984222 44.0
460.348846 260.0
460.654388 28.0
461.242889 60.0
461.361664 300.0
462.037262 28.0
462.160583 80.0
462.343872 184.0
462.448395 24.0
462.775146 120.0
462.873444 112.0
463.184906 136.0
463.327576 192.0
463.504547 44.0
463.92627 72.0
464.193726 104.0
464.345428 1788.0
464.459625 136.0
464.864197 32.0
465.001617 48.0
465.130981 40.0
465.351562 724.0
465.647308 60.0
466.257111 172.0
466.817871 112.0
467.275696 160.0
468.099609 128.0
468.265717 184.0
468.761841 40.0
469.024109 36.0
469.261902 384.0
469.686981 36.0
470.060059 24.0
470.326141 112.0
470.487091 72.0
471.214294 476.0
471.346252 76.0
472.23465 256.0
473.177368 44.0
473.330109 80.0
473.812866 152.0
474.215363 64.0
474.332275 116.0
474.801971 328.0
475.300507 100.0
476.169373 180.0
476.302399 44.0
476.786621 532.0
477.304443 120.0
477.789581 168.0
478.380219 332.0
479.211884 60.0
479.364746 260.0
480.127472 144.0
480.304596 148.0
481.212158 116.0
481.313873 92.0
481.782928 60.0
482.211792 112.0
482.329102 100.0
483.197144 96.0
483.30365 208.0
483.799866 28.0
484.066284 24.0
484.228394 100.0
484.431 36.0
485.291046 208.0
485.806946 68.0
485.905304 64.0
486.196564 84.0
486.347565 1140.0
486.720612 56.0
487.198883 36.0
487.346466 292.0
487.691467 32.0
488.345123 1224.0
488.522369 32.0
488.685089 44.0
489.340942 276.0
489.79361 392.0
489.980164 44.0
490.115784 32.0
490.287628 504.0
490.77652 184.0
491.367371 76.0
491.76828 60.0
492.065186 24.0
492.184113 68.0
492.334015 424.0
492.517792 32.0
492.687561 24.0
493.1922 160.0
493.34433 124.0
493.451935 80.0
493.806 52.0
494.32608 136.0
494.958313 40.0
495.095856 36.0
495.205414 72.0
495.396545 184.0
496.108429 52.0
496.335236 424.0
496.941467 28.0
497.278076 88.0
497.318115 80.0
498.315887 380.0
498.806091 84.0
499.295319 136.0
499.702087 32.0
500.32782 796.0
500.500366 36.0
500.700043 28.0
501.331757 356.0
502.198578 324.0
502.319397 168.0
502.856201 36.0
503.235687 116.0
503.334717 164.0
503.800079 92.0
504.215088 92.0
504.372559 56.0
505.313873 52.0
505.475494 44.0
506.300568 92.0
506.794861 32.0
507.177856 128.0
507.283356 104.0
507.386993 80.0
507.570099 40.0
508.275604 200.0
508.805908 56.0
509.093536 36.0
509.25174 56.0
509.366852 32.0
510.297913 204.0
511.195587 64.0
511.302582 228.0
511.801117 32.0
512.344543 192.0
512.839966 88.0
513.200928 144.0
513.345337 112.0
513.793152 104.0
514.125549 32.0
514.342224 296.0
515.34729 184.0
515.86145 24.0
516.260193 168.0
517.005859 24.0
517.361938 64.0
518.247131 108.0
518.371582 160.0
519.223816 204.0
519.346741 272.0
519.454163 84.0
520.207275 108.0
520.379456 96.0
521.334167 80.0
522.222351 32.0
523.226929 108.0
523.461304 52.0
523.636353 36.0
524.316833 264.0
524.555725 32.0
525.339966 184.0
525.578186 36.0
525.89978 36.0
526.206787 52.0
526.336121 248.0
527.099121 44.0
527.314941 84.0
528.000122 32.0
528.318787 360.0
528.920227 148.0
529.356506 100.0
529.531372 36.0
529.920715 28.0
530.343201 136.0
530.573364 32.0
530.848694 32.0
530.979065 64.0
531.193176 120.0
531.367554 248.0
531.998596 44.0
532.223022 136.0
532.382507 72.0
533.219604 48.0
533.402832 320.0
534.221008 92.0
534.404297 64.0
535.244812 44.0
536.093811 24.0
536.241455 180.0
536.418579 68.0
537.235657 272.0
537.733398 36.0
538.244202 60.0
538.709412 28.0
539.354065 56.0
540.338135 72.0
540.545593 44.0
540.80127 144.0
541.242371 64.0
542.290527 100.0
542.400574 72.0
543.375427 164.0
543.692139 48.0
544.378174 88.0
544.896729 52.0
545.371521 140.0
546.411499 44.0
546.788147 156.0
547.281921 120.0
547.381714 88.0
548.41626 56.0
549.300171 84.0
550.266724 96.0
551.262939 88.0
551.367676 152.0
552.354675 64.0
553.351379 80.0
554.358032 156.0
555.208374 120.0
555.359497 144.0
556.234192 128.0
556.354492 64.0
557.341003 48.0
557.828918 100.0
558.363525 76.0
558.657288 28.0
559.257507 92.0
560.0896 32.0
560.433533 120.0
560.742798 28.0
560.872681 36.0
561.040405 24.0
561.403503 4012.0
561.780518 44.0
561.93158 44.0
562.037354 28.0
562.266846 44.0
562.402588 1992.0
562.868835 24.0
563.262146 84.0
563.395325 384.0
563.943115 24.0
564.408264 100.0
564.836609 28.0
565.109375 44.0
565.276062 44.0
565.382141 76.0
566.320007 108.0
567.33551 112.0
567.961792 32.0
568.308228 40.0
568.3703 68.0
568.407349 100.0
568.615234 84.0
569.382812 364.0
569.618896 40.0
570.372803 84.0
571.378174 272.0
571.583191 40.0
571.842285 60.0
572.070984 32.0
572.374939 112.0
572.772522 72.0
573.39679 344.0
574.385193 140.0
574.805908 148.0
575.12439 28.0
575.8125 36.0
576.405518 132.0
576.745972 36.0
577.910034 32.0
578.661133 104.0
579.369812 196.0
579.627563 40.0
580.316467 64.0
580.91748 44.0
581.373535 316.0
582.296387 80.0
582.390869 124.0
583.131958 36.0
583.357788 256.0
583.840271 132.0
584.368225 64.0
584.811035 64.0
585.36615 136.0
585.859802 80.0
586.060364 44.0
586.369019 36.0
587.380798 84.0
588.980652 32.0
590.590637 52.0
591.194946 112.0
591.411987 64.0
592.420044 44.0
592.83905 32.0
593.386536 76.0
593.677429 40.0
593.863831 36.0
594.305908 44.0
594.780701 36.0
595.045044 28.0
595.291138 160.0
595.550537 40.0
595.947266 32.0
596.374268 144.0
596.710693 72.0
597.037048 68.0
597.19104 68.0
597.378479 5180.0
597.744568 68.0
597.971191 44.0
598.168701 52.0
598.382019 2024.0
598.673645 28.0
598.954407 52.0
599.380737 1936.0
600.031372 24.0
600.391785 668.0
600.811707 68.0
601.373413 284.0
602.387573 64.0
603.095764 28.0
603.385376 64.0
604.239075 56.0
604.419006 56.0
604.536804 36.0
604.960083 88.0
606.277832 88.0
606.4505 68.0
606.57605 28.0
607.36615 196.0
607.832703 28.0
608.25708 108.0
608.361755 76.0
609.216492 52.0
609.377319 260.0
610.375 112.0
611.39325 72.0
612.184326 40.0
612.370972 156.0
613.44043 84.0
614.402039 84.0
615.388672 80.0
616.380554 92.0
616.950439 140.0
617.156311 40.0
617.28302 36.0
617.438232 140.0
617.583923 40.0
618.435547 320.0
619.153259 44.0
619.451599 84.0
620.289734 84.0
620.422852 88.0
621.280518 64.0
622.218323 108.0
623.416016 56.0
624.328552 60.0
626.414551 76.0
627.380859 76.0
628.408875 100.0
629.362305 140.0
630.427246 120.0
631.362854 68.0
633.350525 48.0
634.136841 52.0
634.470825 160.0
635.350037 200.0
636.368591 180.0
637.391357 60.0
638.283142 64.0
638.386292 160.0
639.371643 92.0
640.382141 40.0
641.41333 52.0
641.768555 40.0
642.407288 72.0
643.454956 176.0
643.869568 32.0
644.441223 444.0
644.808044 44.0
645.432007 216.0
646.427795 76.0
647.660095 32.0
648.439026 84.0
648.568909 48.0
649.40332 84.0
650.355896 44.0
650.664795 36.0
652.454651 72.0
652.601196 40.0
653.419678 132.0
654.419067 812.0
654.691345 96.0
655.407227 228.0
656.419434 108.0
657.416565 152.0
658.281921 88.0
658.399902 152.0
659.360352 32.0
660.228149 32.0
660.391968 72.0
661.293274 96.0
661.447327 40.0
662.446533 216.0
663.440796 164.0
664.444336 56.0
666.395813 184.0
667.38916 192.0
668.423096 72.0
668.871765 24.0
669.415955 72.0
670.426941 248.0
670.785583 44.0
671.418579 88.0
671.84259 32.0
672.421021 92.0
673.428589 320.0
673.859863 64.0
674.505371 72.0
676.377441 48.0
676.49353 32.0
676.62616 28.0
677.369568 200.0
677.837158 48.0
678.390625 160.0
678.567566 52.0
678.766846 68.0
679.514404 72.0
680.162598 28.0
680.420349 988.0
680.877686 48.0
681.060669 32.0
681.414368 400.0
681.831482 84.0
682.415649 508.0
683.031738 60.0
683.417419 256.0
684.443848 68.0
686.44458 52.0
688.901855 24.0
689.169617 160.0
689.303467 32.0
690.391724 72.0
690.508972 32.0
691.279724 24.0
692.403137 36.0
693.450378 68.0
693.762451 188.0
694.306458 80.0
694.467834 60.0
695.393372 60.0
695.543335 56.0
696.754333 28.0
698.218994 40.0
698.424011 496.0
699.437073 268.0
700.44104 296.0
700.860901 40.0
701.085388 36.0
701.429749 152.0
702.444763 140.0
703.416565 44.0
704.668213 24.0
705.937866 84.0
708.452393 72.0
709.443909 84.0
710.42572 108.0
711.310486 120.0
711.430054 108.0
712.423035 248.0
713.484192 108.0
713.767334 36.0
714.380554 36.0
717.481445 40.0
718.560913 80.0
719.487 92.0
720.413696 192.0
720.886719 32.0
721.440552 68.0
722.582153 44.0
723.376282 64.0
724.279541 36.0
724.444031 68.0
725.432861 452.0
726.431274 116.0
727.453857 220.0
728.230652 144.0
728.476013 156.0
731.433777 56.0
731.88208 24.0
732.416748 64.0
732.69281 56.0
733.245056 36.0
733.538574 24.0
733.69397 40.0
735.196899 24.0
735.484741 68.0
736.387817 64.0
736.43573 56.0
737.449951 216.0
738.435303 124.0
739.44873 100.0
740.217896 124.0
740.480408 132.0
741.484497 32.0
742.422119 104.0
744.125244 80.0
744.612183 28.0
745.486511 104.0
746.468201 68.0
747.206238 120.0
747.502502 124.0
748.443909 64.0
748.635742 28.0
749.448181 92.0
750.43335 36.0
751.429016 88.0
753.492371 144.0
753.894897 104.0
754.453369 68.0
755.461243 208.0
756.470703 96.0
757.433472 64.0
758.329529 72.0
758.47821 132.0
758.715759 32.0
759.435852 44.0
759.719177 32.0
760.384766 52.0
760.578125 24.0
761.035278 28.0
761.439819 76.0
762.548401 32.0
763.006104 40.0
763.485901 460.0
763.74585 36.0
764.098206 28.0
764.475586 272.0
765.050049 28.0
765.444458 100.0
766.46344 52.0
767.439331 128.0
768.447449 76.0
769.446594 56.0
770.472534 40.0
770.968018 40.0
771.339783 48.0
771.499146 192.0
771.853271 32.0
772.481262 140.0
773.288452 64.0
773.47113 88.0
774.491699 100.0
774.760437 44.0
775.204102 48.0
775.452576 72.0
776.497742 56.0
777.424194 60.0
778.046387 28.0
779.416138 72.0
780.526428 136.0
781.143372 36.0
781.4776 360.0
782.016602 40.0
782.266174 28.0
782.482056 224.0
782.81897 32.0
783.467712 304.0
783.621765 96.0
784.299988 24.0
784.477112 132.0
784.94281 44.0
785.746704 36.0
786.443726 44.0
787.105286 64.0
788.447144 48.0
790.498352 76.0
791.152283 44.0
791.528809 64.0
793.484863 32.0
794.457581 76.0
796.018738 44.0
796.477722 60.0
798.472168 180.0
799.043091 32.0
799.483643 588.0
799.763977 28.0
800.196716 44.0
800.486694 480.0
800.900146 24.0
801.110535 36.0
801.468323 292.0
801.820435 36.0
802.464905 108.0
802.913391 32.0
803.5 40.0
803.680725 36.0
804.476013 44.0
805.145142 32.0
806.495972 68.0
806.647156 124.0
807.516418 56.0
808.513 24.0
809.437683 24.0
810.478821 88.0
811.306763 68.0
811.481262 72.0
812.959839 48.0
814.505493 64.0
815.524597 60.0
816.107239 72.0
816.289368 32.0
816.502502 708.0
817.163818 44.0
817.500488 288.0
818.494568 384.0
819.132996 28.0
819.498901 168.0
820.426819 36.0
822.310547 24.0
823.347412 120.0
823.480896 68.0
825.40271 40.0
826.520264 48.0
827.143494 64.0
827.491821 52.0
828.133728 32.0
828.500671 88.0
830.465088 32.0
830.630432 24.0
830.961182 204.0
831.457397 44.0
832.457886 48.0
834.474609 32.0
837.451904 52.0
838.534973 68.0
840.433044 52.0
840.950562 32.0
841.523682 44.0
842.488464 68.0
846.987671 28.0
847.443848 68.0
848.51886 68.0
850.497559 48.0
851.445923 24.0
853.549133 32.0
854.536438 100.0
855.497253 80.0
856.494202 84.0
857.501892 40.0
858.52887 52.0
859.519043 68.0
860.584656 64.0
861.819275 36.0
862.474365 72.0
863.552063 48.0
865.509827 44.0
866.485291 124.0
868.550537 44.0
868.869995 104.0
869.302185 44.0
869.520081 64.0
870.486633 44.0
874.553833 40.0
875.553223 32.0
878.515564 100.0
879.518738 76.0
880.426392 52.0
881.031738 24.0
881.554382 84.0
882.532959 124.0
882.697571 36.0
883.265869 32.0
883.490112 48.0
884.524841 56.0
885.516541 88.0
886.242737 32.0
886.527405 128.0
886.793152 24.0
888.331421 148.0
888.521423 124.0
891.563477 96.0
892.577332 112.0
893.563904 44.0
894.47876 44.0
896.558044 36.0
898.486877 76.0
899.505676 100.0
900.542847 84.0
901.587036 36.0
902.542236 52.0
904.569885 108.0
905.513 60.0
906.540283 52.0
907.547485 48.0
909.544678 88.0
910.507263 72.0
911.529968 56.0
913.548889 44.0
913.72229 60.0
914.531799 60.0
916.510742 60.0
917.599426 28.0
920.577942 64.0
921.544983 144.0
922.06543 44.0
922.542908 84.0
924.544739 60.0
924.951782 140.0
925.533508 24.0
926.25116 48.0
926.561646 80.0
927.544067 364.0
928.289368 32.0
928.555359 148.0
928.91626 44.0
929.182983 40.0
929.493896 60.0
930.49823 60.0
931.494751 76.0
932.541809 68.0
933.482239 108.0
934.553711 92.0
935.002014 88.0
937.518127 32.0
938.670044 24.0
939.5578 96.0
940.545898 44.0
941.554932 140.0
942.599731 40.0
943.069519 132.0
943.551453 52.0
944.557861 48.0
946.498352 40.0
948.580322 76.0
949.492859 84.0
950.562317 32.0
951.938538 68.0
952.519104 68.0
956.552795 128.0
957.523071 60.0
958.361023 32.0
958.545227 108.0
959.821838 60.0
960.532959 48.0
961.38269 36.0
961.916382 64.0
963.478882 32.0
966.568054 140.0
967.536133 92.0
968.154175 44.0
968.518799 64.0
969.56604 128.0
970.567566 80.0
971.526184 112.0
975.64624 48.0
976.522522 44.0
976.980713 64.0
977.598511 88.0
978.63269 32.0
979.113831 52.0
979.572632 80.0
980.550476 80.0
982.587585 64.0
983.167114 28.0
983.786865 28.0
984.551453 304.0
985.146912 24.0
985.326965 48.0
985.549133 484.0
986.558899 316.0
987.58252 128.0
987.990051 28.0
990.536377 44.0
994.552917 56.0
996.605408 80.0
997.563721 68.0
998.537292 52.0
998.98053 32.0
999.579224 96.0
1001.561096 40.0
1002.570068 72.0
1003.559326 136.0
1004.556946 124.0
1005.640381 68.0
1007.561707 108.0
1010.59906 100.0
1013.610596 56.0
1016.606323 52.0
1017.338135 32.0
1018.700806 48.0
1023.630432 48.0
1024.568848 76.0
1025.528076 48.0
1025.977173 68.0
1027.570435 72.0
1030.494629 32.0
1031.632568 160.0
1032.61731 180.0
1033.586792 96.0
1035.608032 44.0
1036.683716 68.0
1039.209717 24.0
1039.618896 64.0
1040.620239 52.0
1041.594849 116.0
1042.562012 72.0
1043.585571 116.0
1044.61438 64.0
1048.766602 28.0
1049.551147 72.0
1050.005615 44.0
1051.543579 112.0
1052.568481 56.0
1053.31311 52.0
1054.347778 28.0
1054.616821 60.0
1056.625854 68.0
1059.196777 36.0
1060.608032 40.0
1061.583984 32.0
1062.581177 88.0
1063.391724 32.0
1063.620361 64.0
1065.533813 48.0
1065.887573 56.0
1067.598877 1280.0
1068.596069 612.0
1069.612183 396.0
1070.325073 28.0
1070.587524 284.0
1071.601318 140.0
1071.952393 32.0
1072.612061 80.0
1073.601807 48.0
1074.228516 40.0
1074.617188 60.0
1075.252441 28.0
1075.607788 60.0
1080.295898 36.0
1084.624878 88.0
1085.561279 52.0
1085.77124 84.0
1088.608765 36.0
1091.543457 100.0
1092.945679 88.0
1094.590088 80.0
1096.594604 44.0
1098.643066 44.0
1100.038086 52.0
1100.649658 80.0
1100.92627 40.0
1101.61853 72.0
1102.592285 92.0
1104.609497 80.0
1108.341431 40.0
1112.589966 60.0
1113.568237 76.0
1118.593994 32.0
1121.815674 108.0
1128.593994 56.0
1133.653564 60.0
1134.168701 28.0
1134.670288 64.0
1150.002441 40.0
1153.572021 44.0
1162.726685 56.0
1169.617554 44.0
1170.107056 48.0
1170.666748 116.0
1171.63208 104.0
1172.659668 80.0
1172.87793 64.0
1173.685791 64.0
1205.03418 28.0
1211.94812 100.0
1415.74939 52.0
1640.411499 152.0
1664.45813 116.0
1701.040161 48.0
END IONS
