BEGIN IONS
PEPMASS=722.446
CHARGE=0
MSLEVEL=2
SOURCE_INSTRUMENT=LC-ESI-qTof
FILENAME=f.MSV000078568/spectrum/GNPS_Dorrestein_Gerwick_Cyanobacteria/GNPS_Dorrestein_Gerwick_Cyanobacteria/Plate23/1876_023A5_RA5_01_14739.mzXML;
SEQ=*..*
IONMODE=Positive
ORGANISM=GNPS-LIBRARY
NAME=Carmabin B M+H
PI=Dorrestein
DATACOLLECTOR=Luzzatto-Knaan
SMILES=C[C@@H](C(=O)N(C)[C@@H](C)C(=O)N(C)[C@@H](Cc1ccc(cc1)OC)C(=O)N)NC(=O)[C@H](Cc2ccccc2)N(C)C(=O)C(C)CC(C)CCCCC(=O)C
INCHI=
INCHIAUX=
PUBMED=
SUBMITUSER=tal_lk
TAGS=
LIBRARYQUALITY=3
SPECTRUMID=CCMSLIB00000424826
SCANS=1451
66.008423 172.0
74.652702 204.0
74.879883 140.0
82.052254 200.0
88.774483 184.0
89.50927 148.0
90.111 200.0
90.779213 160.0
93.09417 156.0
95.091461 248.0
96.096642 240.0
107.084549 144.0
108.996193 152.0
110.010544 148.0
117.410683 180.0
122.199059 220.0
125.127373 152.0
128.520981 192.0
132.056046 140.0
134.047531 204.0
134.096466 3816.0
135.100876 544.0
135.132324 168.0
136.107742 168.0
139.994476 136.0
140.070404 216.0
144.076843 144.0
151.010361 164.0
151.146484 1368.0
152.153854 324.0
154.837769 156.0
158.119324 148.0
158.996536 168.0
164.105225 416.0
165.114548 260.0
165.811859 180.0
167.137009 148.0
168.147247 188.0
169.157028 552.0
169.176056 184.0
179.068939 152.0
179.146194 148.0
181.600159 168.0
190.131104 164.0
192.097015 152.0
197.152466 420.0
201.787659 192.0
201.869659 152.0
203.132919 168.0
205.132095 148.0
209.12764 1352.0
210.134979 144.0
215.162643 308.0
216.163589 140.0
220.094757 232.0
221.110855 176.0
223.148849 184.0
224.494812 176.0
227.036896 220.0
228.105835 144.0
228.701431 188.0
230.091187 188.0
233.123337 152.0
238.36441 176.0
246.027649 168.0
246.113129 272.0
250.143936 152.0
254.069061 144.0
267.083893 156.0
268.199066 204.0
269.444153 192.0
276.031433 164.0
277.159088 144.0
281.197632 164.0
288.913208 160.0
294.180328 2304.0
295.187744 420.0
296.332214 176.0
297.474274 176.0
311.406677 148.0
313.077332 172.0
313.880829 152.0
316.131134 148.0
319.128632 200.0
319.178406 164.0
319.626617 140.0
320.192657 172.0
326.592499 220.0
329.220001 156.0
330.240448 1296.0
331.248169 256.0
336.245331 172.0
354.089996 156.0
356.224945 172.0
357.224487 168.0
357.329651 220.0
357.726562 156.0
357.830231 148.0
357.943207 168.0
357.995941 176.0
358.237366 8844.0
358.503448 112.0
358.65036 220.0
359.241394 1456.0
360.128632 104.0
360.243713 508.0
361.236725 320.0
361.544739 140.0
370.884186 140.0
373.495331 164.0
380.688293 148.0
383.251862 144.0
383.707886 204.0
389.075836 212.0
400.672241 188.0
416.564209 156.0
429.271576 588.0
430.274658 352.0
431.282898 180.0
456.161469 172.0
456.939728 176.0
457.195068 160.0
494.280609 176.0
507.429993 188.0
509.036407 164.0
510.2901 148.0
512.308044 112.0
513.920532 248.0
513.970154 164.0
514.327393 8176.0
515.164917 104.0
515.331848 2956.0
516.331299 416.0
516.39563 164.0
517.335083 300.0
521.319946 156.0
526.819702 172.0
537.605713 204.0
560.867188 148.0
585.439697 196.0
598.364075 176.0
619.062195 176.0
619.285034 148.0
619.349426 180.0
634.389221 212.0
655.211975 140.0
660.286072 148.0
674.767212 180.0
703.415405 328.0
705.420227 5204.0
705.804749 144.0
706.256897 140.0
706.429993 2096.0
707.427734 892.0
708.435791 232.0
709.431396 156.0
712.337158 216.0
716.774536 144.0
719.115784 160.0
719.447876 224.0
721.348633 144.0
723.226196 144.0
723.281799 104.0
723.34906 160.0
723.44696 176.0
725.222351 176.0
725.406433 148.0
725.969421 196.0
726.468262 140.0
744.426636 248.0
745.43689 252.0
935.598999 152.0
985.994263 148.0
1103.659668 152.0
1169.521484 188.0
1248.913208 144.0
1362.524658 164.0
1532.458496 276.0
1555.428467 172.0
1744.166992 224.0
1744.82373 168.0
1771.932739 260.0
1793.986084 152.0
1852.379639 184.0
END IONS
