BEGIN IONS
PEPMASS=486.197
CHARGE=1
MSLEVEL=2
SOURCE_INSTRUMENT=LC-ESI-qTof
FILENAME=f.negarg/160Gatech/Sponge_positive_5uL_P1-D-1_01_422.mzXML;
SEQ=*..*
IONMODE=Positive
ORGANISM=GNPS-LIBRARY
NAME=Smenathiazole B M+H
PI=neha Garg
DATACOLLECTOR=Neha Garg
SMILES=Cl/C=C(C/C=C(C)/C(NC(C(C)C)C([NH+]1C(C2=NC=CS2)CCC1)=O)=O)/CC3=CC=CC=C3
INCHI=
INCHIAUX=
PUBMED=
SUBMITUSER=negarg
TAGS=
LIBRARYQUALITY=3
SPECTRUMID=CCMSLIB00004752861
SCANS=3825
70.065819 57401.0
71.068794 2215.0
72.080948 878.0
86.006531 58127.0
87.009468 1814.0
88.00235 2145.0
91.054817 63567.0
92.058266 5092.0
107.049461 835.0
125.015388 1384.0
127.031212 1925.0
128.062057 669.0
129.07077 1390.0
141.07016 4970.0
153.070877 539.0
154.078278 2770.0
155.064117 367903.0
155.158844 2906.0
155.22316 1049.0
156.067062 31529.0
157.060181 11768.0
163.031723 4519.0
165.028595 1015.0
169.101517 23286.0
170.105408 2833.0
177.046814 2493.0
179.043518 781.0
179.08638 3147.0
182.073349 862.0
191.180695 1310.0
197.096558 12341.0
198.099487 2011.0
205.078354 3133.0
207.075012 686.0
233.073318 40220.0
234.076904 7009.0
235.070663 10510.0
236.07373 768.0
304.146973 12553.0
305.150909 2250.0
306.144409 3202.0
320.139587 575.0
332.141724 25212.0
333.14563 6085.0
334.139526 6231.0
335.141479 778.0
484.316528 647.0
485.318176 1033.0
486.19809 1514.0
486.239136 596.0
487.201355 715.0
487.23996 590.0
487.331848 870.0
488.19281 735.0
489.249725 31429.0
490.252869 4225.0
END IONS
