BEGIN IONS
PEPMASS=1036.69
CHARGE=1
MSLEVEL=2
SOURCE_INSTRUMENT=LC-ESI-Hybrid FT
FILENAME=f.novakj/Surfactin_C.mzXML;
SEQ=*..*
IONMODE=Positive
ORGANISM=GNPS-LIBRARY
NAME=Surfactin C M+H
PI=Havlicek
DATACOLLECTOR=
SMILES=CC(C)CCCCCCCCC[C@@H]1CC(=O)N[C@@H](CCC(O)=O)C(=O)N[C@@H](CC(C)C)C(=O)N[C@H](CC(C)C)C(=O)N[C@@H](C(C)C)C(=O)N[C@@H](CC(O)=O)C(=O)N[C@H](CC(C)C)C(=O)N[C@@H](CC(C)C)C(=O)O1
INCHI=
INCHIAUX=
PUBMED=26195308
SUBMITUSER=novakj
TAGS=
LIBRARYQUALITY=3
SPECTRUMID=CCMSLIB00000531487
SCANS=1
326.243805 32326022.0
328.186676 28746654.0
342.202301 26501108.0
352.248199 41485504.0
360.21286 37184252.0
370.258759 27836374.0
395.265228 52815012.0
423.260162 91457296.0
441.27063 529119616.0
442.274017 103962176.0
447.321686 23254742.0
455.286346 43276076.0
459.281219 58375608.0
465.332184 89924976.0
466.33551 22238218.0
483.342773 136987552.0
484.34613 31934508.0
501.353302 79549712.0
502.356659 20201618.0
508.349243 112826528.0
509.352539 27413032.0
526.359802 43473924.0
536.344177 150654848.0
537.347473 40646668.0
554.354736 257022528.0
555.357971 70343392.0
560.405701 96880160.0
561.409058 28920012.0
568.370422 22392188.0
570.422363 23622376.0
572.365234 85343808.0
573.368591 21519350.0
578.41626 144667280.0
579.419617 45224268.0
596.426819 307095584.0
597.430176 95399136.0
649.428223 34128120.0
659.47406 58802716.0
660.477478 21699334.0
667.438782 281372032.0
668.442261 88577632.0
671.433655 20677934.0
677.48468 111906520.0
678.488037 40109000.0
685.44928 1942419072.0
686.45282 640595776.0
687.456177 95764544.0
695.495117 175871968.0
696.498596 64670940.0
711.453796 26808618.0
774.501038 31374054.0
792.511658 61477684.0
793.515076 24481306.0
808.579224 56120644.0
809.582703 23151136.0
810.522217 25606894.0
877.600891 45501924.0
878.604004 20656010.0
887.585327 21331540.0
905.595764 73894760.0
906.599304 33463812.0
923.606323 70007304.0
924.609802 34019996.0
1018.67981 79516624.0
1019.683411 42901636.0
1036.69043 218763472.0
1037.693726 132540816.0
1038.696899 36227156.0
END IONS
