BEGIN IONS
PEPMASS=902.33
CHARGE=1
MSLEVEL=2
SOURCE_INSTRUMENT=LC-ESI-Hybrid FT
FILENAME=f.novakj/siderophores/Cr_TAFC.mzXML;
SEQ=*..*
IONMODE=Positive
ORGANISM=GNPS-LIBRARY
NAME=Chromium triacetylfusarinin C [M+Cr-2H] M+H
PI=Havlicek
DATACOLLECTOR=
SMILES=CC(=O)NC1CCCN2O[Cr]3ON(CCCC(NC(C)=O)C(=O)OCCC(C)=CC(=O)N(CCCC(NC(C)=O)C(=O)OCCC(C)=CC2=O)O3)C(=O)C=C(C)CCOC1=O
INCHI=
INCHIAUX=
PUBMED=27956353
SUBMITUSER=novakj
TAGS=
LIBRARYQUALITY=3
SPECTRUMID=CCMSLIB00001059088
SCANS=1
164.106964 3098140.0
223.143982 5125768.0
239.138916 2703527.0
251.138916 7861591.0
260.060974 2776280.0
267.133759 2641407.0
269.149475 14428160.0
288.056 2118839.0
288.343231 9002492.0
290.071625 4006528.0
306.066528 2851099.0
334.061371 3271734.0
334.072693 3009177.0
381.20166 4274430.0
418.118866 3152952.0
428.103394 2219635.0
429.110657 2888829.0
430.118683 14356548.0
431.126495 8889193.0
445.129425 2731971.0
446.113586 5631238.0
460.140564 3182284.0
462.155975 2176639.0
463.116333 3307778.0
488.134949 4258217.0
490.150909 3057005.0
506.146118 4015348.0
512.172058 2161612.0
514.187683 3685092.0
530.182007 2300294.0
548.193115 2612609.0
554.182373 3532276.0
556.197937 11283569.0
572.19281 11874154.0
577.171509 2420120.0
582.176941 2546769.0
584.192688 4847392.0
590.19458 2577433.0
590.203308 35260184.0
600.187683 17384690.0
602.203247 5804124.0
618.198181 87264560.0
619.20166 3393849.0
636.208679 12672240.0
730.25 4839166.0
874.340332 2734652.0
884.322693 2685457.0
902.274963 4363647.0
902.335022 5119108.0
END IONS
