BEGIN IONS
PEPMASS=181.033
CHARGE=1
MSLEVEL=2
SOURCE_INSTRUMENT=DI-ESI-qTof
FILENAME=f.10mauriz/14_br_pos_Na_10eV.mgf;
SEQ=*..*
IONMODE=Positive
ORGANISM=GNPS-LIBRARY
NAME=Allantoin M+Na
PI=Norberto Lopes
DATACOLLECTOR=Lucas Marques
SMILES=O=C(N)NC(C(N1)=O)NC1=O
INCHI=InChI=1S/C4H6N4O3/c5-3(10)6-1-2(9)8-4(11)7-1/h1H,(H3,5,6,10)(H2,7,8,9,11)
INCHIAUX=
PUBMED=
SUBMITUSER=10mauriz
TAGS=
LIBRARYQUALITY=3
SPECTRUMID=CCMSLIB00000424784
SCANS=1
145.054276 194.0
181.033493 5971.0
182.035278 172.0
185.160126 148.0
185.257828 110.0
185.52887 199.0
765.727173 402.0
END IONS
