BEGIN IONS
PEPMASS=511.123
CHARGE=1
MSLEVEL=2
SOURCE_INSTRUMENT=LC-ESI-qTof
FILENAME=f.philipwi/0_WilliamsFreshwaterCyanosStandardsConvertedTo_mzXML_v2/PW-35_P1-D-8_Dendroamide_A_488amu_01_15550_Scan797-824.mzXML;
SEQ=*..*
IONMODE=Positive
ORGANISM=GNPS-LIBRARY
NAME=Dendroamide A M+Na
PI=Philip Williams
DATACOLLECTOR=Williams
SMILES=CC1C2=NC(=C(O2)C)C(=O)NC(C3=NC(=CS3)C(=O)NC(C4=NC(=CS4)C(=O)N1)C)C(C)C
INCHI=
INCHIAUX=
PUBMED=
SUBMITUSER=philipwi
TAGS=
LIBRARYQUALITY=3
SPECTRUMID=CCMSLIB00000424848
SCANS=812
135.050156 56.0
143.084808 32.0
153.050217 100.0
153.136963 44.0
160.068329 68.0
167.037766 120.0
173.861435 52.0
181.525284 192.0
184.206009 36.0
184.318497 96.0
185.723099 36.0
186.149002 88.0
187.054581 120.0
187.490723 32.0
188.522064 148.0
189.030029 32.0
191.037598 140.0
191.509521 124.0
194.805054 44.0
198.532669 136.0
199.548874 164.0
200.044434 108.0
202.386292 36.0
208.038467 112.0
208.130417 100.0
208.544449 188.0
210.038345 116.0
210.990952 76.0
216.001724 64.0
217.042862 148.0
218.058258 84.0
218.821365 48.0
220.020538 132.0
227.034531 128.0
227.120972 64.0
227.438095 32.0
227.534241 124.0
228.0345 120.0
228.998108 44.0
232.522736 88.0
233.544464 132.0
234.022034 144.0
238.028122 100.0
238.165039 60.0
238.539001 128.0
242.026947 120.0
243.029572 128.0
246.76033 52.0
249.028503 96.0
252.551529 120.0
254.032684 104.0
255.046539 460.0
255.355179 44.0
256.068695 124.0
256.997772 140.0
262.215179 32.0
262.979584 40.0
263.765778 64.0
264.050446 2368.0
264.196014 96.0
264.459869 44.0
264.556976 916.0
264.918396 56.0
265.04718 632.0
265.134094 104.0
265.559814 136.0
265.65332 36.0
266.079437 100.0
266.542267 124.0
267.057739 132.0
267.203613 112.0
268.027405 24.0
268.758423 36.0
270.12912 32.0
271.633179 44.0
271.755463 44.0
272.055969 108.0
272.249573 28.0
272.750916 68.0
272.912567 124.0
273.056091 3284.0
273.23407 52.0
273.468567 52.0
273.557953 812.0
273.840057 40.0
274.057678 592.0
274.252472 48.0
274.44165 36.0
274.652893 36.0
275.049713 68.0
275.244781 52.0
276.14444 32.0
276.345734 36.0
277.533844 64.0
278.958649 88.0
280.162994 32.0
282.182434 100.0
282.397369 48.0
283.040466 88.0
284.189117 28.0
285.63089 36.0
286.029633 68.0
294.041107 64.0
299.200928 124.0
302.030273 48.0
306.001099 104.0
311.025238 48.0
311.212158 120.0
312.195465 100.0
312.364441 48.0
314.000153 64.0
316.036652 80.0
317.102753 80.0
319.080933 68.0
320.042511 84.0
320.494446 48.0
321.202362 112.0
326.006989 52.0
327.020599 36.0
328.613312 80.0
329.017883 92.0
332.019379 100.0
333.019043 48.0
336.401031 36.0
338.075012 92.0
339.074554 156.0
345.98526 60.0
351.042786 88.0
353.159912 48.0
355.055176 64.0
359.307831 88.0
361.025665 84.0
363.051208 52.0
372.008667 48.0
373.116028 92.0
373.842834 56.0
375.014648 84.0
377.01709 104.0
379.074524 100.0
380.018341 52.0
380.490692 56.0
387.0466 76.0
392.19281 64.0
393.102234 120.0
394.038055 64.0
395.152344 44.0
396.052551 32.0
401.059021 80.0
401.705109 28.0
402.045349 92.0
403.111694 64.0
405.072235 104.0
412.068634 132.0
417.091553 156.0
440.0513 28.0
443.333557 120.0
455.019409 48.0
456.026184 36.0
459.025879 76.0
461.049377 80.0
462.336884 120.0
463.328125 128.0
466.375366 88.0
468.056335 64.0
468.277008 96.0
483.209198 88.0
484.022247 92.0
485.04657 40.0
486.057892 80.0
489.127655 92.0
491.141479 196.0
492.126678 148.0
496.342834 32.0
497.081573 60.0
498.162292 48.0
503.697876 56.0
504.184418 64.0
505.530792 96.0
507.898407 56.0
508.108917 424.0
508.344238 148.0
508.488922 116.0
508.613647 224.0
508.846985 36.0
509.121124 108.0
510.117218 92.0
510.451263 60.0
510.667603 24.0
510.798828 92.0
510.962952 32.0
511.123199 15976.0
511.310303 40.0
511.478058 76.0
511.61911 48.0
511.733673 68.0
511.82608 32.0
512.123108 4120.0
512.355408 200.0
512.518433 36.0
512.698792 88.0
513.120483 1672.0
513.314819 96.0
513.516602 56.0
513.704407 36.0
514.12262 364.0
514.330383 76.0
514.817444 48.0
515.093323 116.0
515.7146 48.0
516.023071 144.0
516.250366 56.0
516.974792 28.0
517.086121 76.0
517.322693 32.0
517.931824 40.0
518.410645 108.0
518.846191 44.0
518.976868 52.0
521.099182 24.0
523.575867 48.0
523.882263 44.0
527.090576 388.0
531.143982 36.0
533.07135 108.0
537.420837 32.0
542.679688 64.0
545.138062 44.0
547.591125 32.0
552.719543 96.0
559.092102 68.0
575.58075 72.0
589.086548 108.0
600.372498 36.0
601.46637 40.0
607.023499 136.0
646.036255 96.0
690.841248 32.0
738.083191 168.0
821.082947 68.0
839.819885 120.0
864.925049 36.0
867.138611 112.0
889.202026 40.0
890.913574 64.0
1016.927429 92.0
END IONS
