BEGIN IONS
PEPMASS=1307.84
CHARGE=1
MSLEVEL=2
SOURCE_INSTRUMENT=LC-ESI-qTof
FILENAME=f.amcaraballor/DorresteinLab_AMCR_2018/2018_02_12_NSF_FGA_Plates1_2_mzXML/PD-FGA-21_BD2_02_8378.mzXML;
SEQ=*..*
IONMODE=Positive
ORGANISM=GNPS-LIBRARY
NAME=Putative orfamide F M+H
PI=Dorrestein
DATACOLLECTOR=amcaraballor
SMILES=O=C(NC(C(NC(C(NC1C(C)OC(C(C(C)C)NC(C(CO)NC(C(CC(C)C)NC(C(CC(C)C)NC(C(CO)NC(C(CC(C)C)NC(C(C(C)C)NC1=O)=O)=O)=O)=O)=O)=O)=O)=O)CCC(O)=O)=O)CC(C)C)CC(O)CCCCCCCCCCCcc
INCHI=InChI=1S/C65H114N10O17/c1-15-16-17-18-19-20-21-22-23-24-25-26-43(78)33-51(79)66-45(29-36(2)3)57(83)67-44(27-28-52(80)81)56(82)75-55-42(14)92-65(91)54(41(12)13)74-62(88)50(35-77)72-59(85)47(31-38(6)7)68-58(84)46(30-37(4)5)69-61(87)49(34-76)71-60(86)48(32-39(8)9)70-63(89)53(40(10)11)73-64(55)90/h15,36-50,53-55,76-78H,1,16-35H2,2-14H3,(H,66,79)(H,67,83)(H,68,84)(H,69,87)(H,70,89)(H,71,86)(H,72,85)(H,73,90)(H,74,88)(H,75,82)(H,80,81)
INCHIAUX=
PUBMED=N/A
SUBMITUSER=amcaraballor
TAGS=
LIBRARYQUALITY=3
SPECTRUMID=CCMSLIB00004679303
SCANS=2942
102.441551 58.0
124.726524 51.0
145.196259 64.0
177.230835 51.0
188.124329 45.0
191.365204 30.0
195.0802 84.0
201.128708 46.0
205.11972 155.0
213.090073 42.0
234.695923 38.0
242.150986 50.0
252.139893 93.0
260.163177 87.0
265.116699 77.0
269.156067 74.0
280.190796 63.0
296.204498 175.0
300.187073 46.0
312.148682 100.0
312.288239 52.0
314.222504 65.0
315.2146 38.0
318.219208 212.0
318.373596 37.0
319.21463 99.0
319.308502 81.0
322.145264 102.0
324.28595 69.0
338.300934 95.0
339.299957 69.0
342.978821 52.0
356.02005 55.0
356.243073 78.0
359.225403 61.0
364.734711 51.0
365.74939 84.0
366.228149 103.0
366.3078 407.0
367.304382 100.0
368.302612 65.0
380.214142 82.0
383.245148 99.0
384.259338 75.0
384.587128 47.0
385.101501 35.0
395.303223 58.0
396.26825 63.0
398.247253 62.0
398.283051 79.0
399.252136 59.0
399.304169 147.0
401.055115 42.0
401.197144 86.0
401.24353 65.0
405.210999 26.0
407.251404 72.0
408.206055 69.0
409.277527 51.0
411.194611 57.0
413.231781 81.0
413.288055 205.0
414.279999 62.0
417.154907 47.0
417.19989 53.0
417.283295 124.0
418.272034 144.0
425.251373 318.0
427.281403 143.0
427.329376 92.0
428.309937 74.0
429.226288 72.0
431.2966 87.0
437.899994 55.0
443.268433 70.0
449.246735 58.0
455.30777 62.0
457.283325 113.0
464.302368 171.0
465.291626 66.0
471.299286 76.0
472.344299 62.0
478.297394 41.0
482.261993 68.0
482.31073 92.0
482.362183 34.0
483.288361 92.0
486.349792 59.0
489.275879 57.0
495.285614 69.0
495.351288 182.0
495.67627 27.0
496.346832 71.0
498.276917 62.0
498.335632 55.0
500.312134 220.0
501.266449 29.0
501.314087 109.0
503.307495 65.0
512.284363 92.0
512.393494 57.0
514.331299 207.0
515.342407 101.0
516.306885 47.0
518.334106 209.0
518.378479 37.0
519.336243 100.0
520.330444 28.0
524.310425 57.0
525.020447 58.0
525.321472 83.0
527.378235 66.0
530.295227 71.0
533.35199 60.0
535.455444 59.0
540.364563 91.0
542.283508 42.0
549.494019 30.0
550.393738 101.0
556.308289 82.0
556.364685 72.0
560.371704 98.0
562.065247 34.0
562.385559 61.0
562.480103 29.0
563.517944 32.0
564.380432 68.0
565.384094 54.0
567.302734 83.0
567.395142 57.0
569.366211 50.0
570.355835 127.0
571.299255 49.0
577.367859 82.0
577.499329 48.0
578.382874 638.0
578.479126 41.0
579.368896 126.0
579.396973 221.0
579.650696 58.0
580.405457 79.0
582.284058 58.0
582.955383 45.0
583.347778 44.0
585.429077 105.0
587.264709 86.0
587.33844 104.0
590.336548 42.0
595.327332 62.0
595.413879 89.0
596.349854 52.0
596.397644 116.0
597.407715 36.0
606.789551 40.0
607.340454 49.0
607.54895 28.0
608.378296 57.0
608.422058 37.0
611.379272 67.0
612.056213 46.0
613.419189 139.0
614.403625 47.0
617.323608 125.0
622.040222 86.0
623.425781 51.0
625.353149 106.0
627.41687 75.0
627.459045 89.0
627.722046 51.0
629.324524 61.0
629.36377 104.0
629.922913 46.0
631.278931 54.0
631.331848 138.0
631.409363 1229.0
631.492004 48.0
632.26123 48.0
632.42334 343.0
633.412109 137.0
635.318726 33.0
636.419434 59.0
637.327515 34.0
638.400208 75.0
640.932129 58.0
641.4198 58.0
643.34967 70.0
645.445923 135.0
648.411804 45.0
648.82135 65.0
649.357666 80.0
649.461853 75.0
649.898865 86.0
650.435608 97.0
651.445007 45.0
653.363342 100.0
653.401917 80.0
655.201904 61.0
659.255676 104.0
659.306458 185.0
659.445068 44.0
660.304932 95.0
661.294495 54.0
661.5224 65.0
662.141968 60.0
663.351868 63.0
663.432373 68.0
664.400696 34.0
665.281921 49.0
665.443359 59.0
666.399841 57.0
668.37262 36.0
669.300232 60.0
669.426636 43.0
671.16272 34.0
671.605103 45.0
671.936279 41.0
675.260925 53.0
675.359741 85.0
676.907593 123.0
677.35907 54.0
677.4552 1318.0
677.898315 42.0
678.136475 42.0
678.366516 44.0
678.464661 946.0
678.564209 37.0
679.467224 249.0
680.367737 31.0
681.45166 148.0
681.833923 74.0
682.422974 302.0
683.464111 50.0
685.436584 47.0
690.504822 50.0
691.362488 55.0
691.459045 61.0
692.703857 71.0
693.484558 92.0
694.386597 73.0
694.439636 65.0
695.472168 643.0
696.413879 47.0
696.472534 141.0
696.580505 67.0
697.316956 84.0
697.467957 39.0
697.829895 64.0
698.378113 46.0
698.491882 48.0
700.43634 113.0
701.422302 83.0
706.426758 97.0
707.301147 53.0
707.383423 45.0
707.661133 44.0
708.655212 87.0
709.396362 85.0
712.423828 58.0
712.475647 51.0
712.514404 43.0
713.455017 43.0
713.495422 130.0
714.403687 27.0
715.433228 64.0
716.399658 93.0
723.522217 82.0
724.423279 41.0
726.48175 101.0
727.498291 73.0
728.19397 91.0
728.476257 84.0
730.465454 428.0
731.451111 245.0
731.492493 180.0
731.819336 26.0
732.350952 27.0
732.446655 52.0
732.469971 65.0
732.529785 27.0
733.46875 85.0
738.469849 55.0
739.315979 38.0
744.692383 49.0
748.427856 40.0
756.459717 47.0
757.450073 67.0
760.435059 50.0
761.499695 47.0
764.491516 57.0
764.961609 100.0
766.409424 71.0
768.525879 97.0
769.510742 36.0
772.528687 35.0
775.517151 80.0
777.485107 64.0
778.481262 143.0
780.462097 66.0
782.510559 139.0
783.478516 70.0
783.532898 41.0
785.526062 145.0
786.504211 85.0
789.591125 33.0
790.531738 340.0
790.604858 61.0
791.453674 106.0
791.555542 187.0
792.016235 81.0
792.524719 49.0
792.98407 41.0
794.532837 117.0
795.483948 148.0
795.586914 58.0
796.547485 103.0
797.502747 97.0
798.519226 33.0
801.472961 43.0
807.496948 60.0
807.542175 66.0
808.342773 35.0
808.419861 48.0
808.461121 85.0
808.557678 638.0
808.74176 45.0
809.454102 37.0
809.553772 194.0
810.519714 145.0
810.557068 116.0
810.657654 46.0
811.479492 123.0
811.549255 36.0
812.44397 52.0
812.483337 89.0
812.583801 42.0
813.385376 26.0
813.509399 1366.0
814.521851 674.0
815.547241 148.0
816.496643 59.0
816.576233 28.0
816.869324 33.0
818.800781 68.0
819.731079 59.0
822.518005 35.0
824.144531 48.0
825.47229 225.0
825.533142 87.0
826.506897 37.0
827.520813 58.0
827.620728 57.0
828.608765 50.0
829.391296 98.0
829.451782 52.0
829.508728 118.0
829.5578 71.0
830.442383 71.0
830.54126 55.0
831.467041 34.0
834.431152 33.0
835.560059 44.0
839.593506 98.0
842.553711 35.0
843.463196 50.0
852.579468 41.0
853.598145 33.0
857.532104 59.0
859.383484 38.0
859.556946 125.0
859.764709 57.0
860.590149 156.0
862.572693 46.0
863.551819 42.0
865.721802 29.0
868.594116 36.0
874.455139 39.0
877.405029 35.0
877.570007 470.0
878.584778 208.0
879.558105 90.0
879.639343 37.0
880.557617 78.0
881.564697 77.0
882.555359 103.0
882.589905 115.0
883.561157 49.0
883.649475 41.0
883.749207 28.0
884.590698 75.0
894.068115 52.0
895.574951 349.0
896.600525 161.0
897.567322 162.0
897.644531 92.0
898.714905 72.0
905.625732 46.0
906.496399 60.0
907.533936 59.0
907.591553 134.0
907.648132 76.0
908.510864 69.0
908.622192 59.0
909.563843 36.0
912.633362 53.0
914.612549 50.0
915.569946 78.0
917.228333 47.0
921.705627 66.0
921.977112 51.0
923.70343 32.0
924.395691 45.0
924.553406 419.0
924.662659 26.0
925.431641 41.0
925.568115 190.0
926.526123 43.0
926.593811 72.0
927.296875 28.0
928.509949 31.0
930.866577 76.0
932.304932 85.0
933.575684 53.0
938.57959 46.0
942.480835 169.0
942.557922 1400.0
942.725586 45.0
943.394104 33.0
943.579102 866.0
944.579956 322.0
945.054565 52.0
945.641968 26.0
945.679016 31.0
949.677551 65.0
950.572205 37.0
952.578308 50.0
956.536987 73.0
956.593811 60.0
957.518311 37.0
957.591736 34.0
958.55719 57.0
960.614807 52.0
962.63446 41.0
963.651855 71.0
963.704041 43.0
964.561707 65.0
965.329224 37.0
966.664673 133.0
967.66626 51.0
968.655029 43.0
970.614685 65.0
972.638245 196.0
973.649353 173.0
976.641907 147.0
977.69696 69.0
978.576782 43.0
978.638977 61.0
978.690002 109.0
979.667603 39.0
987.707275 27.0
989.660583 45.0
990.661011 881.0
990.774963 79.0
991.473267 87.0
991.578552 58.0
991.674011 442.0
992.671875 159.0
993.517822 30.0
993.707947 57.0
994.638245 266.0
995.700439 122.0
996.676697 54.0
997.685486 38.0
1008.660828 238.0
1009.509277 45.0
1009.656616 80.0
1009.692078 66.0
1010.663757 49.0
1013.624695 39.0
1025.666016 41.0
1036.635254 49.0
1036.706665 113.0
1037.645386 47.0
1038.621338 35.0
1045.643799 49.0
1048.703979 69.0
1051.740967 30.0
1053.697632 78.0
1056.632324 53.0
1060.641357 39.0
1062.685303 73.0
1062.779053 48.0
1063.630737 37.0
1063.698975 70.0
1063.757202 65.0
1064.650635 35.0
1071.69751 63.0
1077.718872 49.0
1079.694824 45.0
1080.401611 26.0
1081.617676 28.0
1081.692627 77.0
1083.657959 32.0
1085.854858 27.0
1086.53833 27.0
1087.969238 26.0
1088.606934 49.0
1089.462891 42.0
1089.680542 79.0
1089.739746 43.0
1090.953491 57.0
1091.744385 51.0
1093.891357 37.0
1095.692139 95.0
1095.772217 34.0
1096.662598 91.0
1097.66687 33.0
1099.733276 73.0
1103.728638 111.0
1103.784912 229.0
1103.869995 39.0
1104.694458 131.0
1104.760498 123.0
1104.843872 41.0
1107.727905 201.0
1108.707153 32.0
1108.772339 73.0
1109.755615 49.0
1110.477295 54.0
1111.749023 48.0
1119.653442 28.0
1121.634155 51.0
1121.759155 583.0
1122.736084 221.0
1122.796021 223.0
1122.950806 32.0
1123.552979 29.0
1123.709351 57.0
1123.766479 118.0
1124.778809 77.0
1127.64563 42.0
1127.729248 66.0
1131.767334 52.0
1132.742188 51.0
1135.675903 49.0
1136.566772 39.0
1148.756348 68.0
1149.727051 117.0
1149.770874 76.0
1150.800415 52.0
1152.794434 60.0
1158.704468 31.0
1158.74707 42.0
1158.81958 126.0
1159.759766 103.0
1159.910645 30.0
1161.743652 62.0
1161.855225 32.0
1166.793213 45.0
1167.608521 59.0
1167.846313 38.0
1168.294678 61.0
1168.794434 62.0
1172.780884 51.0
1173.666504 35.0
1173.792358 132.0
1175.366089 33.0
1175.79248 46.0
1176.32019 27.0
1176.708862 136.0
1176.762573 214.0
1177.707153 85.0
1177.793823 51.0
1178.729736 59.0
1178.945312 100.0
1179.63855 26.0
1180.801147 47.0
1186.409302 50.0
1186.676514 35.0
1190.691528 75.0
1190.784058 130.0
1190.949097 38.0
1191.670532 34.0
1191.748047 57.0
1191.785156 81.0
1193.754761 48.0
1194.666138 30.0
1194.766235 255.0
1195.790894 146.0
1196.778198 132.0
1196.831299 54.0
1203.849609 29.0
1208.667725 37.0
1208.81958 32.0
1209.78833 65.0
1210.796753 34.0
1215.026611 36.0
1220.769287 72.0
1221.841797 51.0
1221.926514 47.0
1222.872681 61.0
1227.918701 26.0
1232.815674 36.0
1244.491455 39.0
1244.866089 38.0
1246.870361 48.0
1248.831299 64.0
1251.626221 59.0
1261.79126 33.0
1261.852539 81.0
1261.911743 51.0
1262.03772 60.0
1262.728516 35.0
1262.875732 35.0
1263.215942 78.0
1264.098389 40.0
1264.866089 56.0
1266.796387 44.0
1271.752686 58.0
1271.866211 96.0
1272.690186 34.0
1272.775757 59.0
1272.858887 55.0
1273.562256 34.0
1273.794434 72.0
1277.595093 65.0
1277.886719 99.0
1279.862183 286.0
1279.933838 84.0
1280.749756 43.0
1280.880981 282.0
1281.841064 206.0
1282.856445 49.0
1283.830688 49.0
1285.40625 55.0
1286.83252 40.0
1289.641602 62.0
1289.848022 1575.0
1290.008667 46.0
1290.552124 69.0
1290.617798 68.0
1290.705811 91.0
1290.849243 1248.0
1291.053589 58.0
1291.7052 65.0
1291.847656 753.0
1292.715088 42.0
1292.853638 263.0
1293.862427 158.0
1293.947998 53.0
1294.904053 89.0
1295.838745 72.0
1297.960815 31.0
1298.842407 37.0
1300.755371 26.0
1301.396118 26.0
1301.749512 53.0
1301.921631 33.0
1302.34314 39.0
1302.867188 95.0
1303.576782 41.0
1303.689453 40.0
1303.827515 2197.0
1304.432129 46.0
1304.633789 42.0
1304.823486 2488.0
1305.007812 88.0
1305.162964 44.0
1305.524902 40.0
1305.576416 44.0
1305.648438 48.0
1305.835449 1264.0
1306.151611 26.0
1306.549927 29.0
1306.655151 42.0
1306.821289 283.0
1307.034302 70.0
1307.180176 65.0
1307.243286 27.0
1307.368286 43.0
1307.416138 49.0
1307.619141 57.0
1307.854614 6145.0
1308.042969 104.0
1308.113403 107.0
1308.557861 36.0
1308.665039 82.0
1308.858887 4144.0
1309.049561 33.0
1309.157227 102.0
1309.665527 86.0
1309.71521 68.0
1309.854248 2155.0
1310.20813 27.0
1310.365479 35.0
1310.439575 52.0
1310.574707 80.0
1310.864624 603.0
1311.155884 57.0
1311.277222 40.0
1311.497192 37.0
1311.541382 36.0
1311.703491 35.0
1311.875366 274.0
1312.420898 34.0
1312.882324 92.0
1313.097168 34.0
1313.847046 67.0
1313.901978 37.0
1313.96106 52.0
1315.13916 33.0
1315.55603 27.0
1316.624878 49.0
1318.244507 65.0
1319.786621 39.0
1320.828613 37.0
1324.520142 50.0
1329.824707 185.0
1330.844116 59.0
1333.020996 63.0
1333.750488 41.0
1335.810303 50.0
1337.807983 57.0
1340.917847 39.0
1352.769653 60.0
1357.796875 38.0
1361.843872 45.0
1362.945312 43.0
1364.320557 36.0
1366.785645 108.0
1402.246826 35.0
1477.775879 27.0
1488.495117 45.0
1532.67334 40.0
1534.408203 32.0
1534.577759 39.0
1589.017456 33.0
1600.738281 54.0
1718.859985 31.0
1737.229858 28.0
1827.747681 70.0
1847.137207 62.0
1867.966064 29.0
1889.254395 51.0
1938.964966 38.0
1940.259644 41.0
1948.165405 43.0
1948.665161 76.0
1972.613647 42.0
END IONS
