BEGIN IONS
PEPMASS=749.302
CHARGE=1
MSLEVEL=2
SOURCE_INSTRUMENT=LC-ESI-qTof
FILENAME=f.mernst/3DModels/spectral_data_ms2_v110.mgf;
SEQ=*..*
IONMODE=Positive
ORGANISM=GNPS-LIBRARY
NAME=Milliamine C; 5-Anthraniloyl type moiety, 20-Ac - Ingenol diterpenoid M+H
PI=Dorrestein
DATACOLLECTOR=mernst
SMILES=CC(C(O)C1(O)C2OC(C3=CC=CC=C3/N=C(O)/C4=C(/N=C(O)/C5=CC=CC=C5)C(O)=CC=C4)=O)=CC16C(CC(C(C)7C)C7C(C6=O)C=C2COC(C)=O)C
INCHI=
INCHIAUX=InChI=1S/C43H44N2O10/c1-22-20-42-23(2)18-30-33(41(30,4)5)29(36(42)49)19-26(21-54-24(3)46)37(43(42,53)35(22)48)55-40(52)27-14-9-10-16-31(27)44-39(51)28-15-11-17-32(47)34(28)45-38(50)25-12-7-6-8-13-25/h6-17,19-20,23,29-30,33,35,37,47-48,53H,18,21H2,1-5H3,(H,44,51)(H,45,50)
PUBMED=
SUBMITUSER=lfnothias
TAGS=
LIBRARYQUALITY=3
SPECTRUMID=CCMSLIB00004678651
SCANS=1510
120.043533 1904.0
121.102318 192.0
123.080238 1148.0
133.103149 212.0
137.087906 232.0
138.053497 2672.0
139.056412 152.0
139.112778 192.0
147.105988 268.0
148.019165 216.0
151.071823 204.0
155.080566 304.0
157.082047 252.0
159.074966 380.0
160.084122 220.0
161.088028 580.0
162.129318 204.0
163.110367 288.0
169.096848 180.0
171.109619 640.0
173.102997 840.0
174.104614 216.0
175.0867 812.0
177.107117 264.0
177.175262 208.0
184.07692 260.0
185.106766 552.0
187.113556 376.0
188.117111 228.0
189.123032 520.0
190.095596 156.0
191.103271 1340.0
192.116699 228.0
193.102509 652.0
195.107849 660.0
197.122986 676.0
199.107101 1388.0
200.110733 292.0
201.113815 548.0
202.103882 260.0
203.130402 444.0
205.086838 156.0
207.113205 976.0
208.106628 228.0
209.122147 916.0
210.110214 336.0
211.115067 1236.0
212.130859 232.0
213.1306 1036.0
215.137161 292.0
217.116135 1492.0
218.125061 196.0
219.111572 488.0
220.12941 192.0
223.111206 704.0
225.130951 1880.0
226.121048 832.0
227.122955 732.0
229.124146 724.0
231.113831 228.0
235.108429 988.0
237.126724 1984.0
238.140793 216.0
239.115494 2356.0
239.909348 512.0
240.062775 107916.0
240.258255 620.0
240.922928 184.0
241.06546 16896.0
242.063095 1436.0
243.129974 1056.0
244.126053 456.0
245.114853 848.0
246.11528 200.0
249.158768 2480.0
251.143524 2116.0
252.144241 264.0
253.120041 2568.0
254.130371 460.0
255.135696 2544.0
256.141235 300.0
257.107513 236.0
258.134552 152.0
259.146271 312.0
261.121979 188.0
262.134247 484.0
265.157135 296.0
266.158875 272.0
267.1698 6768.0
268.174408 1192.0
269.182678 820.0
271.134003 1328.0
272.132477 152.0
277.155762 5412.0
278.156891 1800.0
279.170929 236.0
283.16629 1112.0
284.174591 624.0
285.182892 4272.0
286.18338 352.0
294.106842 184.0
294.87915 156.0
295.167572 31448.0
295.713104 200.0
296.171509 5852.0
297.168884 548.0
311.749542 156.0
312.149567 328.0
312.785034 352.0
313.018768 512.0
313.177856 137840.0
313.358337 484.0
313.491364 504.0
314.179962 27668.0
315.182983 1952.0
316.187042 212.0
317.189301 228.0
319.177429 248.0
331.185181 240.0
337.181641 228.0
338.188538 264.0
355.189209 9692.0
356.19397 2520.0
359.093445 740.0
360.105988 216.0
371.205353 348.0
373.198608 5964.0
374.19696 1888.0
375.207642 368.0
377.105713 1516.0
378.112213 504.0
386.19162 152.0
388.405396 152.0
396.190887 232.0
404.219971 296.0
414.203247 1840.0
415.206879 488.0
416.236816 164.0
432.212708 5908.0
433.221741 1584.0
434.23877 720.0
435.25116 168.0
450.227081 8552.0
451.233856 2412.0
452.227539 356.0
474.225403 796.0
475.21405 272.0
492.237366 2544.0
493.253815 372.0
494.250977 464.0
510.248871 17256.0
511.255432 5036.0
512.247559 976.0
534.473755 160.0
552.231934 156.0
561.288025 400.0
568.496338 1180.0
645.314087 152.0
689.275879 152.0
691.299744 156.0
731.552979 176.0
748.375671 628.0
749.426636 500.0
751.46051 220.0
END IONS
