BEGIN IONS
PEPMASS=532.0
CHARGE=0
MSLEVEL=2
SOURCE_INSTRUMENT=LC-ESI-qTof
FILENAME=20121103_Jenia_Ger_CarmaphycinB_MH_532_qb.1.1..mgf
SEQ=*..*
IONMODE=Positive
ORGANISM=GNPS-LIBRARY
NAME=Carmaphycin B M+H
PI=Gerwick
DATACOLLECTOR=Jenia
SMILES=C[C@]1(OC1)C([C@H](CC(C)C)NC([C@H](CCS(=O)(C)=O)NC([C@H](C(C)C)NC(CCCCC)=O)=O)=O)=O
INCHI=N/A
INCHIAUX=N/A
PUBMED=N/A
SUBMITUSER=mwang87
TAGS=Marine Cyanobacteria[Source Environment]||Cyanobacteria[Source Environment]||Proteasome Inhibitors[Bioactivity (Active against)]||Symploca [Source Environment]||Cytotoxic[Bioactivity (Active against)]||Antiproliferative[Bioactivity (Active against)]||Inhibitor[Bioactivity (Active against)]||Bacterium[Source Environment]
LIBRARYQUALITY=1
SPECTRUMID=CCMSLIB00000001577
SCANS=1
153.288116 163097.0
153.889313 3721899.0
154.596039 17.0
161.9823 64219.0
164.930359 221142.0
169.788574 275399.0
171.953033 340799.0
181.800903 3333268.0
182.622192 12.0
190.876221 121512.0
191.826569 165667.0
197.775787 1997434.0
200.023682 94099.0
221.039337 191946.0
233.942322 59225.0
235.65625 72626.0
248.890533 29370.0
259.077881 77068.0
260.965881 421421.0
261.772949 27918.0
271.780884 115832.0
288.796387 230216.0
299.082092 46484.0
299.907532 497199.0
300.734619 119365.0
316.880737 7985906.0
317.732666 112.0
334.87915 44526192.0
335.636047 229.0
342.81958 84412.0
360.153992 354002.0
360.770813 5533707.0
361.535461 31.0
362.968445 357568.0
363.569702 11.0
397.210022 112368.0
397.813293 5.0
433.971497 523068.0
434.758301 8.0
452.085388 179216.0
501.996033 427446.0
514.105103 4355834.0
514.901611 40.0
END IONS
