BEGIN IONS
PEPMASS=675.261
CHARGE=1
MSLEVEL=2
SOURCE_INSTRUMENT=LC-ESI-qTof
FILENAME=f.lfnothias/E amygdaloides semiperfoliata QTOF/201507 ok/MS2 E amygdaloides semiperfoliata/MS_LF31152_bis.mgf;
SEQ=*..*
IONMODE=Positive
ORGANISM=GNPS-LIBRARY
NAME=(2R,3R,4S,5R,7S,8R,9S,13R,15R)-3,5,7,9,14,15-Hexaacetoxy-8-hydroxy-14-oxojatropha-6(17),11E-diene / jatrophane ester isolated from Euphorbia amygdaloides ssp semiperfoliata M+Na
PI=Litaudon / Touboul
DATACOLLECTOR=Louis-Felix Nothias-Scaglia
SMILES=C[C@@]1(OC(C)=O)C[C@@](C([C@H](C)/C=C/C(C)(C)[C@H](OC(C)=O)[C@H](O)[C@@H](OC(C)=O)C([C@@H]2OC(C)=O)=C)=O)(OC(C)=O)[C@]2([H])[C@H]1OC(C)=O
INCHI=
INCHIAUX=
PUBMED=
SUBMITUSER=lfnothias
TAGS=
LIBRARYQUALITY=3
SPECTRUMID=CCMSLIB00000531511
SCANS=1
83.049919 93.306122
105.073738 17.0
106.074997 47.75
151.073044 41.263161
159.082092 19.125
174.936768 73.021217
187.071426 85.49588
197.094269 61.763889
203.102646 19.69231
207.110703 60.457142
213.123444 51.793098
229.115555 22.69231
235.090332 11.03125
237.16568 28.066669
241.12822 27.003571
251.1436 47.08654
265.157776 100.304802
275.090118 124.064301
278.621582 14.09091
283.16571 87.313637
283.400604 19.111839
293.148956 104.438599
301.174957 109.004303
305.176117 106.219101
311.163361 178.686996
315.133453 17.01786
322.483948 20.075001
329.164642 60.160709
343.191315 32.052631
371.18158 148.640198
375.157654 36.022961
389.192383 42.96011
413.192749 69.612503
435.185913 93.422417
453.183258 33.603569
460.044281 27.066179
495.198456 116.108902
496.190765 47.931339
513.213257 53.938831
555.219421 306.391113
557.511047 15.0
612.932617 15.01136
615.240356 397.456909
616.254517 37.009621
616.314331 38.0
675.255066 28.25
676.272156 23.64015
END IONS
