BEGIN IONS
PEPMASS=1227.69
CHARGE=1
MSLEVEL=2
SOURCE_INSTRUMENT=LC-ESI-qTof
FILENAME=f.philipwi/0_WilliamsFreshwaterCyanosStandardsConvertedTo_mzXML_v2/PW-12_v5_P1-B-3_Puwainaphycin_C_1226amu_01_15618_Scan625-639.mzXML;
SEQ=*..*
IONMODE=Positive
ORGANISM=GNPS-LIBRARY
NAME=Puwainaphycin C M+H
PI=Philip Williams
DATACOLLECTOR=Williams
SMILES=NC(C[C@H]1C(N2[C@H](C(N[C@@H]([C@@H](O)C(N[C@@H](C(C)C)C(N/C(C(N[C@H](C(N[C@H](C(N[C@@H](CCC(N)=O)C(NCC(N[C@H](C(N1C)=O)[C@@H](OC)C)=O)=O)=O)[C@H](C)O)=O)[C@@H](O)C)=O)=C/C)=O)=O)[C@@H](C)CCCCCCCCCC(Cl)CC)=O)CCC2)=O)=O
INCHI=
INCHIAUX=
PUBMED=
SUBMITUSER=philipwi
TAGS=
LIBRARYQUALITY=3
SPECTRUMID=CCMSLIB00000424834
SCANS=629
71.744072 32.0
101.020325 36.0
106.486511 68.0
113.695068 88.0
120.145584 32.0
131.759872 48.0
134.895203 84.0
137.304489 68.0
139.825562 112.0
141.738998 124.0
142.536926 68.0
147.580582 80.0
153.429581 44.0
155.092117 68.0
155.727829 56.0
157.210861 32.0
164.535217 64.0
166.371811 108.0
167.085312 236.0
167.417618 36.0
168.069931 288.0
169.068436 224.0
170.624664 144.0
171.792328 128.0
172.109955 84.0
172.662323 100.0
173.106522 72.0
174.594131 36.0
175.108292 116.0
175.209518 64.0
175.488068 36.0
175.597855 144.0
178.047455 88.0
178.106995 80.0
179.086639 84.0
179.274353 56.0
181.101929 196.0
182.136276 60.0
182.652802 36.0
183.113846 308.0
184.016479 32.0
184.11319 100.0
184.310593 68.0
185.097641 608.0
185.194336 32.0
186.088318 188.0
186.219345 24.0
187.075851 168.0
187.212296 48.0
192.411118 24.0
193.120819 84.0
193.402679 100.0
194.788055 24.0
195.081482 456.0
195.215317 60.0
196.064545 144.0
197.057678 116.0
198.12381 568.0
198.264114 112.0
199.106995 132.0
201.065308 80.0
201.635147 68.0
202.121902 380.0
202.203979 80.0
202.677399 28.0
203.109192 412.0
203.585892 92.0
203.786041 44.0
203.886139 44.0
204.099991 88.0
205.097275 60.0
206.097061 212.0
207.080261 468.0
208.084381 248.0
208.508469 36.0
209.098099 228.0
209.752914 48.0
210.006866 80.0
210.089096 100.0
210.58461 132.0
211.12146 224.0
211.668259 108.0
212.107224 1724.0
212.392242 40.0
212.903488 24.0
213.098404 316.0
213.303619 24.0
213.480545 136.0
213.806641 32.0
214.120026 196.0
214.524933 28.0
215.122864 96.0
217.100601 72.0
217.814484 68.0
219.020325 32.0
219.11467 56.0
219.214401 248.0
220.128571 392.0
220.216492 108.0
220.371399 32.0
221.114273 112.0
221.223862 64.0
222.030487 108.0
222.130051 152.0
222.258499 28.0
222.676834 28.0
223.11261 232.0
223.232361 120.0
223.419388 32.0
223.514679 64.0
224.105331 1008.0
224.243408 6260.0
224.583298 72.0
224.68573 72.0
224.787933 72.0
224.984238 84.0
225.099945 300.0
225.242447 712.0
225.565567 52.0
225.884338 36.0
226.116974 432.0
226.248535 104.0
226.401978 32.0
226.524536 36.0
226.920197 32.0
227.132126 392.0
227.573624 24.0
228.120697 56.0
228.318649 80.0
228.478439 36.0
228.748291 44.0
229.131027 88.0
229.211288 108.0
229.327118 32.0
229.891266 76.0
230.116776 3560.0
230.206375 32.0
230.350266 32.0
230.440582 76.0
230.612762 28.0
230.690216 36.0
231.120346 348.0
231.950546 56.0
232.119507 108.0
232.718124 28.0
232.838577 52.0
233.095444 68.0
234.093369 388.0
235.147629 140.0
235.761948 32.0
236.138519 96.0
236.23761 532.0
236.396118 32.0
236.653458 48.0
237.130005 196.0
237.240616 192.0
238.119507 196.0
238.240921 104.0
238.343109 60.0
238.569504 24.0
239.125183 148.0
239.98938 36.0
240.128433 524.0
240.304077 28.0
240.845963 92.0
240.916885 104.0
241.029846 128.0
241.12001 3328.0
241.334259 36.0
241.453094 32.0
241.525528 44.0
241.675034 40.0
241.829636 36.0
241.988266 52.0
242.118835 492.0
242.404922 172.0
242.901398 24.0
243.010681 28.0
243.146606 376.0
243.284576 36.0
243.666962 40.0
244.025314 48.0
244.133621 828.0
245.132675 196.0
246.100891 84.0
246.210892 40.0
246.811386 24.0
247.083282 196.0
247.207291 256.0
247.884079 56.0
248.106888 164.0
248.241714 116.0
249.089874 48.0
249.214905 172.0
249.381714 32.0
249.865128 28.0
250.121994 1380.0
250.224274 76.0
250.591125 36.0
250.737808 60.0
250.979782 40.0
251.111664 2880.0
251.363663 96.0
251.43515 48.0
251.843948 44.0
252.102829 3048.0
252.285187 40.0
252.65387 40.0
252.734924 28.0
252.821472 28.0
252.972122 60.0
253.097305 560.0
253.302734 36.0
253.586884 160.0
254.122742 200.0
254.250366 2032.0
254.653839 68.0
254.856308 40.0
254.959091 24.0
255.139847 368.0
255.248901 208.0
255.559967 28.0
255.873413 96.0
255.977936 32.0
256.132721 840.0
256.784271 32.0
256.988586 72.0
257.138641 56.0
257.254364 52.0
257.847687 36.0
258.072906 36.0
258.24704 28.0
258.790222 44.0
259.141022 276.0
259.231354 144.0
259.416138 144.0
259.950287 36.0
260.104462 88.0
260.219238 2428.0
260.402679 64.0
260.515869 124.0
261.094635 104.0
261.225098 352.0
261.329285 172.0
262.051117 44.0
262.215485 620.0
262.856598 40.0
262.959961 40.0
263.110565 120.0
263.270142 48.0
263.466705 44.0
263.880737 28.0
264.118774 140.0
264.236389 372.0
264.481659 68.0
265.091339 180.0
265.95578 44.0
266.099945 172.0
266.116913 104.0
266.156464 172.0
266.257324 88.0
266.4758 24.0
266.767242 24.0
266.936432 32.0
266.982117 44.0
267.146515 700.0
267.246368 92.0
267.579926 52.0
267.673798 48.0
267.780151 60.0
268.007629 60.0
268.134674 2096.0
268.46698 40.0
268.766449 48.0
269.007751 52.0
269.126495 7360.0
269.330078 32.0
269.406799 84.0
269.631256 44.0
269.761414 56.0
269.868347 32.0
270.124115 1000.0
270.360748 68.0
270.486542 40.0
270.717896 36.0
270.919525 84.0
271.111542 868.0
271.315369 80.0
271.672485 52.0
271.819611 24.0
271.935211 28.0
272.019318 32.0
272.118866 292.0
272.217529 412.0
272.661011 36.0
273.128296 128.0
273.682953 44.0
273.809509 32.0
274.132812 100.0
274.208862 264.0
275.161316 76.0
276.143921 200.0
276.940582 36.0
277.014862 40.0
277.152802 56.0
278.117676 196.0
279.095001 120.0
280.125031 192.0
280.263275 96.0
280.645996 28.0
280.870117 32.0
281.135895 156.0
281.285553 52.0
282.148193 180.0
282.239807 472.0
282.537781 40.0
282.623505 40.0
283.142334 608.0
283.36673 52.0
283.878723 36.0
284.129364 1404.0
284.265472 64.0
284.469727 28.0
284.695557 56.0
284.867645 36.0
285.153625 660.0
285.459686 28.0
286.143097 1704.0
286.354309 32.0
286.468811 32.0
286.559296 32.0
286.721161 40.0
286.861511 52.0
287.139557 2516.0
287.551697 36.0
287.69223 36.0
287.878174 48.0
287.974609 28.0
288.139709 400.0
288.375 52.0
288.52655 56.0
288.797302 44.0
289.071289 80.0
289.144073 76.0
289.856506 64.0
290.151398 136.0
290.23172 272.0
290.565735 76.0
290.641815 36.0
290.793976 32.0
291.120148 212.0
291.228943 44.0
291.577148 64.0
291.707764 52.0
291.787048 92.0
292.098236 820.0
292.223419 152.0
292.437683 24.0
293.090027 64.0
293.168488 108.0
293.769073 28.0
293.976715 36.0
294.149811 552.0
294.403107 36.0
294.884552 40.0
295.142517 1124.0
295.278748 76.0
295.903442 44.0
296.131042 488.0
296.419006 40.0
296.517792 80.0
296.649536 68.0
297.131012 488.0
297.649475 40.0
297.858459 28.0
298.145844 156.0
298.596008 24.0
299.170227 120.0
299.287598 112.0
300.068298 24.0
300.172974 156.0
300.405182 132.0
300.894836 40.0
301.046326 40.0
301.154144 1820.0
301.407867 100.0
301.604706 52.0
302.154175 412.0
302.308502 24.0
302.449341 68.0
303.166687 688.0
303.295715 40.0
303.384521 56.0
303.484467 36.0
303.573303 40.0
303.66217 32.0
303.795471 40.0
303.928833 32.0
304.144379 112.0
304.306763 80.0
304.807373 48.0
305.148956 124.0
305.286102 64.0
305.676056 80.0
306.15625 116.0
306.339233 104.0
306.769226 32.0
306.981384 24.0
307.140289 240.0
307.405945 72.0
308.133057 396.0
308.28949 64.0
309.124054 348.0
310.148865 100.0
310.363556 40.0
310.520813 44.0
310.880341 76.0
311.167145 340.0
311.35257 84.0
311.76889 32.0
312.174957 112.0
312.557251 44.0
312.696045 64.0
312.917999 24.0
313.152374 2620.0
313.252411 80.0
313.379822 68.0
313.617493 48.0
313.877197 24.0
314.024017 48.0
314.152802 368.0
314.351685 28.0
314.592285 28.0
314.855194 36.0
315.143005 360.0
315.48288 44.0
315.604431 100.0
315.743347 36.0
316.003937 36.0
316.153656 172.0
316.249817 228.0
316.377991 32.0
316.468689 28.0
316.57077 36.0
316.661499 84.0
317.03595 32.0
317.129456 364.0
317.293365 192.0
317.546906 128.0
317.830933 36.0
318.108948 228.0
318.270203 244.0
318.675293 32.0
318.877319 36.0
319.157104 244.0
319.264435 24.0
319.583435 44.0
319.674622 36.0
320.181061 96.0
320.218292 100.0
321.146545 40.0
321.294312 1304.0
321.695099 32.0
321.958099 32.0
322.209778 160.0
322.299133 84.0
322.553162 44.0
322.747803 40.0
322.931061 32.0
323.134338 284.0
323.282227 80.0
324.156921 620.0
324.272675 60.0
324.72052 36.0
324.936249 36.0
325.038269 84.0
325.152771 452.0
325.709137 40.0
325.870209 40.0
326.141754 544.0
326.250061 44.0
326.733826 28.0
327.021942 40.0
327.164948 152.0
328.177185 184.0
328.533752 28.0
328.868927 52.0
329.153564 208.0
329.273651 52.0
330.165802 176.0
330.419769 28.0
330.512482 44.0
330.931488 32.0
331.165924 1432.0
331.347382 72.0
331.659576 40.0
331.869751 36.0
332.16806 628.0
332.357666 32.0
332.497131 36.0
332.83429 32.0
333.163391 80.0
333.289124 100.0
333.724548 48.0
334.151703 284.0
334.270874 316.0
334.697601 56.0
334.907532 48.0
335.136932 1600.0
335.30542 252.0
335.864807 128.0
336.145813 228.0
336.289551 1112.0
336.659668 48.0
336.764923 32.0
336.881927 44.0
337.145874 92.0
337.304169 312.0
337.66626 32.0
338.14032 136.0
338.299103 52.0
338.662659 32.0
339.175385 232.0
340.169342 368.0
340.483368 32.0
340.730408 28.0
340.96579 32.0
341.1586 376.0
341.637054 156.0
342.164917 640.0
342.745483 32.0
342.851685 48.0
343.177094 388.0
343.272888 124.0
343.442108 36.0
343.772949 24.0
344.162384 336.0
344.801971 48.0
345.1651 344.0
346.140808 80.0
346.284241 124.0
346.615356 40.0
347.157623 308.0
347.272339 72.0
347.601074 36.0
347.779358 44.0
348.173309 216.0
348.753998 56.0
349.15332 92.0
349.288177 392.0
349.42627 32.0
349.687286 72.0
349.847626 44.0
349.907257 88.0
350.166626 252.0
350.292175 32.0
350.562164 32.0
350.713287 116.0
350.872314 96.0
351.02829 108.0
351.165802 552.0
351.30249 28496.0
351.494965 108.0
351.606232 108.0
351.724274 76.0
351.84198 84.0
352.024231 80.0
352.165619 2296.0
352.307495 6864.0
352.478851 44.0
352.787292 36.0
352.913818 40.0
353.150116 2268.0
353.318817 2648.0
353.486176 116.0
353.744598 40.0
353.890259 44.0
353.993744 72.0
354.143951 400.0
354.314514 540.0
354.456299 40.0
354.744385 40.0
354.840454 48.0
355.016357 80.0
355.193909 84.0
355.311981 168.0
355.453094 32.0
356.037964 56.0
356.193115 136.0
356.245605 120.0
356.535553 36.0
356.679993 52.0
357.192596 812.0
357.860779 24.0
357.957245 68.0
358.175964 276.0
358.451904 28.0
358.838196 24.0
359.043518 40.0
359.171997 192.0
359.270355 280.0
359.744415 44.0
359.913696 84.0
360.180786 248.0
360.283569 88.0
360.603333 28.0
360.68808 24.0
360.893921 24.0
361.166016 284.0
361.28717 304.0
361.412018 52.0
361.442474 128.0
361.664154 48.0
361.95755 104.0
362.152161 260.0
362.295166 108.0
362.566986 92.0
362.99707 44.0
363.139221 460.0
363.303497 2876.0
363.465729 32.0
363.651794 52.0
363.813599 52.0
363.947968 72.0
364.16629 84.0
364.299347 1000.0
364.703339 60.0
364.937714 80.0
365.16452 220.0
365.304901 256.0
365.412781 40.0
365.534637 80.0
366.151123 120.0
366.287323 72.0
366.330322 32.0
366.495667 40.0
366.983673 36.0
367.184662 560.0
368.196075 148.0
368.440979 36.0
368.661255 40.0
368.771423 116.0
368.898956 28.0
369.172913 488.0
369.259796 712.0
369.912354 84.0
370.174072 5620.0
370.469635 28.0
370.565308 48.0
370.663208 232.0
370.893433 40.0
371.180542 1244.0
371.272003 340.0
371.40799 36.0
371.601501 84.0
371.690582 40.0
371.813477 28.0
371.933807 48.0
372.043701 44.0
372.168121 280.0
372.27063 1468.0
372.421722 60.0
372.662079 24.0
372.987671 44.0
373.17395 76.0
373.288147 160.0
373.671844 48.0
373.934021 44.0
374.214874 716.0
374.71994 168.0
374.929749 24.0
375.213165 96.0
375.398926 40.0
375.621277 32.0
375.983368 40.0
376.208618 84.0
376.771118 28.0
376.976562 40.0
377.100616 32.0
377.202942 36.0
377.329865 144.0
377.429932 36.0
377.662506 36.0
377.811188 40.0
377.922119 52.0
378.17804 1528.0
378.357819 76.0
378.632477 48.0
378.838593 52.0
378.987183 60.0
379.163513 3260.0
379.292969 3964.0
379.634766 40.0
379.891479 36.0
380.026581 28.0
380.157684 1136.0
380.303711 656.0
380.492218 32.0
380.722961 36.0
380.906403 40.0
381.17276 364.0
381.462708 44.0
381.562317 32.0
381.681976 72.0
382.184143 252.0
382.783569 40.0
383.194397 348.0
383.4823 44.0
383.856873 52.0
383.969269 68.0
384.193756 1004.0
384.352142 56.0
384.66156 20.0
384.931671 44.0
385.201355 312.0
385.3927 80.0
385.557251 104.0
385.707458 36.0
385.995453 48.0
386.171539 520.0
386.53418 32.0
386.672058 24.0
386.851532 88.0
387.088257 152.0
387.279144 13816.0
387.477478 36.0
387.627075 56.0
387.880493 72.0
387.980286 72.0
388.179779 1808.0
388.283447 3280.0
388.517975 44.0
388.627441 36.0
388.738861 76.0
388.849396 52.0
388.94165 40.0
388.992889 32.0
389.021057 68.0
389.180298 440.0
389.280334 4424.0
389.499634 72.0
389.616333 72.0
389.937103 60.0
390.167206 180.0
390.284485 928.0
390.449493 64.0
390.672852 56.0
390.769165 32.0
390.907806 44.0
391.02124 24.0
391.159363 292.0
391.288452 900.0
391.552704 80.0
391.919525 96.0
392.164246 664.0
392.29129 292.0
392.450714 44.0
392.648621 148.0
392.768097 28.0
392.977448 32.0
393.151581 688.0
394.170685 132.0
394.315399 100.0
394.470001 84.0
394.672577 40.0
394.913239 44.0
395.200348 288.0
395.712677 64.0
395.808105 48.0
396.189941 1212.0
396.326935 200.0
396.522675 32.0
396.602753 52.0
396.760864 52.0
396.927032 72.0
397.036713 80.0
397.180786 5216.0
397.57608 56.0
397.596497 52.0
397.881622 64.0
398.005951 48.0
398.17807 2208.0
398.517761 40.0
398.735413 24.0
398.977295 40.0
399.27478 2868.0
399.467651 32.0
399.558716 128.0
399.750366 64.0
399.860992 76.0
399.958313 52.0
400.069855 32.0
400.276123 1064.0
400.442871 40.0
400.589996 36.0
400.685272 52.0
400.821808 40.0
401.264282 908.0
401.478729 52.0
401.575775 32.0
401.827423 72.0
402.198364 2012.0
402.593018 36.0
402.797943 104.0
403.215637 316.0
403.75351 24.0
404.226807 68.0
404.573669 32.0
405.125214 108.0
405.22583 88.0
406.156158 156.0
406.28717 48.0
406.3685 140.0
406.688812 32.0
407.197296 340.0
407.323364 116.0
407.502289 52.0
407.798309 32.0
408.18515 372.0
408.323151 540.0
408.648346 28.0
408.743103 68.0
408.852692 28.0
409.181335 852.0
409.319702 96.0
409.771118 28.0
409.886353 28.0
410.179199 516.0
410.312347 100.0
410.550903 40.0
410.816071 36.0
411.193481 744.0
411.643402 32.0
411.915039 24.0
412.185486 1404.0
412.562164 32.0
412.872955 56.0
412.989532 32.0
413.197998 704.0
413.346924 48.0
413.857941 40.0
413.983307 24.0
414.198517 1360.0
414.770905 44.0
414.91098 52.0
415.272461 6196.0
415.467529 32.0
415.571472 32.0
415.697876 64.0
415.803802 32.0
415.974396 28.0
416.280457 784.0
416.528931 56.0
416.70929 60.0
416.808228 96.0
417.062042 40.0
417.273041 1804.0
417.45694 56.0
417.50293 52.0
417.826538 40.0
417.929047 24.0
418.179474 652.0
418.271912 584.0
418.500427 28.0
418.813477 88.0
419.003174 52.0
419.163727 516.0
419.287567 96.0
419.420288 88.0
419.671631 32.0
419.744537 36.0
419.870819 48.0
420.170715 292.0
420.317383 60.0
420.811798 32.0
421.214905 168.0
421.326721 76.0
422.002594 40.0
422.180664 216.0
422.275726 56.0
423.183289 176.0
423.378662 60.0
423.587219 40.0
424.183441 240.0
424.297302 80.0
424.428619 48.0
425.26828 1160.0
425.477966 28.0
425.677124 44.0
425.848114 24.0
425.979675 28.0
426.08493 160.0
426.209137 600.0
426.57193 64.0
426.811981 140.0
426.974915 40.0
427.07135 84.0
427.266754 1428.0
427.503235 40.0
427.678558 84.0
427.788666 68.0
428.034576 40.0
428.276428 316.0
428.443481 144.0
428.868042 48.0
429.006653 24.0
429.216919 1788.0
429.473297 32.0
429.724304 28.0
429.824768 40.0
429.992523 68.0
430.20929 636.0
430.477844 36.0
430.683807 32.0
430.800751 40.0
430.915405 160.0
431.27063 196.0
431.629272 28.0
431.854431 64.0
432.289886 364.0
432.623108 56.0
432.835266 32.0
433.06076 40.0
433.248932 304.0
433.376129 120.0
433.756012 72.0
433.876953 24.0
434.056213 36.0
434.318359 268.0
434.695587 32.0
434.813538 32.0
435.199982 1696.0
435.529694 28.0
435.734528 32.0
436.185638 2108.0
436.321014 64.0
436.567352 104.0
436.743042 28.0
436.954559 88.0
437.177429 1096.0
437.542725 32.0
437.659241 76.0
438.18042 244.0
438.235565 176.0
438.292358 228.0
438.699432 52.0
438.896698 60.0
439.050751 32.0
439.243774 384.0
439.825775 36.0
439.992554 76.0
440.248108 252.0
440.855774 24.0
441.016388 32.0
441.215271 756.0
441.927155 56.0
442.196564 196.0
442.30246 112.0
442.449951 136.0
442.704742 24.0
443.066925 24.0
443.294952 592.0
444.300385 472.0
444.503815 24.0
445.185242 144.0
445.302887 456.0
446.05069 88.0
446.172119 124.0
446.320007 208.0
446.46814 32.0
447.210632 240.0
447.333221 208.0
447.600281 24.0
447.752014 32.0
447.971863 40.0
448.194977 80.0
448.313538 96.0
448.67981 64.0
448.801361 36.0
449.044464 32.0
449.200043 288.0
449.302246 172.0
449.503845 24.0
449.753174 36.0
449.914093 104.0
450.191803 312.0
450.368164 5892.0
450.558624 44.0
450.687927 36.0
450.898712 100.0
451.225677 216.0
451.372894 1224.0
451.850525 68.0
452.222076 84.0
452.36145 348.0
452.460327 60.0
452.790222 72.0
453.046753 60.0
453.216858 2464.0
453.684875 80.0
453.795258 36.0
453.894196 64.0
454.015594 36.0
454.198792 4144.0
454.53186 64.0
454.873383 56.0
454.998566 120.0
455.19751 1272.0
455.471771 96.0
455.592529 44.0
455.809723 108.0
456.034454 40.0
456.298096 1624.0
456.708923 32.0
456.952942 44.0
457.30484 500.0
457.550873 108.0
457.844147 128.0
458.2258 280.0
458.277618 256.0
458.604431 36.0
458.883118 40.0
458.986755 56.0
459.237305 524.0
459.486328 56.0
459.800232 52.0
460.22345 212.0
460.351624 1108.0
460.768372 48.0
461.064911 32.0
461.207153 156.0
461.359406 220.0
461.516724 28.0
461.868927 28.0
461.992035 52.0
462.087311 72.0
462.199768 196.0
462.326538 244.0
462.455688 68.0
462.681458 40.0
462.861664 144.0
463.19751 552.0
463.369293 72.0
463.641785 36.0
463.76532 68.0
464.190216 456.0
464.35022 3744.0
464.603088 40.0
464.715546 44.0
464.919159 44.0
465.178955 80.0
465.340118 680.0
465.909302 196.0
466.238251 244.0
466.350128 420.0
466.611298 32.0
466.826355 52.0
467.065796 40.0
467.251587 1076.0
467.727295 116.0
467.854034 48.0
468.037537 64.0
468.235535 632.0
468.538086 56.0
468.764587 40.0
468.941284 52.0
469.073395 56.0
469.242798 476.0
469.536285 44.0
469.732635 132.0
469.969269 28.0
470.309845 336.0
470.5802 32.0
470.614288 44.0
470.816559 28.0
470.86795 28.0
471.04184 40.0
471.219604 5776.0
471.677582 64.0
471.920746 40.0
472.223358 1616.0
472.491821 96.0
472.733521 72.0
472.911407 32.0
473.223633 216.0
473.493805 44.0
474.211456 80.0
474.329712 808.0
474.631897 24.0
474.798553 108.0
475.046539 136.0
475.238251 692.0
475.479401 148.0
475.573059 60.0
475.873901 32.0
476.007751 40.0
476.180359 456.0
476.346161 340.0
476.640747 24.0
476.766022 28.0
477.204559 180.0
477.379791 152.0
477.538818 28.0
477.692078 28.0
477.956818 44.0
478.219635 148.0
478.367432 964.0
478.765442 52.0
478.923523 36.0
479.215759 172.0
479.363281 376.0
479.790771 76.0
480.223663 644.0
480.59436 28.0
480.69754 120.0
481.018768 44.0
481.205719 1236.0
481.936859 36.0
482.220886 448.0
482.45166 36.0
482.790863 24.0
483.297791 392.0
483.473907 32.0
483.680664 32.0
483.80127 116.0
484.122375 36.0
484.291656 440.0
484.646149 48.0
484.822174 32.0
484.995178 120.0
485.270264 688.0
485.540009 36.0
485.822418 80.0
486.087524 80.0
486.345612 5628.0
486.565002 56.0
486.739014 80.0
486.98941 36.0
487.110352 36.0
487.343933 1556.0
487.648621 48.0
487.759064 56.0
487.970703 72.0
488.347168 2532.0
488.566406 32.0
488.784729 32.0
489.042297 92.0
489.347839 844.0
489.605835 28.0
489.833557 36.0
489.960541 36.0
490.117035 44.0
490.319153 308.0
491.075867 24.0
491.269958 76.0
491.364563 188.0
491.918549 108.0
492.215393 412.0
492.343414 580.0
492.470154 196.0
492.871521 24.0
493.013062 64.0
493.213501 292.0
493.350189 352.0
493.650177 32.0
493.990143 44.0
494.206635 300.0
494.334564 84.0
494.64209 36.0
494.798065 24.0
495.252411 652.0
495.391052 380.0
495.663391 92.0
495.896576 36.0
496.022949 84.0
496.327301 3024.0
496.8349 136.0
497.334717 1104.0
497.486938 92.0
497.736023 36.0
497.790894 32.0
497.893005 148.0
498.231384 4912.0
498.721405 28.0
498.93924 56.0
499.006927 44.0
499.233002 1800.0
499.564331 36.0
499.93866 60.0
500.023682 120.0
500.32724 2424.0
500.513519 100.0
500.716492 52.0
500.822754 40.0
501.209717 760.0
501.327515 852.0
501.635651 64.0
501.747437 52.0
501.989349 36.0
502.314545 1428.0
502.776031 72.0
503.245575 2212.0
503.742859 56.0
503.914551 64.0
504.082977 32.0
504.251892 600.0
504.572998 28.0
504.945374 28.0
505.233795 184.0
505.561493 40.0
505.876862 48.0
505.991577 40.0
506.243774 200.0
506.751831 44.0
506.995789 84.0
507.093567 64.0
507.217438 304.0
507.35614 156.0
508.257812 204.0
508.432465 164.0
508.705261 24.0
508.911346 48.0
509.218719 348.0
509.357727 252.0
509.683411 40.0
510.037231 48.0
510.309509 744.0
510.633667 28.0
510.907379 36.0
511.20578 168.0
511.313934 236.0
511.623566 128.0
511.829956 64.0
511.990509 72.0
512.255859 1008.0
512.574585 52.0
512.831055 108.0
513.240906 960.0
513.807617 24.0
513.975891 108.0
514.075195 100.0
514.340027 3124.0
514.627075 52.0
514.951538 32.0
515.218994 108.0
515.342346 3740.0
515.760132 36.0
515.998108 32.0
516.06958 64.0
516.243835 2496.0
516.331116 1532.0
516.693237 32.0
517.01886 40.0
517.334717 1332.0
517.615295 108.0
517.817871 44.0
517.962891 28.0
518.240723 896.0
518.615967 28.0
518.893311 40.0
519.222717 1260.0
519.981445 28.0
520.219971 1660.0
520.356995 256.0
520.499756 68.0
520.818787 48.0
521.215637 696.0
521.389099 152.0
521.531982 52.0
521.858276 64.0
522.258118 108.0
522.674072 44.0
522.847473 40.0
522.950989 132.0
523.23468 140.0
523.598083 64.0
523.719604 96.0
523.823853 84.0
524.029053 48.0
524.32666 6856.0
524.596985 60.0
524.769897 36.0
524.92688 76.0
525.049683 68.0
525.325439 2788.0
525.631042 52.0
525.752258 44.0
525.848572 40.0
525.969177 32.0
526.32019 2520.0
526.617004 56.0
526.846741 36.0
526.950684 28.0
527.099121 92.0
527.328613 720.0
527.633484 32.0
527.692017 16.0
527.737427 40.0
528.085693 116.0
528.318726 1264.0
528.680908 32.0
528.812805 124.0
529.204651 268.0
529.317749 772.0
529.472656 28.0
529.575378 28.0
529.7005 36.0
529.839417 44.0
530.051514 132.0
530.259399 3548.0
530.654907 36.0
530.760071 48.0
530.896423 64.0
531.024597 92.0
531.261475 964.0
531.36792 2600.0
531.763367 24.0
531.935181 64.0
532.040466 52.0
532.066772 44.0
532.375 644.0
532.710144 176.0
532.986572 24.0
533.083862 36.0
533.24115 244.0
533.382629 544.0
533.569641 36.0
533.764404 24.0
533.941101 52.0
534.063599 32.0
534.257141 148.0
534.365479 188.0
534.618896 32.0
534.732605 28.0
534.846863 120.0
535.247253 320.0
535.373352 240.0
535.518372 32.0
535.905273 36.0
536.089539 152.0
536.251099 2140.0
536.613831 108.0
536.935425 52.0
537.100098 84.0
537.23053 7484.0
537.365723 600.0
537.597168 56.0
537.708008 144.0
537.841064 48.0
537.968079 52.0
538.232971 1816.0
538.507874 32.0
539.079346 140.0
539.238281 616.0
539.648438 36.0
539.775208 44.0
540.027039 36.0
540.263367 252.0
540.437622 28.0
540.693848 108.0
541.064453 40.0
541.255066 736.0
541.598389 48.0
541.924805 24.0
542.089355 44.0
542.258118 576.0
542.577942 44.0
542.800659 32.0
542.919495 124.0
543.358643 568.0
543.675415 64.0
543.885376 32.0
544.367981 448.0
544.611084 60.0
544.933228 88.0
545.349609 608.0
545.72345 28.0
546.108948 48.0
546.245667 212.0
546.2854 88.0
546.34259 252.0
546.609314 48.0
546.728516 32.0
546.929199 148.0
547.227417 116.0
547.386536 440.0
548.253906 168.0
548.316895 100.0
548.373413 128.0
548.547119 44.0
548.757507 40.0
548.891907 172.0
549.011353 32.0
549.302673 96.0
549.8526 40.0
550.272522 584.0
550.685486 52.0
550.835083 44.0
550.935303 40.0
551.027954 36.0
551.257263 728.0
551.361389 152.0
551.56842 48.0
551.824829 32.0
552.294312 472.0
552.593689 88.0
552.796692 36.0
552.901611 32.0
553.111511 48.0
553.347473 416.0
553.547058 120.0
553.675598 136.0
553.832275 64.0
554.026367 36.0
554.259705 5664.0
554.618591 52.0
554.773499 56.0
554.927002 64.0
555.040466 40.0
555.265686 2072.0
555.362061 1536.0
555.70166 140.0
555.981506 44.0
556.36322 740.0
556.625122 32.0
556.752625 84.0
557.045471 136.0
557.362427 1192.0
557.63324 68.0
557.977844 36.0
558.306213 628.0
558.749756 52.0
558.976318 72.0
559.277466 124.0
559.393982 148.0
559.615234 52.0
559.737671 60.0
560.0896 136.0
560.327942 60.0
560.496948 84.0
560.742004 104.0
560.98053 152.0
561.024658 92.0
561.07782 176.0
561.244751 216.0
561.402466 10528.0
561.674133 184.0
562.017944 28.0
562.200012 64.0
562.405762 2420.0
562.641357 64.0
562.828491 84.0
563.095703 36.0
563.264099 540.0
563.407593 716.0
563.571106 76.0
563.716064 56.0
564.136353 100.0
564.244873 924.0
564.393433 156.0
564.760864 28.0
564.917419 36.0
565.079041 52.0
565.248291 380.0
565.341309 492.0
565.573547 32.0
565.670654 128.0
565.86731 28.0
566.055054 52.0
566.339294 1856.0
566.627625 64.0
566.769897 64.0
566.898376 144.0
566.923218 140.0
567.347046 620.0
567.626587 56.0
567.758057 164.0
567.885864 32.0
568.120361 64.0
568.279968 1364.0
568.569641 28.0
568.805237 48.0
568.933411 56.0
569.265747 2452.0
569.38031 1140.0
569.780579 32.0
570.094421 48.0
570.268738 452.0
570.379333 712.0
570.7453 48.0
570.922729 68.0
570.973755 44.0
571.076599 64.0
571.274475 336.0
571.378845 1612.0
571.979492 44.0
572.086243 32.0
572.393372 492.0
572.68103 168.0
572.810669 36.0
573.265442 156.0
573.392883 540.0
573.550842 36.0
573.73407 24.0
574.122437 84.0
574.405273 140.0
574.619995 72.0
574.864502 28.0
575.375 228.0
575.659546 32.0
575.8125 36.0
576.315308 148.0
576.485718 44.0
577.006226 44.0
577.283569 372.0
577.925354 60.0
578.270386 308.0
578.427856 192.0
578.884583 32.0
579.100159 32.0
579.241394 160.0
579.370422 884.0
579.87793 52.0
580.149475 28.0
580.369934 232.0
580.610229 24.0
581.271851 1328.0
581.687317 44.0
581.803162 56.0
582.03833 52.0
582.25708 2332.0
582.679626 72.0
582.785706 88.0
582.980896 36.0
583.259216 1020.0
583.354736 780.0
583.532288 92.0
584.365234 868.0
584.672302 40.0
584.82135 96.0
585.142517 88.0
585.361328 468.0
585.532715 40.0
585.668335 40.0
585.846008 36.0
586.013306 80.0
586.28595 3884.0
586.585144 84.0
586.853333 76.0
587.087769 44.0
587.288879 764.0
587.625183 88.0
587.94458 28.0
588.052795 36.0
588.218445 140.0
588.272278 64.0
588.400513 196.0
588.825928 36.0
589.35675 204.0
589.39978 140.0
589.599609 112.0
589.878235 100.0
590.280823 108.0
590.415771 124.0
590.687439 44.0
591.155334 108.0
591.241455 72.0
591.374268 120.0
591.857178 100.0
591.970154 48.0
592.109741 76.0
592.277649 108.0
592.420044 124.0
592.807983 36.0
593.009766 32.0
593.332214 76.0
593.522156 184.0
593.661926 40.0
593.925964 44.0
594.073608 32.0
594.336121 528.0
594.748962 92.0
594.839783 108.0
595.146606 68.0
595.303162 684.0
595.515503 44.0
595.651611 52.0
595.797668 76.0
595.943176 76.0
596.097961 56.0
596.289856 348.0
596.555176 60.0
596.873779 112.0
597.140442 80.0
597.379089 27036.0
597.791016 116.0
598.026917 136.0
598.144409 172.0
598.381287 10740.0
598.745789 172.0
598.889709 116.0
599.057861 128.0
599.363098 9784.0
599.627563 116.0
599.854492 140.0
600.07196 68.0
600.34729 1640.0
600.66394 64.0
600.819946 104.0
600.93219 36.0
601.102417 64.0
601.380371 512.0
601.706604 104.0
601.968384 76.0
602.11615 40.0
602.34021 288.0
602.563599 72.0
602.939209 60.0
603.064453 32.0
603.310364 796.0
603.563904 40.0
603.753418 36.0
604.310608 392.0
604.724915 32.0
604.843445 56.0
605.282837 96.0
605.312073 108.0
605.370056 196.0
605.587402 36.0
605.747131 132.0
605.926331 40.0
606.027832 84.0
606.301147 156.0
606.423462 156.0
606.607483 44.0
606.760132 72.0
606.905823 32.0
607.366882 2008.0
607.756042 100.0
608.034363 24.0
608.369019 708.0
608.553589 28.0
608.760315 68.0
609.076294 44.0
609.160339 72.0
609.370361 1024.0
609.763794 72.0
610.090027 128.0
610.377441 204.0
610.620728 44.0
610.755737 156.0
610.932678 36.0
611.086548 204.0
611.36261 528.0
611.62616 32.0
611.894165 24.0
612.034119 32.0
612.384583 344.0
612.572388 36.0
612.851807 92.0
613.301086 844.0
613.735229 36.0
613.902344 84.0
614.072144 84.0
614.284729 1672.0
614.406921 3056.0
614.882507 28.0
614.988647 36.0
615.13092 36.0
615.398621 1184.0
615.584106 164.0
615.851624 204.0
616.151978 36.0
616.300354 168.0
616.410828 812.0
616.742798 168.0
616.993958 48.0
617.406433 620.0
617.583923 40.0
617.731384 80.0
617.853271 76.0
617.964172 36.0
618.138489 32.0
618.420837 532.0
618.763306 164.0
618.97876 32.0
619.279297 144.0
619.418884 172.0
619.803772 44.0
620.041809 28.0
620.273132 240.0
620.510315 204.0
620.708679 32.0
621.026306 116.0
621.262085 240.0
621.378723 364.0
622.342285 144.0
622.631836 32.0
622.838623 32.0
623.077271 44.0
623.371826 200.0
624.370789 188.0
624.869934 56.0
625.369263 600.0
625.785217 32.0
626.394348 492.0
626.854065 36.0
627.125427 100.0
627.403809 400.0
627.59198 36.0
627.767273 40.0
627.987732 32.0
628.12085 24.0
628.409424 276.0
628.969421 56.0
629.13678 40.0
629.353455 212.0
629.522217 84.0
629.730164 24.0
629.842102 40.0
629.984497 40.0
630.256104 104.0
630.443665 164.0
630.709473 40.0
631.031677 100.0
631.308228 7928.0
631.779358 40.0
632.078186 132.0
632.30249 1828.0
632.678955 64.0
632.83728 24.0
633.029724 40.0
633.31311 672.0
633.559143 32.0
633.836426 112.0
634.313843 224.0
634.455688 220.0
634.61853 28.0
634.86676 96.0
635.071472 60.0
635.358215 5748.0
635.658752 48.0
635.779053 44.0
636.045349 40.0
636.15448 68.0
636.367126 1680.0
636.588562 100.0
636.772217 52.0
636.900879 60.0
637.130127 48.0
637.354553 1616.0
637.944519 52.0
638.039062 156.0
638.163208 56.0
638.377747 648.0
638.64679 44.0
639.305481 160.0
639.363647 128.0
639.384583 292.0
640.170776 32.0
640.369385 296.0
640.557922 72.0
640.842102 72.0
641.006409 136.0
641.379822 284.0
641.60498 96.0
641.850952 72.0
642.190247 36.0
642.398804 5856.0
642.569458 76.0
642.709534 32.0
643.106873 40.0
643.40033 1776.0
643.618713 132.0
643.801636 80.0
643.946411 32.0
644.059937 48.0
644.409485 2536.0
644.866455 112.0
645.211121 128.0
645.407166 688.0
645.852173 96.0
646.285339 172.0
646.395386 84.0
646.680908 52.0
646.807739 96.0
647.020691 116.0
647.152405 40.0
647.27478 400.0
647.481689 36.0
648.258057 612.0
648.385681 408.0
648.568909 28.0
648.926086 28.0
649.072266 32.0
649.371094 224.0
649.694946 60.0
649.849182 92.0
650.024902 88.0
650.332031 172.0
650.950134 96.0
651.353882 232.0
651.575684 24.0
651.7547 36.0
651.868591 40.0
652.117737 92.0
652.389526 200.0
652.773071 40.0
652.878052 88.0
653.089844 44.0
653.395874 768.0
653.741577 36.0
653.855713 48.0
654.083923 32.0
654.40564 1412.0
655.041687 44.0
655.422852 792.0
655.688477 56.0
655.862122 44.0
656.050354 40.0
656.407471 676.0
656.743958 44.0
656.858337 44.0
657.402893 264.0
657.642761 116.0
658.382568 232.0
659.415161 276.0
660.404602 244.0
660.785156 44.0
660.981812 232.0
661.303589 116.0
661.416199 124.0
661.750549 36.0
661.949097 64.0
662.155823 40.0
662.279175 164.0
662.43988 584.0
662.835022 32.0
663.031982 44.0
663.433899 88.0
663.737244 84.0
663.937988 48.0
664.326721 460.0
664.64624 136.0
664.855225 40.0
665.072144 144.0
665.294922 2336.0
665.521729 28.0
665.787598 120.0
665.849976 80.0
666.006287 28.0
666.154358 32.0
666.396606 2424.0
666.677673 20.0
666.874756 68.0
667.001892 72.0
667.405151 1328.0
667.828613 40.0
668.403381 744.0
668.756409 40.0
668.987183 36.0
669.1026 28.0
669.397827 716.0
669.700989 100.0
670.056946 28.0
670.425537 944.0
670.787964 56.0
670.920898 100.0
671.264404 56.0
671.43219 316.0
671.668701 84.0
671.805908 100.0
672.422852 120.0
672.718567 32.0
673.443909 328.0
673.578613 40.0
673.777161 24.0
674.223999 40.0
674.435181 192.0
674.621277 40.0
675.316833 76.0
675.453064 208.0
675.813904 32.0
676.0625 28.0
676.435486 136.0
676.788269 44.0
677.047363 36.0
677.362549 1740.0
677.604797 28.0
677.841309 32.0
677.986511 32.0
678.152527 68.0
678.374084 860.0
678.599304 44.0
678.777222 32.0
678.99353 116.0
679.355103 864.0
679.72406 52.0
679.883362 44.0
680.133545 48.0
680.417725 4084.0
680.811157 32.0
680.95459 148.0
681.124146 48.0
681.415405 1656.0
681.752869 40.0
681.928223 56.0
682.320068 8964.0
682.80481 36.0
683.012573 32.0
683.324585 4204.0
683.803528 84.0
684.187195 84.0
684.330566 840.0
684.808838 72.0
684.942261 108.0
685.075745 36.0
685.358826 184.0
686.360046 432.0
686.728516 32.0
686.863647 44.0
687.029236 80.0
687.413879 188.0
687.714478 72.0
688.431946 92.0
688.801514 44.0
689.152283 112.0
689.457031 220.0
689.615173 116.0
689.788879 28.0
690.224243 100.0
690.417664 340.0
690.844055 32.0
691.140137 60.0
691.410217 140.0
691.78894 32.0
691.912231 148.0
692.15155 60.0
692.40155 248.0
692.721863 48.0
692.880432 44.0
693.400269 176.0
693.878174 36.0
694.148682 40.0
694.396545 512.0
694.652649 24.0
694.801392 28.0
694.970032 36.0
695.156738 32.0
695.376892 604.0
695.672791 40.0
696.047791 36.0
696.366699 412.0
696.58606 40.0
696.930237 44.0
697.141357 32.0
697.322998 1764.0
697.930847 72.0
697.994934 96.0
698.424133 5336.0
698.773071 36.0
699.043091 44.0
699.432983 2884.0
699.907532 64.0
700.037598 80.0
700.172424 32.0
700.428711 2216.0
700.682495 32.0
700.923523 68.0
701.183411 136.0
701.440063 824.0
701.927124 28.0
702.435913 340.0
702.672852 52.0
703.12915 156.0
703.438171 68.0
703.777954 32.0
704.295959 96.0
704.434448 108.0
705.35907 108.0
706.454041 72.0
707.409912 300.0
707.581726 44.0
707.751282 36.0
708.107483 52.0
708.416565 1612.0
708.800903 136.0
709.078064 100.0
709.422058 492.0
710.020325 52.0
710.161438 28.0
710.42334 672.0
710.594971 124.0
710.909119 56.0
711.079102 44.0
711.414246 268.0
711.691162 36.0
711.913757 44.0
712.427246 184.0
713.41626 236.0
713.740601 32.0
713.947937 48.0
714.342407 4928.0
714.64032 116.0
715.162659 36.0
715.344482 1820.0
715.661133 32.0
715.935669 36.0
716.37384 284.0
716.97998 56.0
717.451294 336.0
718.09967 32.0
718.409363 280.0
718.731812 56.0
718.953979 40.0
719.368408 316.0
719.485229 184.0
719.954773 36.0
720.11676 120.0
720.42926 288.0
720.681335 96.0
720.989441 24.0
721.229065 52.0
721.407715 140.0
721.653687 60.0
722.010559 44.0
722.403564 196.0
722.77063 36.0
723.405457 116.0
723.850708 52.0
723.986755 60.0
724.099426 80.0
724.41394 332.0
724.845764 148.0
725.145203 92.0
725.439819 7164.0
725.789978 36.0
725.934387 140.0
726.135376 72.0
726.440796 4088.0
726.646912 112.0
726.900269 32.0
727.063843 28.0
727.281921 224.0
727.435059 3352.0
727.775696 100.0
728.206604 32.0
728.448608 944.0
728.65155 60.0
729.449036 360.0
729.705872 56.0
729.829163 32.0
729.937134 28.0
730.089661 28.0
730.503113 76.0
730.985596 28.0
731.123474 40.0
731.439392 140.0
731.675171 96.0
731.795837 176.0
732.155396 52.0
732.423706 160.0
732.727356 32.0
732.848145 40.0
733.421997 84.0
733.659424 44.0
733.780273 48.0
734.136475 64.0
734.415039 308.0
734.730286 96.0
735.110474 64.0
735.447998 184.0
735.633911 128.0
736.113281 116.0
736.41095 572.0
736.79425 164.0
737.082092 32.0
737.448059 1016.0
737.878418 120.0
738.155457 32.0
738.428284 480.0
739.073669 108.0
739.427124 536.0
740.246826 36.0
740.447937 228.0
740.708313 44.0
741.449768 108.0
741.779602 68.0
742.418274 124.0
742.769531 32.0
743.281067 100.0
743.534119 60.0
743.986145 52.0
744.42688 116.0
744.629578 140.0
744.768738 40.0
745.468811 96.0
746.023926 80.0
746.496826 64.0
746.770691 92.0
747.129761 88.0
747.451111 224.0
748.450623 52.0
749.263794 32.0
749.428955 252.0
749.787354 36.0
750.442444 320.0
750.607971 36.0
750.782593 36.0
750.939819 32.0
751.184387 48.0
751.425964 332.0
751.693665 28.0
752.422913 192.0
752.60022 32.0
752.845093 28.0
753.479126 404.0
753.999878 32.0
754.437561 272.0
755.050476 32.0
755.46521 816.0
755.716248 40.0
756.119324 40.0
756.46637 260.0
757.465637 520.0
757.996033 84.0
758.456421 284.0
758.709534 36.0
759.455139 112.0
760.410645 160.0
760.959656 40.0
761.414124 160.0
762.037964 32.0
762.513184 148.0
762.847656 44.0
762.970886 48.0
763.319946 92.0
763.46991 1176.0
763.867249 36.0
764.117737 36.0
764.46344 648.0
764.701416 140.0
765.445251 876.0
765.720154 40.0
765.947571 36.0
766.434875 304.0
766.849487 40.0
767.446899 504.0
767.661743 84.0
767.979675 32.0
768.443604 484.0
768.605713 84.0
768.810181 28.0
769.252136 48.0
769.459045 428.0
769.694153 28.0
770.118713 52.0
770.295593 32.0
770.475952 256.0
770.932617 64.0
771.481018 744.0
771.684326 52.0
771.906433 32.0
772.20752 124.0
772.483521 368.0
772.659729 40.0
772.821106 44.0
773.476379 216.0
774.470886 124.0
774.902405 88.0
775.466187 88.0
775.931946 40.0
776.109497 36.0
776.48761 96.0
776.671936 36.0
776.990723 72.0
777.24646 36.0
777.429626 164.0
777.868591 28.0
778.416626 680.0
778.633301 44.0
778.757812 32.0
779.036499 48.0
779.184814 24.0
779.416138 304.0
779.718689 68.0
779.941223 44.0
780.095764 44.0
780.217163 68.0
780.446838 560.0
780.787048 36.0
781.017944 256.0
781.168396 64.0
781.465576 1348.0
781.816467 88.0
782.016602 40.0
782.248352 32.0
782.470398 1136.0
782.765442 48.0
782.943787 44.0
783.466858 1004.0
783.871582 40.0
784.458313 312.0
784.780396 44.0
784.924927 116.0
785.085693 40.0
785.492065 216.0
785.657349 172.0
786.473572 188.0
786.74762 36.0
787.087402 28.0
787.391418 96.0
787.511353 80.0
788.196594 28.0
788.482971 36.0
788.984192 36.0
789.441711 64.0
789.772278 40.0
790.486755 88.0
790.972961 100.0
791.442078 488.0
792.093567 124.0
792.444275 264.0
792.784729 52.0
793.435913 164.0
794.005676 84.0
794.447388 140.0
794.598572 24.0
795.26355 40.0
795.433228 504.0
796.094604 36.0
796.434937 200.0
797.285767 104.0
797.466064 540.0
797.638184 36.0
798.052307 28.0
798.487671 388.0
798.799805 40.0
799.097107 60.0
799.473877 3104.0
799.800049 44.0
800.235596 52.0
800.479614 1532.0
801.044434 32.0
801.475098 1412.0
801.769226 120.0
802.059082 40.0
802.289795 64.0
802.475464 560.0
802.777405 32.0
803.473999 92.0
804.450195 68.0
804.81958 36.0
805.307922 44.0
805.448425 200.0
806.446716 56.0
806.647156 92.0
806.86438 36.0
807.317139 84.0
807.47821 112.0
807.860596 28.0
807.987427 96.0
808.478149 748.0
808.792847 36.0
809.165649 40.0
809.470947 1080.0
809.720764 40.0
810.036255 24.0
810.474609 848.0
810.834717 160.0
811.135803 96.0
811.469177 308.0
812.023682 84.0
812.473022 476.0
812.891418 68.0
813.422119 560.0
813.63916 88.0
813.850708 28.0
814.430481 280.0
814.687439 52.0
815.32251 40.0
815.466736 172.0
815.858459 36.0
816.271118 36.0
816.502502 1356.0
816.916382 44.0
817.508057 824.0
817.978882 72.0
818.506836 596.0
818.749878 88.0
819.480957 300.0
819.753418 32.0
820.27063 36.0
820.473206 204.0
821.305481 84.0
821.436951 224.0
821.652649 24.0
822.441223 304.0
822.749329 28.0
822.877319 44.0
823.17981 96.0
823.488281 72.0
823.878784 32.0
824.080627 72.0
824.455505 372.0
824.60437 140.0
824.981567 160.0
825.451782 212.0
825.842285 32.0
825.988892 28.0
826.117126 32.0
826.488892 1752.0
826.813477 36.0
827.501709 576.0
828.165283 128.0
828.298889 44.0
828.48877 448.0
829.052917 44.0
829.484619 480.0
829.712097 92.0
830.035767 120.0
830.299805 104.0
830.473877 232.0
830.971802 104.0
831.517273 116.0
831.935364 28.0
832.490906 124.0
832.854919 32.0
833.471924 348.0
833.719788 164.0
834.464355 416.0
834.806091 44.0
835.542969 112.0
835.893127 40.0
836.088623 72.0
836.494324 52.0
836.980835 24.0
837.490356 296.0
838.494324 64.0
838.82605 28.0
839.466858 68.0
840.13739 36.0
840.501038 184.0
840.8396 36.0
841.464905 76.0
842.488708 132.0
842.689087 32.0
843.459106 204.0
844.444031 132.0
844.966675 128.0
845.527588 76.0
846.301392 88.0
846.5 56.0
847.486145 92.0
847.551697 80.0
847.587952 124.0
848.498535 164.0
849.450623 204.0
849.865601 24.0
850.480591 352.0
851.496094 536.0
852.483215 388.0
853.009094 80.0
853.473877 96.0
854.477783 136.0
854.704163 108.0
855.528137 168.0
856.495605 128.0
857.495605 64.0
857.651245 32.0
857.912598 32.0
858.136658 32.0
858.518372 100.0
859.107971 32.0
859.2948 72.0
859.500366 60.0
859.687256 28.0
860.468323 224.0
860.734253 28.0
861.457458 548.0
862.456543 472.0
863.452515 140.0
864.010193 36.0
864.339844 88.0
864.518616 144.0
865.488281 200.0
866.495667 516.0
867.501343 168.0
868.492126 216.0
869.510559 492.0
870.507935 144.0
871.502563 116.0
871.784851 24.0
872.180176 52.0
872.510803 148.0
872.839172 52.0
873.159363 32.0
873.547302 348.0
874.516113 108.0
874.949707 36.0
875.176025 36.0
875.5047 76.0
875.855042 28.0
876.062561 24.0
876.496582 108.0
877.528381 128.0
878.456238 168.0
879.468079 136.0
880.067078 32.0
880.501465 208.0
880.785828 28.0
881.507812 240.0
882.308777 68.0
882.517395 172.0
883.13324 44.0
883.517029 428.0
883.910095 136.0
884.194397 32.0
884.51355 508.0
885.520142 380.0
886.033997 40.0
886.517029 288.0
886.963989 52.0
887.504089 132.0
887.75592 40.0
888.255432 64.0
888.502441 128.0
888.711426 36.0
888.882507 24.0
889.505615 192.0
890.533569 24.0
891.539673 408.0
891.963989 76.0
892.154358 28.0
892.513916 680.0
893.030457 32.0
893.51416 328.0
894.316711 152.0
894.505554 240.0
894.974548 56.0
895.26062 32.0
895.499329 184.0
895.947388 40.0
896.494995 92.0
896.806213 28.0
897.264404 84.0
897.510986 524.0
898.479553 288.0
898.658875 100.0
898.849976 24.0
899.533936 772.0
899.863159 36.0
900.379517 32.0
900.547913 400.0
900.857788 48.0
901.087402 32.0
901.324219 40.0
901.542358 236.0
901.78595 32.0
902.350769 120.0
902.541931 236.0
903.550171 152.0
903.749146 80.0
904.516113 132.0
905.365112 28.0
905.550964 116.0
906.505798 128.0
906.930237 180.0
907.493774 40.0
908.511963 312.0
908.755005 56.0
909.065186 120.0
909.533752 912.0
909.96875 36.0
910.305725 84.0
910.516724 1212.0
911.51825 688.0
912.516724 380.0
912.759094 100.0
913.048035 72.0
913.514709 260.0
913.953552 40.0
914.261902 52.0
914.538269 104.0
915.264465 72.0
915.544861 52.0
916.171082 68.0
916.479858 44.0
917.11676 28.0
917.548157 140.0
917.831177 44.0
918.333374 40.0
918.477356 80.0
918.816345 36.0
919.086914 48.0
919.552856 72.0
919.741333 28.0
920.565125 144.0
921.514893 180.0
922.286804 64.0
922.542297 120.0
922.743042 40.0
922.917297 144.0
923.100647 36.0
923.531982 184.0
923.847107 176.0
924.292786 96.0
924.520508 268.0
924.816101 32.0
924.97937 76.0
925.353394 28.0
925.552917 108.0
926.532959 120.0
926.850708 88.0
927.046753 24.0
927.536133 4216.0
927.862122 80.0
928.114563 68.0
928.541565 2108.0
929.071533 40.0
929.537964 1728.0
930.090271 88.0
930.336914 48.0
930.539734 740.0
931.341064 32.0
931.567383 272.0
931.961609 36.0
932.275085 36.0
932.537109 124.0
934.144531 32.0
934.319885 28.0
934.586914 176.0
934.86554 28.0
935.501404 244.0
936.171875 32.0
936.522949 136.0
937.401062 120.0
937.55719 32.0
937.986633 64.0
938.55426 140.0
938.740234 88.0
938.794434 88.0
939.113342 52.0
939.550476 252.0
940.322754 48.0
940.552002 204.0
941.152039 88.0
941.569946 200.0
942.012695 32.0
942.159424 80.0
942.516113 204.0
943.08905 72.0
943.537659 84.0
943.872253 60.0
944.2052 28.0
944.559082 380.0
944.871338 24.0
945.567078 80.0
946.514587 124.0
947.12085 60.0
947.512756 52.0
948.244568 28.0
948.5625 424.0
949.552856 284.0
949.835266 44.0
949.992432 60.0
950.338562 64.0
950.532166 216.0
951.093018 96.0
951.537354 64.0
952.11554 40.0
952.519714 124.0
953.059937 24.0
953.497498 52.0
953.695435 56.0
953.827576 92.0
954.162292 32.0
954.549805 124.0
954.950073 28.0
955.554993 76.0
956.014099 124.0
956.574341 568.0
957.568726 288.0
957.986084 144.0
958.15332 44.0
958.360962 88.0
958.575623 264.0
959.546021 80.0
960.651489 28.0
960.829346 136.0
961.567993 148.0
961.797791 180.0
962.153625 28.0
962.498596 88.0
963.533752 208.0
964.548462 124.0
965.30011 36.0
965.530396 136.0
966.539734 864.0
967.10321 76.0
967.544373 572.0
967.936035 24.0
968.361389 40.0
968.553711 476.0
969.035767 36.0
969.551636 344.0
970.026184 56.0
970.546509 240.0
971.270691 68.0
971.548218 184.0
972.216125 124.0
972.536377 196.0
972.960083 28.0
973.559326 148.0
974.557617 92.0
975.427185 136.0
975.586487 48.0
975.735352 92.0
976.004639 96.0
976.61853 44.0
977.219849 168.0
977.567993 60.0
978.270813 96.0
978.542175 172.0
978.700928 80.0
979.53009 108.0
980.173462 36.0
980.544739 128.0
980.914978 116.0
981.565796 164.0
982.068115 32.0
982.347839 48.0
982.551392 268.0
982.807373 48.0
983.071411 132.0
983.595337 108.0
983.786865 48.0
984.026794 128.0
984.186768 36.0
984.555054 4032.0
985.066895 28.0
985.240234 64.0
985.562134 2136.0
986.174316 24.0
986.356323 32.0
986.561401 1404.0
986.979126 60.0
987.188782 32.0
987.554932 788.0
987.970032 156.0
988.176514 52.0
988.560547 304.0
989.112427 52.0
989.560303 184.0
989.916565 56.0
990.508484 144.0
991.158386 80.0
991.534729 176.0
992.001465 52.0
992.254028 132.0
992.483398 44.0
993.527954 76.0
994.552002 180.0
995.585327 140.0
995.862244 108.0
996.549316 112.0
997.305176 136.0
997.654175 160.0
997.940979 44.0
998.564697 256.0
999.572449 180.0
999.848633 100.0
1000.495483 120.0
1001.238342 36.0
1001.583618 232.0
1001.815796 64.0
1002.14624 48.0
1002.568298 580.0
1002.993958 168.0
1003.377563 124.0
1003.581726 172.0
1004.570007 244.0
1004.811707 60.0
1005.56311 204.0
1006.552429 96.0
1007.519287 256.0
1008.550415 440.0
1008.897583 24.0
1009.140564 24.0
1009.558411 132.0
1009.86969 84.0
1010.095215 88.0
1010.58136 108.0
1010.932983 40.0
1011.402039 52.0
1011.581665 380.0
1011.87616 32.0
1012.579041 116.0
1012.869995 40.0
1013.594116 140.0
1014.583862 76.0
1015.041931 44.0
1015.610657 60.0
1016.057617 24.0
1016.43988 84.0
1016.501038 68.0
1017.584656 100.0
1018.009216 48.0
1018.557129 124.0
1018.595276 64.0
1019.372375 76.0
1019.606873 152.0
1019.820129 172.0
1020.125549 32.0
1020.268066 24.0
1020.51001 192.0
1020.538635 112.0
1021.262329 128.0
1021.565735 96.0
1021.856873 44.0
1022.541382 340.0
1023.165527 40.0
1023.567017 288.0
1024.201538 32.0
1024.574097 156.0
1024.874878 44.0
1025.058594 48.0
1025.606812 208.0
1026.586182 272.0
1027.182251 28.0
1027.630981 240.0
1028.060913 84.0
1028.232056 40.0
1028.576904 116.0
1028.899048 36.0
1029.599243 112.0
1029.880737 36.0
1030.239868 40.0
1030.593262 88.0
1030.774658 76.0
1031.108521 116.0
1031.374634 28.0
1031.597778 624.0
1032.615967 404.0
1032.869629 40.0
1033.562866 120.0
1034.242676 112.0
1034.602051 168.0
1034.878296 24.0
1035.329468 24.0
1035.61377 264.0
1036.593262 316.0
1037.381592 64.0
1037.604736 256.0
1038.120972 32.0
1038.264648 48.0
1038.570923 596.0
1039.394653 96.0
1039.590454 340.0
1039.822632 44.0
1040.237427 28.0
1040.574951 192.0
1041.570435 272.0
1042.56958 196.0
1042.870728 120.0
1043.097168 28.0
1043.630859 180.0
1044.074219 144.0
1044.605713 152.0
1045.218872 52.0
1045.628662 112.0
1045.857788 36.0
1046.105225 48.0
1046.580811 164.0
1046.888794 48.0
1047.594604 76.0
1048.044189 84.0
1048.3125 60.0
1048.686035 176.0
1048.862061 32.0
1049.303345 32.0
1049.580566 668.0
1049.835205 48.0
1049.981079 148.0
1050.576538 524.0
1050.796265 44.0
1050.976562 52.0
1051.582153 380.0
1052.584717 168.0
1052.878662 40.0
1053.58374 628.0
1054.125 64.0
1054.607666 336.0
1054.989502 72.0
1055.60022 1056.0
1055.936523 44.0
1056.170044 100.0
1056.599487 792.0
1057.061035 40.0
1057.404053 80.0
1057.596191 540.0
1058.589478 248.0
1059.629639 96.0
1060.213623 68.0
1060.598633 204.0
1060.857178 40.0
1061.211426 68.0
1061.397095 88.0
1061.568115 68.0
1061.978638 32.0
1062.37207 60.0
1062.618774 100.0
1063.163086 36.0
1063.329346 44.0
1063.638428 288.0
1063.960693 88.0
1064.334839 56.0
1064.60437 352.0
1064.909668 48.0
1065.110352 68.0
1065.172119 84.0
1065.580688 188.0
1065.942505 56.0
1066.178955 52.0
1066.596924 364.0
1066.784424 204.0
1067.164429 60.0
1067.275391 36.0
1067.379517 36.0
1067.597412 7552.0
1068.238281 100.0
1068.385132 64.0
1068.598877 4588.0
1069.033569 36.0
1069.598999 3520.0
1070.199951 64.0
1070.599487 1832.0
1071.046143 56.0
1071.625977 2916.0
1071.923828 72.0
1071.980591 36.0
1072.289307 40.0
1072.432495 100.0
1072.632935 1896.0
1073.037964 32.0
1073.255981 36.0
1073.626953 1124.0
1074.056763 36.0
1074.416504 20.0
1074.626465 420.0
1075.5979 220.0
1075.890137 32.0
1076.225464 96.0
1076.608521 184.0
1076.896729 48.0
1077.050903 40.0
1077.633423 376.0
1077.857422 80.0
1078.630859 76.0
1078.868408 100.0
1079.609253 108.0
1079.887451 152.0
1080.099365 52.0
1080.304565 48.0
1080.631714 316.0
1080.861694 44.0
1081.008423 32.0
1081.158447 128.0
1081.311035 60.0
1081.612427 1068.0
1081.976196 48.0
1082.236328 84.0
1082.617432 732.0
1082.9375 44.0
1083.242798 36.0
1083.620361 552.0
1084.410034 188.0
1084.583862 288.0
1085.078247 32.0
1085.246216 32.0
1085.612793 336.0
1086.17041 44.0
1086.609375 156.0
1086.799927 108.0
1086.989868 72.0
1087.639893 108.0
1087.977905 28.0
1088.597778 48.0
1088.861206 24.0
1089.260864 28.0
1089.567261 120.0
1090.570068 68.0
1091.091919 28.0
1091.449951 116.0
1091.765869 28.0
1092.588501 56.0
1092.77478 36.0
1093.219727 44.0
1093.634033 128.0
1093.830933 32.0
1094.19519 44.0
1094.626343 436.0
1094.983765 68.0
1095.244019 24.0
1095.60022 828.0
1095.929077 60.0
1096.151245 36.0
1096.595581 628.0
1096.995605 60.0
1097.178589 60.0
1097.603516 564.0
1098.229126 104.0
1098.610229 544.0
1098.830078 64.0
1099.221802 120.0
1099.624023 10144.0
1100.329712 112.0
1100.625488 5768.0
1101.041748 84.0
1101.230713 84.0
1101.624634 3896.0
1101.93457 84.0
1102.171509 28.0
1102.382812 52.0
1102.620239 1956.0
1103.007568 156.0
1103.251709 36.0
1103.631348 692.0
1103.823486 36.0
1103.90918 36.0
1104.207031 28.0
1104.365845 40.0
1104.621582 192.0
1105.565063 80.0
1105.837036 100.0
1105.887573 144.0
1106.177856 56.0
1106.574951 168.0
1107.004883 80.0
1107.193604 40.0
1107.598755 92.0
1107.768555 36.0
1108.62561 72.0
1108.819946 48.0
1109.078369 104.0
1109.625244 92.0
1109.954956 156.0
1110.531982 140.0
1110.796143 36.0
1110.974487 44.0
1111.329346 144.0
1111.615967 156.0
1111.824585 40.0
1112.108032 48.0
1112.270996 80.0
1112.621338 2476.0
1113.206665 36.0
1113.398071 64.0
1113.623169 1144.0
1114.102783 56.0
1114.626099 1300.0
1115.015137 40.0
1115.27063 44.0
1115.624878 732.0
1116.034912 40.0
1116.625366 348.0
1117.031128 56.0
1117.630859 912.0
1118.274292 48.0
1118.636963 464.0
1119.148438 44.0
1119.629639 444.0
1120.369751 124.0
1120.624512 132.0
1120.897827 32.0
1121.303345 56.0
1121.611816 88.0
1122.114624 24.0
1122.592529 212.0
1123.460205 24.0
1123.652588 24.0
1124.240479 100.0
1124.635742 96.0
1125.608032 40.0
1126.111206 36.0
1126.670166 72.0
1127.288086 44.0
1127.640259 180.0
1128.132935 60.0
1128.628906 176.0
1129.635986 52.0
1130.21814 64.0
1130.649292 1016.0
1131.079468 44.0
1131.660034 660.0
1131.980103 44.0
1132.654297 592.0
1133.13855 24.0
1133.645752 256.0
1133.968384 36.0
1134.168701 44.0
1134.636353 416.0
1135.3927 28.0
1135.624512 132.0
1136.166138 40.0
1136.316528 88.0
1136.627197 308.0
1136.969971 52.0
1137.209717 72.0
1137.626587 520.0
1138.621948 408.0
1139.644653 140.0
1139.994019 40.0
1140.611816 104.0
1141.635864 104.0
1142.645874 176.0
1143.665771 44.0
1144.281006 100.0
1144.64502 64.0
1145.035889 32.0
1145.575195 36.0
1145.791016 92.0
1146.41687 28.0
1146.589478 108.0
1147.323486 48.0
1147.650391 196.0
1148.338501 36.0
1148.617065 320.0
1149.126465 32.0
1149.680786 148.0
1150.067261 36.0
1150.634155 296.0
1151.278198 44.0
1151.649902 512.0
1152.636353 432.0
1153.139038 24.0
1153.647461 336.0
1154.127808 36.0
1154.62085 256.0
1155.635498 64.0
1156.141602 52.0
1156.654785 88.0
1157.640015 44.0
1158.318481 68.0
1158.636597 80.0
1158.787231 132.0
1159.681274 264.0
1160.665283 312.0
1161.629639 276.0
1162.200317 128.0
1162.601562 320.0
1162.987549 36.0
1163.628418 192.0
1164.697021 168.0
1165.053711 36.0
1165.227783 44.0
1165.63269 364.0
1166.01123 32.0
1166.647827 204.0
1167.012695 52.0
1167.426514 36.0
1167.650146 604.0
1168.150513 52.0
1168.649292 628.0
1169.256836 32.0
1169.644775 672.0
1169.893555 96.0
1170.63916 236.0
1170.897827 120.0
1171.37207 32.0
1171.636475 248.0
1171.925537 44.0
1172.642822 168.0
1172.965332 32.0
1173.161743 24.0
1173.689209 40.0
1174.231812 36.0
1174.677124 308.0
1175.602051 80.0
1175.655518 80.0
1176.089355 28.0
1176.26416 44.0
1176.6875 56.0
1177.253662 32.0
1177.655151 524.0
1178.222534 64.0
1178.627686 2744.0
1178.998657 64.0
1179.366821 44.0
1179.630493 1916.0
1180.268433 44.0
1180.63208 848.0
1180.977905 92.0
1181.188477 28.0
1181.620239 552.0
1182.63855 428.0
1183.244263 40.0
1183.672363 764.0
1184.084839 32.0
1184.257568 76.0
1184.655029 560.0
1184.981567 68.0
1185.189575 84.0
1185.660522 316.0
1186.069092 52.0
1186.219482 60.0
1186.646484 200.0
1186.979248 36.0
1187.673706 188.0
1188.570557 28.0
1188.922974 60.0
1189.125122 48.0
1189.305664 32.0
1189.723755 36.0
1190.197021 96.0
1190.385864 36.0
1190.638794 152.0
1190.850098 36.0
1191.023682 32.0
1191.260254 64.0
1191.692017 1380.0
1192.205566 124.0
1192.375488 28.0
1192.682617 1172.0
1192.99707 104.0
1193.237549 40.0
1193.653198 708.0
1193.976196 32.0
1194.316772 36.0
1194.640137 668.0
1195.012207 96.0
1195.307983 168.0
1195.65979 9460.0
1196.212769 32.0
1196.659058 8392.0
1196.97644 36.0
1197.260986 160.0
1197.655396 4596.0
1198.118042 32.0
1198.338623 280.0
1198.65332 2100.0
1199.072876 104.0
1199.685181 2192.0
1200.11792 20.0
1200.426147 36.0
1200.683228 1220.0
1201.015747 24.0
1201.394653 20.0
1201.685791 728.0
1202.112671 36.0
1202.329224 104.0
1202.692993 504.0
1203.136841 36.0
1203.441528 32.0
1203.724121 164.0
1204.237793 56.0
1204.658081 100.0
1204.98999 76.0
1205.268311 44.0
1205.584717 32.0
1205.861938 48.0
1206.317993 32.0
1206.530273 48.0
1207.231812 144.0
1207.918335 188.0
1208.222778 56.0
1208.697876 148.0
1208.927124 36.0
1209.186157 60.0
1209.361938 84.0
1209.677979 1540.0
1210.16394 120.0
1210.389648 32.0
1210.659302 6616.0
1211.263916 24.0
1211.410034 88.0
1211.662231 3916.0
1211.984741 80.0
1212.159546 44.0
1212.391357 104.0
1212.666016 3424.0
1213.152466 84.0
1213.440674 44.0
1213.658936 1652.0
1213.943848 36.0
1214.190552 108.0
1214.64563 312.0
1214.842896 76.0
1215.006958 64.0
1215.301392 28.0
1215.670532 276.0
1216.157104 36.0
1216.401733 36.0
1216.657837 108.0
1216.910156 88.0
1217.693359 48.0
1218.036255 52.0
1218.327393 48.0
1218.767822 52.0
1219.0177 40.0
1219.307373 140.0
1219.616333 28.0
1219.794434 124.0
1220.086914 124.0
1220.292358 68.0
1220.523315 92.0
1220.58374 92.0
1220.670898 72.0
1221.08728 108.0
1221.511963 100.0
1221.734131 76.0
1222.039429 80.0
1222.205688 64.0
1222.275146 100.0
1222.363037 136.0
1222.431885 80.0
1222.669189 148.0
1222.943481 48.0
1223.213135 68.0
1223.360229 108.0
1223.644531 356.0
1223.843872 84.0
1224.075928 76.0
1224.649048 196.0
1224.932251 76.0
1225.222046 92.0
1225.397949 20.0
1225.692139 424.0
1225.939453 148.0
1226.125488 68.0
1226.302002 164.0
1226.714478 312.0
1227.07312 216.0
1227.318604 232.0
1227.478882 420.0
1227.686035 76536.0
1228.101318 196.0
1228.184204 232.0
1228.686401 40824.0
1229.127808 196.0
1229.2854 196.0
1229.685547 33876.0
1230.354248 208.0
1230.687378 13424.0
1231.219971 172.0
1231.684448 4048.0
1232.155396 64.0
1232.22876 52.0
1232.512085 60.0
1232.697144 468.0
1232.896362 84.0
1233.427124 108.0
1233.544556 32.0
1233.669067 96.0
1233.900635 108.0
1234.252686 44.0
1234.480225 48.0
1234.960938 32.0
1235.128418 40.0
1235.275024 80.0
1235.428711 72.0
1235.63208 104.0
1235.799194 100.0
1236.090454 128.0
1236.255005 32.0
1236.661255 60.0
1237.5271 60.0
1238.073975 40.0
1238.226074 36.0
1238.500122 40.0
1238.847168 60.0
1239.103149 32.0
1239.153931 28.0
1239.62207 64.0
1239.801636 48.0
1240.076538 48.0
1240.272949 28.0
1240.775391 52.0
1241.10376 24.0
1241.520142 56.0
1241.718994 44.0
1241.996948 136.0
1242.339233 60.0
1242.653809 36.0
1242.856079 36.0
1243.103271 40.0
1243.487671 40.0
1243.873657 44.0
1244.047363 52.0
1244.381104 52.0
1245.059326 28.0
1245.216797 32.0
1245.599243 28.0
1245.779297 40.0
1246.476807 40.0
1247.238647 32.0
1247.64917 52.0
1248.368042 88.0
1248.750977 60.0
1249.262329 40.0
1249.492065 40.0
1249.6521 64.0
1250.357422 40.0
1251.0271 104.0
1251.39917 32.0
1252.064453 48.0
1252.230835 60.0
1252.447876 40.0
1252.854004 44.0
1253.237671 28.0
1253.621338 32.0
1253.779297 68.0
1254.230713 40.0
1254.468872 80.0
1254.727417 40.0
1255.133911 32.0
1255.495361 44.0
1256.376343 24.0
1256.602295 24.0
1256.873535 40.0
1257.144653 48.0
1257.506348 36.0
1257.812622 44.0
1258.289307 44.0
1258.704712 52.0
1259.134399 52.0
1260.016724 44.0
1260.537231 64.0
1261.11853 88.0
1261.578491 40.0
1261.737061 44.0
1261.986084 40.0
1262.506958 24.0
1263.628418 56.0
1265.090454 44.0
1265.407837 56.0
1265.566528 28.0
1270.855957 28.0
1272.037842 36.0
1273.652588 128.0
1274.699219 24.0
1275.974121 28.0
1276.292847 24.0
1278.115356 32.0
1278.411621 48.0
1280.775146 92.0
1281.102539 44.0
1281.285034 32.0
1281.787109 72.0
1281.946899 32.0
1282.563232 136.0
1283.979004 28.0
1284.45874 32.0
1284.778564 48.0
1287.819214 84.0
1290.153687 92.0
1290.7948 68.0
1291.311768 120.0
1295.012207 92.0
1296.205444 124.0
1296.894043 44.0
1304.641724 116.0
1305.747192 84.0
1314.653564 56.0
1328.093262 84.0
1328.883179 32.0
1329.952393 128.0
1334.99939 120.0
1335.840332 32.0
1339.593994 100.0
1344.077393 32.0
1349.083252 108.0
1362.720825 80.0
1365.710938 48.0
1367.76123 88.0
1369.459106 84.0
1370.450073 64.0
1372.126099 24.0
1372.551147 156.0
1378.272217 124.0
1381.160889 32.0
1387.612183 148.0
1388.799683 104.0
1392.983887 36.0
1397.627075 144.0
1398.556641 32.0
1400.774536 80.0
1404.044922 84.0
1405.430664 176.0
1408.108521 56.0
1409.089355 44.0
1418.172974 100.0
1419.469482 56.0
1421.523926 124.0
1423.483154 44.0
1425.961426 36.0
1426.779907 32.0
1427.478271 196.0
1432.492188 28.0
1435.751099 112.0
1438.409302 92.0
1439.521606 104.0
1441.529785 120.0
1444.82312 120.0
1455.552734 68.0
1459.811768 100.0
1460.724121 48.0
1464.61377 76.0
1466.175537 92.0
1480.464722 76.0
1486.135864 120.0
1490.488647 92.0
1499.885864 132.0
1502.670776 76.0
1510.861084 164.0
1511.43103 44.0
1512.67041 64.0
1513.910278 136.0
1530.324219 120.0
1533.667603 92.0
1537.98938 68.0
1538.989502 120.0
1542.667847 96.0
1544.020142 120.0
1551.920288 44.0
1552.924927 104.0
1563.97229 68.0
1572.504639 44.0
1581.161621 40.0
1584.661621 120.0
1602.142578 84.0
1604.797241 64.0
1615.437866 92.0
1621.618408 64.0
1626.525024 72.0
1634.220947 60.0
1634.633301 44.0
1637.830688 104.0
1640.876221 136.0
1669.324829 64.0
1697.466431 32.0
1697.965576 92.0
1698.228149 28.0
1717.273926 80.0
1721.7146 24.0
1753.254028 28.0
1754.552002 84.0
1780.665527 76.0
1819.774048 32.0
1838.421509 40.0
1901.989014 24.0
1902.767578 76.0
END IONS
