BEGIN IONS
PEPMASS=716.307
CHARGE=1
MSLEVEL=2
SOURCE_INSTRUMENT=LC-ESI-qTof
FILENAME=5a_15b-O-diacetoxy-7b-O-benzoyloxy-14b-nicotynoyloxy-3b-O-propanoyloxymyrsinol.mgf
SEQ=*..*
IONMODE=Positive
ORGANISM=GNPS-LIBRARY
NAME="5_,15_-O-diacetoxy-7_-O-benzoyloxy-14_-nicotynoyloxy-3_-O-propanoyloxymyrsinol" M+H
PI=LITAUDON/TOUBOUL
DATACOLLECTOR=Esposito
SMILES=C[C@H]1C[C@@]2(OC(C)=O)[C@]([C@@H](OC(C)=O)[C@@]([C@H](OC(C3=CC=CC=C3)=O)C=C[C@@H]4C(C)=C)(CO5)[C@]4([H])[C@]5(C)[C@@H]2OC(C6=CN=CC=C6)=O)([H])[C@H]1OC(CC)=O
INCHI=
INCHIAUX=
PUBMED=N/A
SUBMITUSER=lfnothias
TAGS=
LIBRARYQUALITY=1
SPECTRUMID=CCMSLIB00000840361
SCANS=1
50.015289 160.815002
51.022964 706.972778
52.030773 276.404114
53.039181 769.111084
55.054867 298.116791
57.033585 2169.769043
57.071381 248.042206
65.037895 158.283798
67.054565 281.764099
69.033401 439.737091
69.070305 714.601501
71.049965 284.349915
77.038307 1571.727051
78.034348 6482.430176
78.084747 131.769104
79.042 527.2677
79.054504 666.055725
80.049538 2255.003906
81.070671 1239.989014
83.04953 809.008423
83.08638 264.894989
91.054771 878.960022
93.069969 2584.958008
94.07196 228.0
95.049576 412.127289
95.085526 1120.475952
97.066093 556.724121
99.078926 235.084
105.033829 39126.019531
105.068367 3268.781006
106.028984 50913.679688
106.187981 157.892899
106.258263 155.376801
106.424881 160.002396
107.032303 648.469727
107.047348 350.54541
107.085533 2612.398926
108.044098 1172.036987
109.029488 117.0914
109.064514 1657.032959
111.080933 482.742615
116.062515 145.018204
117.069733 571.792419
119.047249 154.247192
119.085274 1239.099976
120.056534 139.241501
121.064636 1327.026978
121.099815 261.840088
122.025223 273.059296
122.059914 412.234711
123.044205 235.885101
123.08046 1053.089966
124.039825 113836.703125
124.397575 122.775597
124.440117 128.620697
124.46225 139.831802
124.602257 149.529495
124.621452 203.949005
124.674797 134.361893
124.685356 156.924805
124.955215 116.815002
125.042099 812.549622
125.057594 619.315674
129.069839 1267.25
131.085297 4655.380859
133.064575 1189.390991
133.09964 917.573425
135.079926 1820.453003
137.061172 143.0625
138.054291 263.489807
139.075073 250.451797
141.069794 258.242188
142.077194 333.076813
143.086166 4500.898926
144.089478 410.802612
145.065674 1040.280029
145.101532 3330.919922
146.104706 195.065308
147.044159 173.865097
147.079636 2331.407959
147.115891 270.241089
149.060013 142.976303
149.096527 503.111115
151.07579 635.578613
153.068604 237.5
153.090195 609.023376
154.077225 307.044006
155.067932 161.480301
155.085587 2426.522949
156.092255 223.1315
157.064865 422.469788
157.101227 3697.5
157.175156 122.050598
158.105133 161.314301
159.080505 3690.715088
159.115448 731.204712
160.087753 290.640594
161.058258 146.261795
161.095932 2666.676025
163.075485 625.578613
163.1129 169.070206
165.070953 745.474487
165.088791 385.605194
166.049255 216.169098
166.077881 379.656799
167.085648 1125.947021
169.101044 2474.26709
171.080704 1405.958984
171.116776 990.303772
173.056122 124.235497
173.096039 8226.100586
174.104355 247.917007
175.073685 322.739685
175.089142 308.451508
175.111984 32325.390625
175.189758 404.0
175.410767 121.760002
176.114761 888.584229
177.09111 435.283386
177.126495 139.227203
178.078369 611.012817
179.085068 3320.506104
180.06575 1543.81604
180.091064 820.250916
181.101608 5473.930176
182.102036 182.125
183.079025 743.408875
183.116684 2466.710938
184.122513 263.562988
185.096207 6077.039062
186.100952 307.390503
187.112274 2212.104004
189.091263 310.461395
190.075119 115.204201
191.084793 234.337006
191.105606 115.023903
192.093994 1034.418945
193.101425 6247.314941
194.108688 1403.411011
195.081833 258.107788
195.116898 7179.201172
196.087616 158.560303
196.12001 376.716705
197.096451 2230.254883
197.13237 2751.729004
198.134506 180.578293
199.113281 592.274292
200.118088 263.001099
201.092926 386.276703
202.078369 284.326599
203.085144 593.138916
203.10672 2982.819092
204.092239 367.909088
205.101669 1890.310059
206.109634 1521.715942
207.116882 8590.322266
208.123184 1096.892944
209.096008 1367.990967
209.132675 5639.350098
210.103668 402.726715
210.137283 458.889709
211.111023 1190.38501
211.149445 1010.494019
212.120361 155.111496
213.089828 176.864304
213.127625 525.427002
214.091309 121.3657
215.105637 671.336609
216.100922 564.243774
217.101379 1889.23999
217.118317 1260.186035
218.108612 1282.649048
219.080551 116.4571
219.117172 5764.897949
220.124344 2334.201904
221.097519 1378.453979
221.132721 9480.548828
222.105606 627.640625
222.139404 897.763916
223.110947 2298.297119
223.14798 3265.864014
224.119904 309.888885
224.150406 250.746704
225.088791 203.223297
225.127472 2725.800049
225.161606 1685.652954
227.106033 448.108185
227.141632 543.748474
228.034271 175.121201
228.064606 1559.715942
228.103546 354.166504
229.065308 136.938004
229.09993 564.014587
229.119537 469.328888
229.158264 174.777802
230.084656 232.587296
230.109024 603.860229
231.117767 532.314026
231.136414 317.283813
232.097504 350.074005
232.125443 4176.336914
233.132828 7233.757812
234.10582 361.853302
234.140549 4614.76709
235.112244 6284.194824
235.148071 25377.089844
235.234833 330.810089
235.445389 116.375
236.117935 719.094727
236.152542 1179.031982
237.128159 2572.019043
237.164169 7242.744141
238.132812 199.826599
238.16748 671.630615
239.143341 5075.520996
239.17775 1205.327026
240.106628 175.004807
240.144684 204.273102
240.325531 129.852493
241.156235 214.840897
242.11731 397.082794
243.11348 162.095093
243.138626 261.8013
243.175629 310.344788
244.098465 852.037476
244.125076 2255.895996
245.119827 592.839417
246.112656 129.470001
246.139694 275.359985
247.148407 33835.75
247.396133 119.783699
247.605225 176.8517
247.650604 154.280701
247.779129 125.483002
248.116882 266.557709
248.153198 1810.569946
249.127502 954.660522
249.164551 18459.769531
249.251312 155.938293
249.338898 122.404404
249.408981 137.204697
250.133499 378.409088
250.167191 1312.531982
251.108871 399.645111
251.142792 2756.11792
252.108231 229.003799
252.150711 539.820496
253.122131 798.806396
253.159027 6906.540039
254.117661 466.626007
254.16301 317.617401
255.136765 447.108093
256.096954 131.522705
256.132019 127.5187
257.122437 314.497498
257.149872 269.111115
258.11441 376.203186
259.148376 6973.26123
260.155518 563.232117
261.126526 638.409119
262.135529 2363.490967
263.142609 476.484406
264.105011 397.302399
264.151306 437.310608
265.15918 23381.359375
265.245392 166.083298
266.120056 298.586914
266.162964 1443.910034
267.105042 186.563293
267.131439 183.272705
267.174683 7800.492188
268.09433 236.021301
268.140503 275.776398
268.177887 327.963013
269.154022 584.601685
271.171021 361.016602
273.163422 188.476593
275.142059 264.104309
276.103485 195.848099
276.149078 121.775902
277.159119 36745.410156
277.535278 128.654007
277.593719 123.382797
278.11969 626.063171
278.162354 1703.738037
279.138 934.777771
279.170563 270.070312
280.09491 145.066696
280.13382 443.283112
281.118347 646.041687
281.15094 601.962097
282.123138 150.371902
283.169159 881.544495
285.18457 450.961914
286.103973 301.417389
287.144897 171.925903
288.122528 132.016693
290.116486 370.022705
291.173981 220.177994
292.135681 400.755188
292.17749 251.382996
293.153046 378.854706
293.189453 131.574402
294.111572 240.093094
294.157562 165.0345
295.133545 674.71637
295.170197 15941.799805
295.266296 201.065094
296.122742 129.035904
296.175415 472.291412
297.150726 117.028702
297.182343 147.962204
298.14502 149.803604
299.160461 145.042297
301.124786 488.752899
302.11792 602.910828
304.129181 386.473694
305.188904 293.456909
307.144257 265.901886
307.169281 482.954803
308.128937 2624.825928
311.163818 219.512604
313.181702 2016.43103
314.11911 305.204895
314.189331 191.366898
315.133423 149.001999
315.171753 114.283401
316.133301 358.107605
317.141571 145.735596
318.134399 439.631592
319.169708 379.240204
321.146515 211.462799
321.184723 1808.228027
322.153931 341.053314
323.19989 432.889191
324.138702 191.093307
325.179718 258.267487
326.151215 127.846199
327.136932 306.434296
327.589508 139.489899
328.131866 294.952393
328.170349 324.634399
329.145752 165.053299
329.172424 197.653
330.148682 741.826477
330.186005 1382.659058
331.187836 136.243195
337.179291 792.051819
338.183746 114.818604
339.192505 479.942993
340.170624 484.434814
341.190674 237.000793
342.149017 417.545685
342.18692 320.416687
343.16861 523.900085
344.125244 120.760399
346.138672 163.1884
346.179901 127.252602
347.182373 134.2603
348.125 275.518494
348.197052 176.471207
350.134155 165.222397
351.195557 1775.07605
352.167938 339.72641
354.182098 258.916809
355.128021 118.271698
355.166321 363.735809
355.186768 516.007507
357.180664 863.182312
358.14502 325.031494
358.181 7963.775879
359.185516 200.232697
360.157959 124.810699
361.178558 604.959778
367.156036 181.681503
369.202515 1473.756958
370.180542 20271.0
370.28476 162.195404
370.633636 144.580597
370.799591 134.001099
371.185242 1490.470947
372.196716 1122.631958
376.191925 1787.187012
381.192596 432.13739
382.181213 3257.302002
388.190613 1961.79895
389.189178 113.913597
398.180511 156.657898
399.19812 714.47467
400.191528 9468.381836
400.30661 130.005203
401.192505 650.927307
402.200928 173.086502
411.215973 611.647217
412.216858 119.245102
417.198242 219.614594
418.200989 5412.347168
419.200439 184.492203
429.229187 274.013214
430.202301 141.202301
432.216095 416.525604
436.213745 775.9375
443.219727 364.495911
444.218018 3952.699951
450.22641 315.504791
459.21698 202.480804
460.213562 513.571228
474.226807 2716.88501
475.227753 191.264496
478.220398 501.130402
492.23645 912.574585
522.222656 222.506897
534.249573 4127.371094
535.25116 625.92511
540.239929 206.037399
552.259399 615.330383
594.268127 521.654297
596.264709 341.889587
656.286072 374.321808
716.307617 29386.949219
716.652283 160.290497
716.780151 169.695496
716.940002 195.567902
717.194214 123.654404
717.309875 2105.410889
717.536682 116.823502
717.845215 161.535706
718.051697 120.211502
718.096497 123.625
END IONS
