BEGIN IONS
PEPMASS=709.37
CHARGE=1
MSLEVEL=2
SOURCE_INSTRUMENT=LC-ESI-Hybrid FT
FILENAME=f.novakj/siderophores/Desferri_ornibactin_C6.mzXML;
SEQ=*..*
IONMODE=Positive
ORGANISM=GNPS-LIBRARY
NAME=Ornibactin C6 M+H
PI=Havlicek
DATACOLLECTOR=
SMILES=CCCC(O)CC(=O)N(O)CCCC(N)C(=O)NC(C(O)C(O)=O)C(=O)NC(CO)C(=O)NC(CCCN(O)C=O)C(=O)NCCCCN
INCHI=
INCHIAUX=
PUBMED=27956353
SUBMITUSER=novakj
TAGS=
LIBRARYQUALITY=3
SPECTRUMID=CCMSLIB00001059072
SCANS=1
153.065872 489045.0
155.081528 707964.0
159.076447 927961.0
166.876328 480747.0
167.117935 906371.0
173.055725 770049.0
173.092072 726370.0
173.496445 3193673.0
182.128876 473633.0
184.144455 1361046.0
185.164886 606000.0
186.148911 1011195.0
187.821396 490554.0
191.066284 848100.0
198.087387 476902.0
199.071335 1050549.0
200.102966 1202928.0
200.139374 1380058.0
201.050644 569523.0
203.175461 1924750.0
208.319214 473117.0
209.05571 1260964.0
210.624588 760995.0
212.139404 721777.0
218.113586 2116849.0
219.061188 1229827.0
222.501511 542260.0
226.082336 634120.0
227.066315 1640207.0
227.139084 1195688.0
228.097946 776410.0
229.08197 473681.0
229.165955 1152577.0
234.087341 517954.0
236.087723 689013.0
239.113907 767708.0
240.098038 639163.0
244.092834 3529346.0
245.076904 517409.0
245.096176 612828.0
245.149658 1803727.0
246.108475 2123219.0
247.176514 3195006.0
250.082306 888810.0
252.097794 483349.0
253.165955 885907.0
257.124542 763481.0
259.585022 742571.0
262.103333 799466.0
267.108826 665248.0
268.092896 1286334.0
269.124542 473003.0
271.176514 718473.0
277.093231 1148693.0
278.077148 970432.0
281.160889 851305.0
285.119415 2554668.0
288.345367 2959444.0
295.103699 2062687.0
296.087708 2012803.0
297.119385 574183.0
298.187347 534938.0
299.171448 933182.0
313.114288 4556971.0
314.098358 802880.0
314.117645 606501.0
315.129913 891501.0
316.197968 3318212.0
317.181976 647688.0
317.201233 663485.0
322.139862 624457.0
323.098633 572908.0
331.124847 4091145.0
332.128174 546364.0
334.208496 14545793.0
335.211853 2200401.0
340.15033 1248530.0
341.109192 1162856.0
343.233856 512734.0
349.135498 921545.0
355.208832 529613.0
356.190369 622432.0
358.160889 3632450.0
359.119751 6197424.0
359.164124 574260.0
360.123077 663413.0
368.192596 592664.0
373.219421 2389073.0
376.171356 2144604.0
377.130341 4117952.0
378.133545 671381.0
380.156403 566353.0
386.203064 673772.0
389.203278 532136.0
390.140839 1777358.0
391.230011 889127.0
399.187469 572297.0
401.214355 949104.0
408.151337 1148004.0
409.171875 670579.0
419.224884 623901.0
424.774506 620266.0
425.178101 514211.0
426.161957 1172691.0
427.182434 875108.0
428.177551 538925.0
429.20929 1272348.0
436.14621 561876.0
443.188477 881866.0
444.208801 687770.0
445.192932 1891316.0
447.219727 5365936.0
448.203857 741569.0
448.223175 967461.0
450.245789 575630.0
453.173126 724922.0
454.15686 847829.0
457.204132 525571.0
461.19928 692828.0
462.219604 782922.0
463.203369 1917139.0
464.207184 507426.0
465.230347 18531768.0
466.233673 3140767.0
467.251282 602197.0
468.256317 659872.0
471.18335 1046298.0
472.167358 599158.0
474.183197 667856.0
475.214539 2146968.0
480.230011 747442.0
489.193939 1349743.0
489.230927 549835.0
517.225281 516704.0
524.246399 767445.0
539.245483 596028.0
542.256958 2088029.0
543.260193 570971.0
543.277222 915037.0
551.501709 525391.0
557.256653 755602.0
559.283569 565285.0
560.267517 1637566.0
575.267029 959261.0
577.294128 1334521.0
585.25116 817791.0
593.277649 1114988.0
594.280457 484910.0
603.262024 1830637.0
612.335144 560290.0
621.272705 1949210.0
622.276062 676395.0
635.372498 489167.0
637.767822 510979.0
655.340454 675764.0
667.499268 534815.0
673.351685 1218726.0
674.355042 493612.0
691.362061 2419448.0
692.365234 759311.0
709.372559 5847227.0
END IONS
