BEGIN IONS
PEPMASS=888.547
CHARGE=1
MSLEVEL=2
SOURCE_INSTRUMENT=LC-ESI-qToF
FILENAME=P2_C2_conc_GE2_01_2420.mzXML
SEQ=*..*
IONMODE=Positive
ORGANISM=GNPS-LIBRARY
NAME=_130100 M+H
PI=Cichewicz
DATACOLLECTOR=Luzzatto
SMILES=OC1=CC=C(CC(C(NC(CC(C)C)C(OC(C(CCCCCCCCCC)C)CC(NC(C(NC(C(NC(C(NC2CCC(N)=O)=O)C)=O)C)=O)C(O)C)=O)=O)=O)NC2=O)C=C1
INCHI=N/A
INCHIAUX=N/A
PUBMED=
SUBMITUSER=tal_lk
TAGS=
LIBRARYQUALITY=2
SPECTRUMID=CCMSLIB00000478519
SCANS=2434
91.056229 536.0
97.102928 276.0
100.076714 744.0
101.071167 13556.0
102.053886 408.0
102.073074 740.0
109.099442 428.0
111.111809 424.0
112.077827 416.0
112.110901 320.0
115.086273 5320.0
119.051308 792.0
121.062492 596.0
125.133842 376.0
126.054604 828.0
127.08606 1108.0
129.065048 1304.0
132.102005 15916.0
132.459824 288.0
133.104889 1424.0
134.108932 316.0
135.066467 488.0
136.075302 20460.0
137.078049 2604.0
138.053497 388.0
138.088898 820.0
139.147614 392.0
140.069702 336.0
142.116882 404.0
143.080872 25688.0
144.084564 2048.0
145.094055 600.0
146.091034 804.0
147.075424 840.0
148.073792 424.0
149.133255 300.0
152.107727 340.0
155.080872 3380.0
155.115936 260.0
156.083145 500.0
157.129974 768.0
158.116089 836.0
160.106735 4996.0
161.092422 404.0
162.091095 448.0
165.094559 296.0
166.049515 792.0
169.094284 860.0
171.113739 1288.0
172.108566 1680.0
173.090561 1892.0
174.09201 608.0
181.097092 572.0
182.091202 740.0
183.074524 4532.0
183.125671 440.0
183.149918 844.0
184.078491 348.0
186.087708 320.0
188.126587 508.0
192.10318 1472.0
197.089233 1156.0
197.130829 556.0
198.121872 1088.0
199.106537 2216.0
200.102173 20804.0
201.104233 2852.0
202.084824 1672.0
203.137161 2648.0
204.138107 1188.0
205.139969 328.0
205.193604 1300.0
206.201004 252.0
207.111557 1776.0
208.110214 644.0
209.090591 368.0
210.088196 392.0
211.144669 816.0
212.100449 304.0
216.134415 528.0
217.128937 360.0
218.114166 412.0
219.112045 964.0
220.115097 392.0
223.204681 6992.0
224.207291 1500.0
226.117432 4448.0
227.116074 1008.0
228.099152 684.0
233.12944 320.0
235.107635 2920.0
236.107544 1272.0
240.230621 6908.0
241.233673 904.0
242.149307 1508.0
242.234848 368.0
243.142975 7956.0
244.131134 1936.0
245.130722 920.0
246.122192 4908.0
247.106934 14396.0
247.947968 328.0
248.109512 2972.0
249.109299 336.0
249.157852 6288.0
250.142731 5112.0
250.252563 440.0
251.146759 1312.0
252.091309 460.0
252.228577 764.0
253.125854 408.0
253.229004 400.0
254.112946 564.0
256.163086 488.0
259.102753 468.0
259.147919 360.0
260.160156 832.0
261.122528 1532.0
261.153473 500.0
262.126343 352.0
262.251709 568.0
264.133759 15576.0
265.134338 2208.0
266.130585 448.0
266.245758 500.0
268.130127 1000.0
269.124817 564.0
271.139832 58096.0
272.142944 7360.0
273.122253 1552.0
274.117401 3888.0
274.176331 1096.0
275.102112 7916.0
275.173828 532.0
276.103333 1432.0
276.166595 296.0
277.1073 276.0
277.15332 2120.0
278.139923 2016.0
278.244171 4188.0
279.137024 572.0
279.250122 1440.0
280.225311 4120.0
281.229736 1064.0
282.225586 292.0
283.146332 312.0
284.13736 276.0
286.177002 332.0
287.105408 420.0
288.165771 836.0
289.148926 772.0
290.149109 1520.0
290.249023 412.0
291.104004 296.0
291.144775 888.0
292.128876 12756.0
293.125763 2496.0
294.118347 348.0
294.240356 660.0
295.164886 40648.0
296.167786 6724.0
296.258331 26304.0
297.16571 1076.0
297.259888 5272.0
298.141327 264.0
298.175751 300.0
298.239105 796.0
299.133972 324.0
299.173523 592.0
299.24292 316.0
300.132294 768.0
301.120209 952.0
303.131866 908.0
303.167664 692.0
304.130127 420.0
305.150452 572.0
305.185394 416.0
305.251831 600.0
306.140259 1660.0
306.242767 78432.0
306.666168 480.0
307.141022 464.0
307.245483 12148.0
308.160767 376.0
308.244354 832.0
310.139343 620.0
311.137878 260.0
311.170837 328.0
313.115479 520.0
314.169586 964.0
314.268982 2108.0
315.173065 344.0
315.272064 1140.0
316.270813 336.0
318.142914 4968.0
319.146698 1796.0
320.148895 852.0
321.179108 2764.0
321.28479 460.0
322.181 956.0
322.29071 392.0
323.173431 704.0
323.268402 3436.0
324.253204 57008.0
325.255554 14020.0
326.176666 364.0
326.258209 1284.0
327.165039 3952.0
327.479034 296.0
328.13092 452.0
328.168365 1304.0
329.125366 500.0
331.132141 492.0
331.196228 512.0
331.271332 996.0
332.273773 320.0
333.179932 672.0
333.251953 1096.0
334.17572 304.0
334.255371 400.0
335.17276 1360.0
336.163544 496.0
337.148926 680.0
339.204224 540.0
340.198822 336.0
341.280487 836.0
342.263428 4596.0
343.265045 1116.0
344.153717 436.0
344.192505 332.0
345.44455 260.0
346.138794 5852.0
347.141449 1000.0
348.152771 288.0
348.192474 704.0
349.185516 428.0
349.284119 23712.0
350.286835 3848.0
351.189758 796.0
351.259918 3660.0
352.191071 556.0
352.267731 1288.0
353.271301 436.0
353.311615 312.0
354.175995 2252.0
355.179169 348.0
356.120178 420.0
357.213226 424.0
358.271515 1296.0
359.267548 1352.0
360.189484 3044.0
361.192505 1100.0
362.185883 904.0
363.164917 6868.0
364.165802 1944.0
365.161591 652.0
365.282928 388.0
366.199005 992.0
367.204529 420.0
367.294952 3860.0
368.191589 432.0
368.295868 932.0
369.133881 256.0
369.272369 1344.0
370.277679 252.0
371.162872 408.0
371.324585 2200.0
372.185303 1524.0
372.327576 540.0
373.153137 1004.0
374.135559 700.0
376.032104 332.0
376.189514 448.0
376.296082 484.0
377.182251 316.0
377.279816 68804.0
377.833252 304.0
378.198395 368.0
378.281647 15720.0
379.197113 564.0
379.286133 2524.0
380.799469 372.0
381.171234 388.0
381.21347 472.0
382.153351 328.0
384.221008 556.0
385.209076 1068.0
386.204346 1004.0
386.268402 696.0
387.195679 1348.0
387.272919 392.0
388.185944 6828.0
389.182404 11548.0
390.183777 3788.0
391.162445 1360.0
391.238159 372.0
392.165619 640.0
392.221039 392.0
393.222046 380.0
393.306946 256.0
394.303986 2008.0
395.289917 63736.0
395.372406 492.0
396.184357 1392.0
396.292175 14116.0
397.295319 1324.0
398.179474 328.0
398.298126 564.0
400.183838 360.0
401.174194 332.0
402.229614 600.0
402.313904 576.0
403.239746 892.0
404.289124 308.0
405.212402 20248.0
406.201141 19964.0
407.203644 6076.0
408.208313 708.0
409.221069 252.0
410.328949 268.0
411.319946 588.0
412.311951 1348.0
413.300446 8532.0
414.198639 480.0
414.303406 2880.0
415.150177 292.0
415.307159 556.0
416.184753 1540.0
417.176453 2584.0
418.180267 1064.0
419.186127 544.0
420.320099 1720.0
421.323059 740.0
422.296295 1228.0
423.222046 7532.0
423.302032 784.0
424.222687 2788.0
424.302948 284.0
425.225311 480.0
427.350555 2684.0
428.353485 1160.0
429.168945 348.0
430.301666 844.0
431.226959 1024.0
431.307434 308.0
432.213501 1292.0
433.211945 1004.0
434.203705 9888.0
434.296997 368.0
435.199524 2352.0
436.201721 600.0
436.248047 328.0
437.236572 1728.0
437.336945 3456.0
438.249054 684.0
438.337128 1696.0
439.33429 1072.0
440.31311 1104.0
441.20752 408.0
442.198059 796.0
443.204041 300.0
445.171082 264.0
445.206726 468.0
446.210419 888.0
447.183746 300.0
447.328125 552.0
448.254547 456.0
448.314575 16036.0
449.235596 2388.0
449.317474 4028.0
450.239044 764.0
450.321899 704.0
452.209381 392.0
452.309509 884.0
455.350128 1348.0
456.34201 564.0
457.24234 476.0
459.222656 4480.0
459.342529 292.0
460.22229 2116.0
461.232239 260.0
461.299377 260.0
462.22818 444.0
464.350739 464.0
465.342499 5560.0
466.326904 27096.0
467.33075 6656.0
467.699341 264.0
468.330048 1024.0
469.311951 356.0
470.212891 320.0
470.317017 340.0
471.226074 492.0
472.213806 920.0
472.368408 608.0
473.203339 984.0
474.266968 416.0
475.265167 284.0
476.249542 804.0
477.16687 260.0
477.234192 11516.0
477.347412 332.0
478.236664 3856.0
479.243896 776.0
480.373749 524.0
481.376312 704.0
482.358459 396.0
483.352325 2592.0
484.336517 11516.0
485.244171 612.0
485.341919 3888.0
486.337433 660.0
487.322021 784.0
488.230133 368.0
489.239258 564.0
490.227814 968.0
491.227692 664.0
491.36026 464.0
492.244995 580.0
494.259247 3132.0
495.261841 716.0
498.390503 1396.0
499.38623 552.0
500.221558 648.0
500.392517 256.0
501.204407 316.0
501.36734 940.0
502.268463 1660.0
502.321106 476.0
502.365173 364.0
503.25174 2152.0
504.242493 1748.0
505.250061 776.0
505.335602 456.0
506.254791 340.0
506.328918 328.0
507.394012 384.0
508.369415 1488.0
509.37207 848.0
512.241882 432.0
513.241394 300.0
514.227539 284.0
517.235535 1048.0
518.248718 428.0
519.285522 784.0
520.274292 1440.0
521.288269 740.0
522.352783 312.0
523.346924 488.0
525.392029 708.0
526.335327 360.0
526.389465 564.0
530.251282 1224.0
530.357666 324.0
531.253906 668.0
531.373657 368.0
532.344849 852.0
533.260498 348.0
533.345764 324.0
534.388 1440.0
535.25354 644.0
535.390747 952.0
541.356873 320.0
542.25647 288.0
543.409546 288.0
544.40863 284.0
546.386963 356.0
547.286194 1036.0
547.383484 408.0
548.271301 5096.0
548.375427 4120.0
549.27417 3668.0
549.375916 1536.0
550.266235 472.0
550.35791 820.0
551.361023 572.0
552.333374 316.0
552.384399 376.0
553.351929 288.0
555.379028 780.0
558.360901 1484.0
559.244568 488.0
559.362183 684.0
560.251038 312.0
561.392456 360.0
565.297363 19380.0
565.397339 520.0
566.297607 6276.0
566.392395 1116.0
567.300781 1412.0
567.381348 748.0
568.311523 292.0
568.379272 600.0
569.422119 1684.0
570.354797 440.0
570.419678 644.0
571.356262 264.0
571.423035 312.0
572.4021 496.0
573.386597 1064.0
574.386902 780.0
575.382446 516.0
576.37323 8472.0
577.372986 3456.0
578.362488 1416.0
579.411377 1140.0
581.424316 328.0
583.406738 264.0
584.388611 340.0
590.412842 1368.0
591.419067 680.0
593.393005 840.0
594.382507 6276.0
595.386169 2160.0
596.387512 528.0
596.425659 860.0
597.417358 932.0
598.414062 740.0
599.348083 264.0
599.421021 256.0
600.401672 5300.0
601.400879 1476.0
602.394287 772.0
603.328247 256.0
604.306458 780.0
611.381714 692.0
612.391785 3112.0
613.304077 500.0
613.397705 620.0
614.44873 3632.0
615.44928 1444.0
616.375366 372.0
616.429749 784.0
617.432495 292.0
618.412048 840.0
619.399658 1100.0
620.40509 428.0
621.326172 396.0
626.41571 1440.0
627.412354 956.0
628.396912 344.0
629.394592 352.0
630.319214 716.0
636.432495 264.0
637.414001 396.0
643.436584 616.0
644.42926 2004.0
645.431519 1268.0
646.422913 404.0
647.404297 416.0
648.323547 264.0
649.324951 428.0
650.374268 288.0
653.430969 868.0
654.419983 508.0
657.425049 652.0
658.420166 356.0
661.450439 752.0
662.445068 844.0
663.459961 320.0
668.417664 420.0
669.398926 600.0
671.430969 1216.0
672.432617 392.0
677.421082 320.0
680.444397 456.0
681.446411 412.0
682.456177 392.0
683.4375 1392.0
684.4375 1056.0
685.425171 692.0
686.418823 784.0
687.401062 296.0
687.466248 640.0
689.447266 988.0
690.443604 1160.0
691.425354 536.0
694.41687 1000.0
695.411804 352.0
696.414307 352.0
697.467834 464.0
698.460938 300.0
698.471558 640.0
699.435547 264.0
700.456726 464.0
701.452087 804.0
702.449829 256.0
705.404419 312.0
707.466858 752.0
708.463318 964.0
709.455933 648.0
710.450562 768.0
711.436157 3396.0
712.436584 1912.0
713.438782 668.0
714.470642 376.0
715.46167 1636.0
716.469482 740.0
717.458008 660.0
722.42218 728.0
724.462341 268.0
725.474121 2036.0
726.480713 1020.0
727.472717 472.0
728.450745 960.0
729.445618 1860.0
730.43811 936.0
731.440552 336.0
732.493042 1260.0
733.492371 1160.0
734.483521 468.0
737.417175 392.0
737.455872 460.0
739.437439 2404.0
740.430664 1444.0
741.434631 832.0
742.472534 1348.0
743.476013 608.0
744.477722 364.0
745.487732 308.0
746.473328 336.0
747.465393 428.0
753.469421 296.0
754.472351 1052.0
755.471741 732.0
756.465515 608.0
756.934082 272.0
757.449402 2020.0
758.439575 1196.0
759.476135 492.0
760.492737 568.0
761.490845 416.0
764.467712 472.0
765.457153 260.0
771.508118 500.0
772.479431 600.0
773.476379 356.0
775.457764 3272.0
776.459656 1200.0
777.276245 428.0
777.509827 2048.0
778.510559 968.0
779.523132 884.0
781.490051 1004.0
782.466064 2240.0
783.473694 1192.0
784.481812 496.0
789.510925 360.0
798.491333 340.0
799.501221 1784.0
800.476807 1864.0
801.489075 624.0
802.47467 316.0
807.511658 264.0
808.494141 272.0
809.484253 428.0
810.433655 268.0
816.514709 252.0
817.503418 296.0
824.535828 308.0
825.516846 668.0
826.506775 692.0
827.503174 648.0
835.497192 704.0
837.484131 360.0
842.529236 1376.0
843.526733 2812.0
844.527771 1268.0
845.50354 776.0
852.517334 984.0
853.507568 3520.0
854.503052 1120.0
860.549316 3016.0
861.546631 1004.0
863.574707 584.0
870.534424 20700.0
871.524414 22784.0
872.525452 9840.0
873.389648 332.0
873.522034 2612.0
874.520935 632.0
874.739441 292.0
876.092102 460.0
883.004822 256.0
884.917908 360.0
885.214233 308.0
885.318665 364.0
885.683228 284.0
886.007751 300.0
886.885742 356.0
887.07666 692.0
887.331482 336.0
887.482361 412.0
887.840759 356.0
887.903503 264.0
887.973816 388.0
888.032227 344.0
888.080078 388.0
888.220093 380.0
888.295837 336.0
888.393555 764.0
888.546997 214852.0
888.971191 396.0
889.100525 392.0
889.16748 340.0
889.234619 588.0
889.310486 584.0
889.444092 636.0
889.548706 172848.0
889.981445 496.0
890.069031 712.0
890.43457 372.0
890.55011 53088.0
890.966736 464.0
891.059082 280.0
891.550659 9132.0
891.784058 292.0
891.989441 332.0
892.058838 284.0
892.26355 420.0
892.548645 1800.0
893.022339 356.0
893.13501 376.0
893.283508 264.0
893.372192 392.0
893.47406 272.0
893.55957 400.0
893.619751 424.0
893.748291 352.0
893.981689 372.0
894.055176 356.0
894.325317 272.0
894.616394 280.0
894.702454 424.0
894.842712 484.0
894.94397 348.0
END IONS
