BEGIN IONS
PEPMASS=551.28
CHARGE=2
MSLEVEL=2
SOURCE_INSTRUMENT=LC-ESI-Orbitrap
FILENAME=f.Rolandoo1/20190519 Moroidin paper GNPS/Premoroidin.mzXML;
SEQ=*..*
IONMODE=Positive
ORGANISM=GNPS-LIBRARY
NAME=[Asn9]-Moroidin M+2H
PI=Jing-Ke Weng
DATACOLLECTOR=Roland Kersten
SMILES=O=C1CC[C@@H](C(N[C@H](C(N[C@@H](CC(C)C)C(N[C@@H](C(C)C)C(N[C@@](C(N[C@H](C(NCC(N[C@@H](CC2=CN3C=N2)C(N[C@@H](CC(N)=O)C(O)=O)=O)=O)=O)CCCNC(N)=N)=O)([H])CC4=C3NC5=C4C=CC6=C5)=O)=O)=O)[C@@H]6C(C)C)=O)N1
INCHI=
INCHIAUX=
PUBMED=
SUBMITUSER=Rolandoo1
TAGS=
LIBRARYQUALITY=3
SPECTRUMID=CCMSLIB00005435901
SCANS=1
81.988739 288.73175
81.989441 615.331116
81.990143 810.234009
81.990852 771.861328
81.991554 519.361206
81.992256 99.19352
84.038277 1114.842529
84.039009 4491.999023
84.039742 5352.315918
84.040466 9231.97168
84.041199 11235.5625
84.041931 37658.914062
84.042664 147175.5625
84.043388 329590.25
84.044121 531115.9375
84.044853 570928.3125
84.045586 393853.875
84.046318 204025.28125
84.047043 63575.574219
84.047775 22376.638672
84.048508 13248.108398
84.04924 8930.285156
84.049965 5275.356445
84.050697 147.405273
86.089851 136.664841
86.090607 6141.901855
86.091362 14097.68457
86.092117 45384.070312
86.09288 61814.789062
86.093636 162260.296875
86.094391 564639.125
86.095154 1457083.25
86.095909 2480245.75
86.096664 3035052.0
86.09742 2340282.75
86.098183 1351048.5
86.098938 479342.90625
86.099693 130974.84375
86.100456 52476.105469
86.101212 39754.117188
86.101967 13997.103516
86.10273 1458.220459
86.103485 13.816231
87.049889 2015.739258
87.050659 5922.035156
87.05143 8518.832031
87.0522 19327.251953
87.052971 73258.585938
87.053741 236587.15625
87.054512 438926.4375
87.055283 613526.5
87.056053 538866.6875
87.056824 337954.28125
87.057587 139771.3125
87.058357 38293.132812
87.059128 10098.626953
87.059898 6908.910156
87.060669 3352.481934
87.06144 2707.474609
87.06221 1461.786133
87.096115 71.592308
87.096886 1747.055786
87.097656 12301.799805
87.098427 33436.277344
87.099197 54397.875
87.099968 63314.632812
87.100739 47675.953125
87.101509 26566.675781
87.10228 7456.668457
87.10305 1487.239502
87.103821 85.78363
88.036263 1053.421631
88.037041 5914.153809
88.037827 18387.615234
88.038612 33120.21875
88.039391 43816.171875
88.040176 35798.929688
88.040962 21661.697266
88.04174 7738.103516
88.042526 1766.468506
88.043312 1.866662
92.564995 736.611938
92.565842 1144.378296
92.566689 1147.147217
92.567528 792.147827
92.568375 363.46402
92.569221 26.391436
96.041183 44.135391
96.042076 1650.37085
96.042969 2799.371094
96.043861 3243.017334
96.044754 2661.769775
96.045647 1451.562744
100.072899 52.954063
100.073845 1276.656372
100.074799 2437.793701
100.075745 2852.546631
100.076698 2167.858154
100.077644 948.087463
102.050575 58.539276
102.051552 1233.975708
102.052528 2816.237549
102.053513 4615.776855
102.054489 5644.530273
102.055466 5169.648438
102.056442 3395.428467
102.057419 1444.139526
102.872734 250.302521
102.873726 574.151123
102.874718 775.49054
102.875702 722.345154
102.876694 462.608276
102.877686 53.42934
105.842316 433.009827
105.843346 820.625305
105.844383 1013.006592
105.845413 882.916016
105.846443 511.255615
105.847481 45.542175
107.274345 5174.288574
107.275398 10130.336914
107.276451 12579.025391
107.277504 11287.584961
107.278557 7069.572754
107.27961 1139.36853
110.068047 150.259628
110.069138 2032.558105
110.070236 3591.75293
110.071327 4196.9375
110.072426 3354.687744
110.073517 1694.28772
112.081535 54.507458
112.082664 1515.644531
112.083786 13186.564453
112.084915 29979.353516
112.086037 45710.921875
112.087166 47085.410156
112.088287 32328.291016
112.089417 16180.866211
112.090538 3200.68042
112.091667 493.251923
113.066879 123.978432
113.068016 1537.06897
113.069153 3085.783936
113.070297 4287.824707
113.071434 4283.291992
113.072578 3110.892822
113.073715 1511.775146
114.087212 95.047684
114.088371 1143.598511
114.089523 2314.219238
114.090683 3173.663818
114.091835 3205.391602
114.092995 2385.856689
114.094147 1176.471558
115.081619 120.101349
115.082787 1471.515503
115.083961 3691.947021
115.085129 6092.51123
115.086296 7169.869141
115.087471 6202.967773
115.088638 3901.33667
115.089813 1640.083496
116.02861 290.781097
116.0298 2928.749268
116.030983 11256.446289
116.032166 22940.855469
116.033356 33499.234375
116.034538 32733.828125
116.035721 21179.128906
116.036911 10189.177734
116.038094 2723.666992
116.039276 240.422653
121.412872 253.203186
121.414139 585.180298
121.415413 764.375793
121.416679 655.008606
121.417946 354.770721
129.059143 179.283676
129.060532 1625.952515
129.06192 4720.913574
129.063309 11227.130859
129.064697 17447.068359
129.066086 18323.615234
129.067474 12362.06543
129.068878 6155.632324
129.070267 1367.331665
133.047546 480.136627
133.049011 2835.316895
133.050461 6127.294922
133.05191 15716.366211
133.053375 29718.587891
133.054825 99912.78125
133.056274 350850.25
133.057739 870060.3125
133.059189 1404728.125
133.060654 1644690.25
133.062103 1217833.875
133.063553 678350.5
133.065018 225200.953125
133.066467 62711.449219
133.067917 22670.167969
133.069382 12474.441406
133.070831 770.480225
134.058823 251.272354
134.060287 2088.563721
134.061768 4704.368164
134.063232 7626.280762
134.064713 11212.217773
134.066177 7248.760254
134.067657 3260.665771
134.069122 1272.332886
134.729538 288.913818
134.731018 557.880188
134.732498 685.819031
134.733978 593.806396
134.735474 356.358673
134.736954 29.640612
136.147888 360.103455
136.149399 576.640503
136.150909 661.561218
136.152405 586.818481
136.153915 390.574585
136.155426 46.42548
139.089951 3.311217
139.091507 304.913452
139.093063 1103.377441
139.09462 3633.432861
139.096176 5334.758301
139.097733 5504.564941
139.099289 4040.917725
139.100845 1914.285889
140.137985 3.664813
140.139572 267.624969
140.141144 739.915039
140.142715 1082.980103
140.144287 1057.097778
140.145859 712.469238
140.14743 310.213745
140.149002 54.080784
141.061203 264.171112
141.06279 1806.468872
141.064377 2881.72998
141.065964 3081.03418
141.067551 2269.531738
141.069138 1014.752808
152.075668 144.816086
152.077438 1392.647217
152.079224 2656.172852
152.080994 3417.481201
152.082779 3176.383545
152.084564 2092.055664
152.086334 816.776672
157.10141 95.094048
157.103287 1176.764771
157.105148 2822.051514
157.107025 4238.970215
157.108887 4308.45459
157.110748 2926.45752
157.112625 1145.220337
161.762238 453.953461
161.764191 739.583313
161.766144 810.272461
161.768097 627.921326
161.77005 312.873077
161.771988 42.274906
168.130508 144.055771
168.132584 1884.488892
168.134644 3638.400635
168.136719 4819.088867
168.138779 4546.756348
168.140854 3048.311279
168.142914 1345.963989
174.126083 122.33007
174.128265 2124.592285
174.130447 4895.540527
174.132614 10119.555664
174.134796 10956.671875
174.136978 7247.913086
174.13916 3587.349365
174.141327 1510.696289
177.049225 287.305328
177.051468 596.696655
177.053696 737.632202
177.055923 614.514465
177.058167 327.017487
177.060394 45.846584
178.124115 56.072784
178.126358 903.349426
178.128616 2477.214355
178.130875 4052.539551
178.133133 4602.680176
178.135376 3785.585938
178.137634 2196.54248
178.139893 806.483154
185.148819 88.179611
185.151199 1670.671631
185.153595 3543.828613
185.155975 16132.037109
185.158371 62966.28125
185.160751 129111.8125
185.163147 194695.0
185.165543 194337.328125
185.167923 128708.210938
185.170319 62891.46875
185.172699 16227.693359
185.175095 3929.437988
185.17749 2276.7229
185.179871 899.322083
192.607544 423.033081
192.610092 722.18158
192.612625 849.138428
192.615158 772.676758
192.617691 550.099182
192.620224 47.965527
197.092178 35.550503
197.094803 869.139404
197.097427 2497.670898
197.100052 4187.186523
197.102676 4828.892578
197.105301 4049.468262
197.107925 2405.274414
197.11055 934.834412
197.113174 69.127731
198.058624 4685.736816
198.061264 10542.102539
198.063904 13987.769531
198.066544 12225.558594
198.069199 6615.059082
198.071838 1223.313599
213.147095 170.236267
213.15004 3285.05957
213.152985 10779.564453
213.155945 19777.716797
213.15889 26825.347656
213.161835 22319.804688
213.164795 13010.702148
213.16774 4654.549316
213.1707 842.952454
214.11824 74.852936
214.121216 1389.770752
214.124176 2979.059082
214.127151 4334.59082
214.130127 4595.374512
214.133087 3570.523438
214.136063 1821.432861
242.108521 136.942719
242.112091 2838.335693
242.115662 8746.744141
242.119232 14504.43457
242.122803 18740.654297
242.126373 16190.667969
242.129944 9692.048828
242.133514 3436.537354
242.1371 31.611176
247.427765 399.101715
247.431458 723.098999
247.43515 854.099915
247.438843 704.076721
247.44252 376.401367
247.446213 42.430927
271.146667 385.578644
271.150909 684.414917
271.155151 806.449951
271.159363 688.110229
271.163605 412.776855
271.167847 40.092453
276.408295 365.936462
276.412659 796.649597
276.417023 1066.069702
276.421387 940.248901
276.42572 528.756165
276.430084 18.352068
281.134979 105.277878
281.139435 1569.388794
281.143921 4298.21875
281.148376 8820.451172
281.152863 12884.561523
281.157318 11830.279297
281.161804 5583.510742
281.16626 2594.0896
281.170746 874.837097
282.129883 135.029388
282.134399 1843.4646
282.138885 2714.892822
282.143372 2866.669434
282.147858 2359.709473
282.152374 1392.290894
287.143097 115.432144
287.147705 1509.317749
287.152313 2847.439453
287.156921 3903.731445
287.16156 3915.339355
287.166168 2672.095215
287.170776 1009.206848
288.156189 5507.725098
288.160828 10539.317383
288.165466 12993.939453
288.170105 11293.959961
288.174744 6613.808105
288.179382 595.140198
289.945557 339.104736
289.950256 655.064941
289.954926 824.75061
289.959625 751.418335
289.964294 498.711609
289.968994 49.531216
293.646271 163.94722
293.651031 2188.467529
293.655792 7107.433105
293.660583 12234.279297
293.665344 15313.392578
293.670105 12350.168945
293.674896 7284.15918
293.679657 2846.835938
293.684418 956.823059
299.64856 131.030762
299.653473 1788.480225
299.658386 4236.367676
299.6633 6246.51416
299.668213 6086.358887
299.673126 3881.182617
299.67807 1457.090698
308.152344 104.153328
308.157471 2723.844727
308.162628 12168.604492
308.167755 44973.984375
308.172882 77616.296875
308.178009 99525.8125
308.183136 81768.0
308.188263 48194.570312
308.19339 13883.175781
308.198517 2452.903809
308.203644 1.579726
308.665924 144.132431
308.671082 1766.539307
308.676208 4042.527832
308.681366 4933.252441
308.686493 3743.253906
308.69165 1691.644165
309.650421 116.250847
309.655609 1359.029419
309.660767 2704.735107
309.665924 3652.844482
309.671112 3259.06665
309.67627 1712.379883
314.15271 7.748518
314.15799 938.336914
314.163269 6982.243164
314.168549 18177.71875
314.173828 30449.265625
314.179108 36787.570312
314.184387 27064.898438
314.189667 14632.987305
314.194946 4033.125977
314.200226 654.375
316.675751 195.294312
316.681091 2423.080322
316.686432 4569.948242
316.691772 5498.084961
316.697113 4360.167969
316.702454 2196.335693
316.707794 575.971069
317.575378 111.251732
317.58075 1383.687866
317.586121 2783.281738
317.591492 3356.912842
317.596863 2542.231201
317.602203 1074.666382
321.726288 5747.850098
321.731781 11580.02832
321.737244 14229.151367
321.742706 11909.126953
321.748199 6561.414551
321.753662 407.237457
322.148041 397.336121
322.153534 3415.843506
322.159027 13274.942383
322.16449 33805.042969
322.169983 54108.777344
322.175476 63432.492188
322.180939 47628.296875
322.186432 26660.619141
322.191925 9147.074219
322.197418 2152.697998
322.202881 890.214783
322.664062 266.983124
322.669556 2881.185547
322.675049 10436.12207
322.680542 22144.302734
322.686035 36827.6875
322.691528 49054.53125
322.697021 48294.726562
322.702515 32698.070312
322.708008 15646.808594
322.713531 3023.578369
323.170258 110.75518
323.175781 1351.1427
323.181274 3315.446533
323.186798 5288.314453
323.192291 6350.673828
323.197815 5908.853516
323.203308 4055.212891
323.208832 1742.185303
328.152039 842.957703
328.157654 5690.970703
328.1633 15667.800781
328.168945 27258.957031
328.174591 33354.59375
328.180206 27122.804688
328.185852 15733.635742
328.191498 6687.998535
328.197113 2260.893311
328.202759 1096.193359
329.67926 124.492783
329.684937 1379.52002
329.690613 2881.418457
329.696289 3637.733643
329.701965 3326.006592
329.707642 2341.190674
329.713318 1139.51416
330.657715 80.393227
330.663422 1112.184204
330.669128 7168.561035
330.674805 28760.449219
330.680511 62024.152344
330.686218 91824.109375
330.691925 92351.179688
330.697632 60112.570312
330.703339 24800.716797
330.709045 6913.078125
330.714722 1712.442261
331.16571 136.949677
331.171448 1652.181519
331.177155 5079.73877
331.182861 10528.115234
331.188568 16025.844727
331.194305 16499.697266
331.200012 10801.573242
331.205719 5231.797852
331.211456 1266.844604
336.656158 127.955086
336.662018 1746.40686
336.667877 16005.666992
336.673737 50277.871094
336.679596 107113.796875
336.685425 164188.03125
336.691284 169337.40625
336.697144 101079.171875
336.703003 50847.695312
336.708862 15402.426758
336.714722 2145.237305
337.160431 287.129181
337.166321 3097.621582
337.17218 10076.836914
337.17804 19787.832031
337.183929 28970.626953
337.189789 30449.751953
337.195679 21468.609375
337.201538 11490.731445
337.207397 3677.182617
337.213287 1253.511841
342.650848 122.447327
342.65686 1345.202026
342.662872 2668.193848
342.668884 3562.341553
342.674896 3501.602539
342.680908 2719.299805
342.68692 1537.24646
344.662445 232.974777
344.668518 2505.108643
344.674591 5739.814453
344.680664 10878.572266
344.686707 13472.12207
344.69278 10533.582031
344.698853 4172.277832
344.704926 1195.349487
344.710999 11.631838
345.172668 924.881165
345.178741 7110.448242
345.184845 30129.353516
345.190918 74965.8125
345.196991 125349.703125
345.203094 150804.46875
345.209167 115201.570312
345.21524 65494.695312
345.221313 21343.402344
345.227417 3367.572998
345.23349 27.074997
345.677948 221.343903
345.684052 2597.327881
345.690125 7755.064453
345.696228 12852.538086
345.702332 16025.339844
345.708405 13389.030273
345.714508 8064.956543
345.720612 2956.215576
345.726715 1138.645142
349.159454 137.021866
349.165649 1488.473877
349.171844 3480.998535
349.178009 4851.158203
349.184204 4244.51123
349.190399 2165.958496
349.196594 199.239212
349.673523 805.613159
349.679718 3000.144043
349.685913 8549.206055
349.692108 15960.0625
349.698303 23012.376953
349.704529 20874.863281
349.710724 12763.845703
349.716919 5189.650391
349.723114 638.403809
350.17627 5.542132
350.182495 367.697235
350.18869 800.084778
350.194916 1111.242676
350.201141 1027.7854
350.207336 602.45166
350.661438 102.425697
350.667664 1130.382324
350.673889 3528.155029
350.680115 6759.331055
350.68634 12091.443359
350.692566 11704.875
350.698792 5501.773438
350.705017 1835.587158
351.153839 516.847107
351.160095 4844.916504
351.166321 18678.177734
351.172577 43739.800781
351.178802 67575.742188
351.185059 76257.023438
351.191284 55873.507812
351.19754 30792.5
351.203766 10251.78418
351.210022 2418.835449
351.216248 191.931793
351.65979 206.739151
351.666046 2396.229248
351.672302 7695.07959
351.678558 13088.191406
351.684814 17384.787109
351.691071 14755.592773
351.697327 8455.248047
351.703583 2870.360107
351.709839 709.739441
352.643616 165.679657
352.649872 1722.8302
352.656158 3875.593018
352.662445 6014.575684
352.668732 6362.310547
352.674988 4328.533203
352.681274 1546.590454
353.184235 185.244476
353.190552 1837.997681
353.196838 3348.294678
353.203125 3547.19458
353.209412 2349.386719
353.215729 889.656372
353.663055 123.946136
353.669373 1277.543945
353.67569 2861.897217
353.681976 4904.642578
353.688293 6094.211914
353.694611 6199.807617
353.700897 5018.818359
353.707214 2895.218994
353.713531 805.231873
356.180145 202.202499
356.186523 2263.195312
356.192902 6709.758301
356.19928 11958.311523
356.205658 16696.416016
356.212036 15545.317383
356.218414 9489.566406
356.224792 3701.928955
356.23114 1238.517578
356.697021 214.133072
356.7034 2144.115967
356.709808 5597.435059
356.716187 12213.251953
356.722565 14198.416992
356.728973 10185.202148
356.735352 5036.013184
356.74173 1459.635864
359.169159 232.467651
359.175598 2011.962891
359.182068 7291.842285
359.188507 16470.087891
359.194977 23746.505859
359.201416 23369.677734
359.207886 15511.277344
359.214355 7490.655273
359.220795 2508.111572
359.227264 839.951904
359.666656 166.76651
359.673126 1674.429321
359.679596 4215.334961
359.686066 8733.919922
359.692535 10860.447266
359.699005 6672.773926
359.705475 4854.225586
359.711945 2702.707764
359.718414 1041.221802
361.152405 166.208008
361.158905 1660.129395
361.165405 4873.417969
361.171936 8623.879883
361.178436 14215.44043
361.184937 12317.849609
361.191467 7315.561035
361.197968 2470.13916
362.182861 290.642548
362.189392 3068.408203
362.195953 6849.314453
362.202484 12894.15625
362.209015 11883.083984
362.215546 6100.44873
362.222076 2605.929688
362.228638 112.414879
363.657928 278.752045
363.66452 2693.478271
363.671082 12482.486328
363.677673 48686.425781
363.684235 98696.429688
363.690826 142385.28125
363.697388 140968.765625
363.703979 92903.054688
363.710541 44275.851562
363.717133 11795.563477
363.723694 3948.10083
363.730286 1919.561279
364.171387 176.087128
364.177979 2393.717041
364.18457 8655.249023
364.191162 17942.4375
364.197754 28013.234375
364.204346 32552.671875
364.210938 26305.783203
364.217529 16158.311523
364.224121 7063.175293
364.230713 1087.977051
364.692535 160.370071
364.699158 2045.767212
364.70575 7350.825684
364.712372 12602.678711
364.718964 16211.057617
364.725555 13093.183594
364.732178 7240.309082
364.73877 1722.756592
365.155273 172.458359
365.161865 2378.2854
365.168488 10595.450195
365.17511 20331.230469
365.181732 27600.230469
365.188354 23285.105469
365.194977 14271.026367
365.201569 7006.585938
365.208191 3049.540283
365.214813 2833.109619
365.221436 5248.338379
365.228058 8796.05957
365.23468 8081.211914
365.241302 6619.526367
365.247925 3798.087402
365.254517 1717.654297
366.176331 150.988861
366.182983 1666.94458
366.189636 5094.689453
366.196289 10572.047852
366.202911 16208.6875
366.209564 17071.335938
366.216217 11230.558594
366.22287 5095.098145
366.229492 1245.497192
367.154999 259.946228
367.161682 3348.037842
367.168335 9427.867188
367.175018 13864.445312
367.181702 14162.527344
367.188354 9778.355469
367.195038 4102.15625
367.201721 1395.881714
368.177795 142.230057
368.184479 1461.327759
368.191193 3268.379639
368.197876 5314.766602
368.20459 6731.725098
368.211304 6574.155762
368.217987 4677.837402
368.224701 2149.509033
369.66272 128.860367
369.669464 1307.593384
369.676178 3285.226807
369.682922 9134.022461
369.689667 15090.416016
369.696411 15819.893555
369.703156 10057.088867
369.7099 4745.936523
369.716644 1216.189819
370.188934 297.246521
370.195709 2785.137939
370.202454 4288.744141
370.209198 4305.729492
370.215973 2839.646484
370.222717 1150.027344
370.229462 29.208561
370.68924 1047.613647
370.696014 5612.578125
370.702759 17751.417969
370.709534 38385.027344
370.716309 61387.667969
370.723083 65873.335938
370.729828 44369.839844
370.736603 22421.394531
370.743378 5916.116699
370.750153 504.571106
370.756927 93.447472
371.190521 834.533386
371.197327 5104.840332
371.204102 13759.818359
371.210876 24205.476562
371.217651 33336.566406
371.224457 31966.814453
371.231232 22142.970703
371.238007 10844.433594
371.244781 3077.966553
371.706451 284.275024
371.713226 2784.410889
371.720032 5508.164062
371.726837 6733.679199
371.733643 5609.676758
371.740417 3313.9021
371.747223 1389.322021
372.182587 293.637299
372.189392 3087.569336
372.196198 8009.362305
372.203003 13171.682617
372.209808 15945.005859
372.216614 11540.085938
372.223419 5774.608398
372.230255 1144.545288
373.821991 4302.67041
373.828857 11066.193359
373.835693 18054.255859
373.84256 21171.578125
373.849426 18223.630859
373.856262 10936.875
373.863129 326.143677
374.164917 244.047363
374.171783 2605.015137
374.178619 5307.179688
374.185486 6571.131836
374.192352 5305.655762
374.199219 2625.839355
376.183868 167.60231
376.190796 1932.534058
376.197693 4088.915771
376.20462 5382.398926
376.211548 5214.496582
376.218475 3866.237305
376.225372 1970.721802
377.175171 248.454041
377.182129 2345.352783
377.189056 4700.17627
377.196014 6294.532715
377.202942 5841.678223
377.2099 3869.815674
377.216858 1656.999023
377.661865 289.313263
377.668823 2637.667969
377.675781 8971.15332
377.682739 18788.013672
377.689697 26595.208984
377.696655 24803.15625
377.703613 14938.738281
377.710571 6935.11377
377.717529 2025.323486
377.724487 523.933105
378.163422 176.369003
378.17041 3222.992432
378.177368 9581.774414
378.184357 42381.78125
378.191315 130748.289062
378.198303 247218.546875
378.205261 355065.53125
378.21225 326578.78125
378.219208 202180.453125
378.226196 87910.507812
378.233154 19064.089844
378.240143 4244.799805
378.247101 2337.868896
378.679962 1209.072144
378.686951 8922.217773
378.693939 34451.117188
378.700928 61936.683594
378.707916 79697.992188
378.714905 69722.117188
378.721893 43691.035156
378.728882 19066.5
378.73587 3140.894775
378.742859 28.773355
379.169556 153.84877
379.176575 1709.811157
379.183563 4729.399414
379.190582 3009.001221
379.197571 3596.502441
379.204559 7547.401367
379.211578 28009.386719
379.218567 78467.210938
379.225586 136681.453125
379.232574 179080.109375
379.239594 146813.765625
379.246582 85685.296875
379.253601 31157.070312
379.26059 5898.912598
379.267609 176.710281
379.274597 43.307846
379.709229 520.146667
379.716248 3654.93335
379.723267 10160.928711
379.730286 18306.685547
379.737274 23429.019531
379.744293 18446.574219
379.751312 9921.641602
379.758331 2769.480225
380.700409 316.02948
380.707458 3142.373535
380.714508 5590.655273
380.721558 6314.967773
380.728577 4680.130371
380.735626 2097.983154
383.668884 317.450439
383.675995 3349.824463
383.683136 6345.470703
383.690277 8319.226562
383.697388 7425.297363
383.704529 4187.504395
383.711639 1207.703247
383.718781 52.630829
384.182465 23.516966
384.189606 643.485535
384.196747 1250.259033
384.203888 1667.119873
384.211029 1541.508423
384.21817 934.53717
384.225311 302.235413
384.232452 62.196732
384.68277 942.635132
384.689941 3807.918213
384.697083 18573.03125
384.704254 49855.972656
384.711395 84323.820312
384.718567 104704.09375
384.725708 84491.617188
384.73288 50036.570312
384.740021 17902.376953
384.747192 1599.935791
385.184082 127.332886
385.191254 1470.471313
385.198425 12113.850586
385.205566 27971.488281
385.212738 41461.109375
385.21991 42271.910156
385.227081 28866.576172
385.234253 13820.770508
385.241425 3162.24292
385.248596 465.021332
385.255768 175.959671
386.686615 526.52179
386.693848 4011.118896
386.70105 11503.211914
386.708252 21201.119141
386.715485 30560.822266
386.722687 32927.34375
386.729889 25438.705078
386.737091 14565.728516
386.744324 5315.07959
387.191833 13.125494
387.199066 422.3526
387.206299 1774.783569
387.213501 4785.431641
387.220734 8814.850586
387.227966 13486.967773
387.235199 10141.949219
387.242432 4420.330566
387.249634 1377.407104
387.719757 150.646439
387.72699 1771.096069
387.734253 4772.311035
387.741486 7734.324219
387.748718 8424.564453
387.755951 6241.401367
387.763214 2959.085938
387.770447 295.175262
391.196045 145.251923
391.2034 1357.264648
391.210724 3408.356689
391.218079 5463.726074
391.225403 6009.501465
391.232727 4869.748535
391.240082 3002.883545
391.247406 1292.402954
391.680725 72.099411
391.68808 1107.922974
391.695435 5858.744141
391.702789 13170.950195
391.710144 20662.935547
391.717499 20997.287109
391.724823 13089.251953
391.732178 5788.679688
391.739532 1060.143921
392.144226 93.501534
392.151581 990.836182
392.158936 3118.850342
392.166321 4325.663086
392.173676 11959.445312
392.18103 60570.578125
392.188416 184682.0625
392.19577 334195.6875
392.203125 449223.6875
392.21051 385365.59375
392.217865 231019.640625
392.22522 96304.601562
392.232605 30185.503906
392.23996 13536.77832
392.247314 9004.881836
392.2547 1929.115601
392.667542 126.005959
392.674927 1801.64209
392.682312 10068.185547
392.689697 29797.710938
392.697052 53991.359375
392.704437 72867.65625
392.711823 65733.328125
392.719208 40881.074219
392.726593 18751.871094
392.733948 5722.865723
392.741333 1796.036133
393.169739 50.604874
393.177124 1070.60498
393.18454 1151.772217
393.191925 4960.979492
393.19931 12079.454102
393.206696 47448.433594
393.214111 147724.3125
393.221497 275693.03125
393.228882 387564.40625
393.236298 346019.8125
393.243683 211010.71875
393.251068 89515.054688
393.258453 22673.115234
393.265869 4902.162598
393.273254 3114.776123
393.28064 619.62738
393.687714 218.155701
393.695129 2083.461914
393.702545 6121.094727
393.70993 20209.615234
393.717346 48279.839844
393.724762 76288.65625
393.732178 86292.210938
393.739563 61631.066406
393.746979 33344.992188
393.754395 9823.098633
393.76181 1202.957764
394.206726 331.233948
394.214142 3246.305908
394.221558 6147.10498
394.228973 7672.333984
394.23642 6575.074219
394.243835 3928.039551
394.251251 1679.028687
397.695618 198.466888
397.703125 2289.010986
397.710663 7860.239258
397.71817 15098.554688
397.725677 20464.828125
397.733215 16154.224609
397.740723 8914.644531
397.74826 2963.463135
397.755768 583.975403
398.215027 194.5354
398.222565 1752.531128
398.230103 3347.046631
398.23764 4119.10498
398.245178 3331.281738
398.252686 1641.28186
398.690155 310.652496
398.697693 3671.424805
398.705261 9604.080078
398.712799 15520.120117
398.720367 17967.300781
398.727905 12515.927734
398.735443 6306.175293
398.743011 1853.296875
400.667664 574.865112
400.675262 5217.950684
400.682861 8399.81543
400.690491 35353.960938
400.69809 124106.34375
400.705688 275259.0625
400.713287 426494.09375
400.720917 453514.40625
400.728516 305382.34375
400.736115 155284.84375
400.743713 44536.113281
400.751343 10775.958008
400.758942 4074.765869
400.766541 731.379517
401.177673 227.096313
401.185303 1752.652954
401.192902 8849.144531
401.200531 26570.773438
401.20816 49554.535156
401.21579 65582.84375
401.223389 58520.152344
401.231018 36114.007812
401.238647 16276.873047
401.246246 4493.921387
401.253876 786.425842
401.261505 27.170401
401.68103 506.523407
401.68866 2710.897705
401.696289 4495.946289
401.703918 5254.966797
401.711548 6099.737793
401.719208 13971.385742
401.726837 41466.519531
401.734467 78747.117188
401.742096 115432.3125
401.749725 109303.921875
401.757385 69952.914062
401.765015 30765.728516
401.772644 7022.321777
401.780273 333.946838
402.162384 184.901962
402.170013 3205.968262
402.177673 13867.141602
402.185333 23644.517578
402.192963 27726.185547
402.200623 20114.912109
402.208282 11967.898438
402.215912 7984.87793
402.223572 10289.987305
402.231232 13003.818359
402.238861 18706.181641
402.246521 22801.28125
402.25415 18426.265625
402.26181 9559.254883
402.26947 2288.815918
405.680176 933.406982
405.687897 5496.547852
405.695648 13579.519531
405.7034 21042.783203
405.711151 23339.509766
405.718903 17521.238281
405.726654 9419.84082
405.734406 3025.050293
405.742157 195.880905
406.168732 1470.820801
406.176483 17962.208984
406.184265 40945.6875
406.192017 64175.21875
406.199768 61739.742188
406.20755 42229.371094
406.215302 23918.779297
406.223053 17687.490234
406.230835 17834.332031
406.238586 20051.207031
406.246368 20951.029297
406.25412 10882.917969
406.261871 1580.135376
406.681488 716.054443
406.68927 6163.921875
406.697052 12097.24707
406.704834 16553.970703
406.712616 13138.216797
406.720398 5354.336914
406.72818 3215.653076
406.735931 2074.818604
406.743713 1995.908813
406.751495 1386.185791
406.759277 663.38562
407.187469 250.897812
407.195251 2400.5625
407.203033 10391.069336
407.210846 29427.423828
407.218628 51226.117188
407.22641 65428.222656
407.234222 53950.140625
407.242004 31680.433594
407.249786 12689.217773
407.257599 2976.134277
407.265381 316.686737
407.273163 20.450747
407.694366 1276.912476
407.702179 6990.680664
407.709961 18188.072266
407.717773 32028.361328
407.725586 41872.785156
407.733398 36179.507812
407.741211 23030.292969
407.748993 9927.635742
407.756805 1675.067871
408.170929 335.426453
408.178741 3074.271973
408.186554 7897.054199
408.194397 12102.549805
408.202209 12060.992188
408.210022 6302.104004
408.217834 3127.354736
408.225677 435.446991
408.23349 39.780636
410.676819 359.090363
410.684692 4135.40332
410.692596 14421.8125
410.70047 31139.048828
410.708374 47089.96875
410.716278 48590.578125
410.724152 32496.630859
410.732056 16285.591797
410.73996 4116.484375
410.747833 255.082031
411.182343 178.406052
411.190247 1637.399292
411.198151 4492.931641
411.206055 9593.804688
411.213959 12415.394531
411.221863 10321.921875
411.229767 4683.273438
411.237671 2596.536133
411.245605 1114.500854
411.25351 311.682312
412.204132 802.035278
412.212067 2986.459473
412.220001 8536.585938
412.227936 17224.183594
412.23587 25277.664062
412.243805 26031.800781
412.25174 18642.996094
412.259674 8941.740234
412.267609 2262.73877
412.275543 25.180079
413.708069 2408.897461
413.716034 8877.212891
413.72403 16385.923828
413.731995 23437.443359
413.73999 23081.654297
413.747955 15825.337891
413.755951 7702.900879
413.763916 1486.7229
414.195221 301.819977
414.203217 3468.384766
414.211212 11229.525391
414.219208 18081.533203
414.227203 21444.226562
414.235199 15817.115234
414.243195 8188.832031
414.25119 1829.262939
414.675232 764.21698
414.683228 5983.456543
414.691254 26047.84375
414.699249 64511.914062
414.707245 103876.445312
414.715271 119322.96875
414.723267 90629.265625
414.731293 50514.414062
414.739288 19810.222656
414.747314 7573.036621
414.75531 4305.612305
414.763306 3961.648926
414.771332 3849.860107
414.779327 1031.348389
415.180145 396.088928
415.188171 3162.346436
415.196167 9377.05957
415.204193 19022.941406
415.212219 27663.242188
415.220245 27252.386719
415.228271 17465.603516
415.236298 8149.756836
415.244324 2497.586914
415.694 114.996231
415.702026 1142.690063
415.710083 5123.777344
415.718109 24715.757812
415.726135 61912.183594
415.734192 99526.085938
415.742218 116375.460938
415.750275 88078.203125
415.758301 49315.359375
415.766327 13095.15332
415.774384 3289.151123
415.78241 674.475464
415.790466 220.184631
416.192719 492.382172
416.200775 2494.469727
416.208832 7135.899414
416.216888 16449.097656
416.224915 28309.400391
416.232971 39151.464844
416.241028 43048.550781
416.249084 36421.777344
416.257141 22015.769531
416.265198 8914.520508
416.676208 1819.538696
416.684265 9246.740234
416.692322 35176.167969
416.700409 67390.421875
416.708466 90574.171875
416.716522 85116.054688
416.724609 57400.089844
416.732666 28644.208984
416.740723 7304.248535
416.74881 1775.819946
417.176697 1.675019
417.184784 909.516052
417.192841 5149.949707
417.200928 12158.751953
417.209015 19842.994141
417.217102 21989.777344
417.225189 15114.591797
417.233246 7510.117676
417.241333 1854.723877
420.190491 61.304729
420.198639 1744.428223
420.206818 5137.001465
420.214966 16560.40625
420.223145 37195.433594
420.231323 59330.550781
420.239471 65147.808594
420.24765 44127.917969
420.255829 22017.722656
420.264008 5543.30957
420.272156 882.070984
420.705505 64.045456
420.713684 2415.710938
420.721863 11472.463867
420.730042 39198.359375
420.73822 84687.328125
420.746399 133380.390625
420.754578 145082.546875
420.762787 99953.101562
420.770966 52563.101562
420.779144 14536.416016
420.787323 2454.679443
420.795502 700.539429
421.213257 517.808472
421.221466 2580.783691
421.229645 7628.19043
421.237854 15150.00293
421.246063 25405.248047
421.254242 30519.890625
421.262451 25720.927734
421.27066 15348.110352
421.278839 6494.188477
421.689087 348.070282
421.697327 3453.443848
421.705536 9448.014648
421.713745 22400.554688
421.721954 30946.5
421.730164 29335.416016
421.738373 20960.734375
421.746582 9776.916016
421.754791 483.276306
422.173981 228.633804
422.18219 1783.817871
422.19043 3227.212158
422.198639 4157.944824
422.206879 3659.330566
422.215118 1812.67749
422.659698 503.237823
422.667938 4769.265625
422.676178 14755.453125
422.684418 26971.058594
422.692657 37138.898438
422.700897 33833.742188
422.709137 20799.074219
422.717377 9010.470703
422.725616 2523.222656
423.20401 353.315643
423.21228 2620.580078
423.22052 4022.888672
423.22879 4822.411133
423.23703 3995.185303
423.2453 2036.411865
423.683228 310.438232
423.691498 4126.837891
423.699768 14058.4375
423.708038 30074.164062
423.716309 46729.921875
423.724579 50918.871094
423.732849 35551.691406
423.741119 18353.433594
423.74939 5576.527832
423.75766 1206.539062
424.196411 250.307205
424.204681 1945.635376
424.212982 3542.65625
424.221252 4317.963379
424.229553 3460.32373
424.237823 1626.007812
424.718811 234.382629
424.727112 1852.555542
424.735413 3710.799805
424.743713 5608.117188
424.752014 6140.654297
424.760315 4622.1875
424.768616 1998.421143
425.18396 108.9431
425.192291 1910.106812
425.200592 10295.398438
425.208923 27076.863281
425.217224 44667.777344
425.225555 52037.6875
425.233856 39901.789062
425.242157 22420.503906
425.250488 8366.583984
425.258789 2386.864258
425.26712 426.302185
425.691528 201.676895
425.69986 1808.862183
425.708191 5213.308594
425.716522 10570.452148
425.724854 14440.195312
425.733185 12103.774414
425.741516 7009.468262
425.749847 2005.123047
426.200012 274.0755
426.208374 2382.630615
426.216705 7856.064453
426.225067 15035.256836
426.233398 19952.167969
426.24173 17907.820312
426.250092 11079.473633
426.258423 4762.515625
426.266785 1187.556396
426.709412 382.614349
426.717773 3103.039062
426.726135 5854.449707
426.734497 11264.510742
426.742859 12423.570312
426.751221 9232.774414
426.759583 3830.161377
426.767914 1447.11731
427.697388 235.596603
427.70578 2476.665283
427.714172 8024.041992
427.722565 13293.09668
427.730927 16118.413086
427.739319 12409.117188
427.747711 6935.02002
427.756104 2291.022949
428.20108 244.603638
428.209473 1963.083008
428.217865 3279.977295
428.226288 4021.668945
428.23468 3485.02832
428.243073 2081.47998
428.251495 554.336487
428.705627 1427.728271
428.71405 5375.649902
428.722473 10047.673828
428.730896 21198.332031
428.739319 40132.046875
428.747711 60758.421875
428.756134 64559.914062
428.764557 47006.46875
428.77298 23494.039062
428.781403 6397.751953
429.219513 118.82621
429.227966 1278.4198
429.236389 5156.145508
429.244812 13228.644531
429.253265 14319.65625
429.261688 10114.71582
429.270111 5352.394531
429.278564 870.380493
429.286987 56.624104
429.709015 1935.930786
429.717438 7645.479004
429.725891 17100.199219
429.734344 28789.439453
429.742798 31646.087891
429.751251 21443.228516
429.759674 10306.142578
429.768127 2635.22583
430.190857 171.473251
430.19931 1521.252686
430.207764 3662.709717
430.216248 5901.312012
430.224701 6715.691895
430.233154 5669.714355
430.241638 3716.178223
430.250092 1814.940674
430.682007 328.104309
430.69046 2529.598877
430.698944 3711.6604
430.707428 3898.099609
430.715912 3101.525879
430.724365 1440.050049
431.173981 1421.429077
431.182465 9169.204102
431.190948 22615.228516
431.199432 36779.539062
431.207947 40157.429688
431.216431 30121.056641
431.224915 16846.640625
431.233398 7129.593262
431.241913 2607.038086
431.250397 1009.165955
431.258881 72.91256
434.203674 1920.463745
434.21228 7542.469238
434.220856 17338.457031
434.229431 28497.148438
434.238007 32281.568359
434.246582 22661.111328
434.255157 11434.544922
434.263733 3054.00415
434.272339 4.257429
434.68454 422.018311
434.693115 2815.969727
434.701721 5001.009277
434.710297 9300.469727
434.718903 40898.199219
434.727509 127877.34375
434.736084 263864.3125
434.74469 396720.125
434.753296 401644.1875
434.761871 261901.25
434.770477 127302.90625
434.779083 37417.335938
434.787659 9026.834961
434.796265 4837.879395
434.804871 2269.553955
435.209198 341.31958
435.217834 4069.734619
435.22644 26711.923828
435.235046 66593.023438
435.243652 111272.289062
435.252258 128143.351562
435.260864 90602.335938
435.26947 44805.363281
435.278107 14083.382812
435.286713 1839.698486
435.691711 201.594223
435.700348 1689.403564
435.708984 3626.088135
435.71759 4915.672852
435.726227 4326.57666
435.734833 2298.368164
435.743469 134.595581
436.200958 1178.889771
436.209595 4066.541992
436.218231 11806.900391
436.226868 22581.925781
436.235504 33441.585938
436.244141 32049.373047
436.252777 20381.517578
436.261444 9140.9375
436.270081 2034.213013
436.659149 97.147606
436.667816 1860.22998
436.676453 8430.387695
436.68512 14953.829102
436.693756 18077.769531
436.702423 13372.612305
436.71109 7139.432617
436.719727 899.118164
437.690582 467.541351
437.69928 4193.48291
437.707947 8658.101562
437.716644 13158.136719
437.725342 13015.108398
437.734009 7812.881348
437.742706 2586.564697
438.71698 301.258881
438.725677 2390.071533
438.734406 4459.757812
438.743103 5194.641113
438.751831 3999.743164
438.760559 1942.673462
439.703247 177.242905
439.712006 1507.700317
439.720734 3965.947266
439.729492 8761.073242
439.73822 12572.759766
439.746979 11558.770508
439.755707 6427.376953
439.764465 1793.256714
440.210785 434.444855
440.219543 3596.514893
440.228302 6674.189453
440.237061 8457.355469
440.245819 7370.599121
440.254578 4288.166016
440.263336 1502.482422
440.710419 275.884064
440.719177 2121.693115
440.727966 3669.822754
440.736725 4044.149658
440.745514 3019.213135
440.754272 1498.291504
441.70343 238.673645
441.712219 1876.148315
441.721039 3660.842773
441.729828 5226.770996
441.738617 5902.703125
441.747437 5183.915527
441.756226 3271.30957
441.765045 1287.841675
442.699799 165.513123
442.708618 2092.998291
442.717468 8690.171875
442.726288 25343.273438
442.735107 46231.570312
442.743958 62865.265625
442.752777 54873.6875
442.761627 33128.421875
442.770447 14293.069336
442.779297 3272.729248
442.788116 88.1446
443.185974 336.839905
443.194824 2752.861572
443.203674 5481.878418
443.212524 5330.370605
443.221375 7112.489258
443.230194 14187.75
443.239044 49249.085938
443.247894 121885.78125
443.256744 194534.9375
443.265594 214126.828125
443.274445 146097.328125
443.283295 72970.101562
443.292145 21899.09375
443.300995 2813.946289
443.309845 218.383163
443.726135 1342.208252
443.734985 4120.431641
443.743866 12379.935547
443.752716 23921.140625
443.761566 35810.839844
443.770447 33952.359375
443.779297 21351.777344
443.788177 9285.129883
443.797028 2152.46582
444.684875 290.886383
444.693787 2089.733154
444.702667 3129.121826
444.711578 4025.681152
444.720459 4259.322266
444.72934 3414.707764
444.738251 1638.661987
445.165436 502.940582
445.174347 5280.0
445.183258 16485.169922
445.192169 30926.167969
445.20108 40918.695312
445.209961 37419.351562
445.218872 24288.236328
445.227783 11616.631836
445.236694 3520.543701
445.245605 658.215759
448.209076 133.453781
448.218079 1207.817871
448.227081 4037.346436
448.236084 9883.545898
448.245087 16673.892578
448.254089 21231.017578
448.263062 17682.021484
448.272064 9972.074219
448.281067 3038.627686
448.29007 323.776703
448.677338 264.740112
448.68634 1744.906006
448.695343 3564.996582
448.704376 6204.250977
448.713379 21323.646484
448.722382 81047.648438
448.731415 186263.875
448.740417 288496.375
448.74942 316197.25
448.758453 223266.859375
448.767456 112162.648438
448.776489 36750.910156
448.785492 7907.911621
448.794495 4019.819336
448.803528 2618.077881
448.812531 978.225281
449.20047 64.493362
449.209503 1671.803467
449.218536 10417.169922
449.22757 28169.859375
449.236603 49525.09375
449.245605 65290.023438
449.254639 58053.617188
449.263672 36603.621094
449.272705 17307.097656
449.281738 4422.82373
449.697418 353.714294
449.706451 2516.022949
449.715485 3842.452393
449.724548 4403.982422
449.733582 4330.407227
449.742615 3744.768799
449.751678 2342.804932
450.204224 261.144989
450.213287 2367.267822
450.222351 6801.46582
450.231384 11484.294922
450.240448 15344.360352
450.249512 14067.792969
450.258575 8618.783203
450.267639 3537.707275
450.276703 894.944641
450.70282 627.688538
450.711884 3758.481201
450.720978 10446.962891
450.730042 18093.628906
450.739105 22574.279297
450.748199 19847.945312
450.757263 12686.636719
450.766327 5770.633789
450.775421 1441.052002
453.711884 404.214539
453.721039 2664.942383
453.730194 3192.712646
453.73938 3279.069824
453.748535 2803.381104
453.75769 1593.810791
454.207123 342.837921
454.216309 2475.869629
454.225494 4191.449707
454.23468 4621.28125
454.243835 3403.061768
454.253021 1535.903931
455.716248 397.962006
455.725464 2808.235107
455.73468 4433.619141
455.743896 4383.777344
455.753143 2787.163574
455.76236 1027.079956
457.19577 1559.934326
457.205048 11269.738281
457.214325 25693.279297
457.223602 109516.585938
457.23288 398097.71875
457.242126 1041857.9375
457.251404 1704330.625
457.260681 2070567.375
457.269958 1573464.125
457.279236 892936.875
457.288483 302868.0625
457.29776 81866.945312
457.307037 25028.763672
457.316315 12397.339844
457.325592 1415.336304
457.696747 222.26355
457.706055 1754.216675
457.715332 5247.035156
457.724609 25079.654297
457.733917 95197.421875
457.743195 249960.84375
457.752472 409330.8125
457.761749 500997.28125
457.771057 384935.78125
457.780334 219054.296875
457.789612 74292.21875
457.79892 15340.268555
457.808197 2351.658936
459.223297 217.160721
459.232635 1697.779663
459.241974 3914.521973
459.251282 6150.304199
459.26062 7003.36377
459.269958 5958.314453
459.279297 2759.790039
459.288635 903.102234
462.205139 209.868484
462.214569 2539.900146
462.223999 10788.014648
462.233398 29730.326172
462.242828 49652.578125
462.252258 62348.921875
462.261688 49389.234375
462.271118 28417.333984
462.280518 9548.996094
462.289948 1765.37439
462.686066 105.066322
462.695496 1460.001343
462.704926 4347.319336
462.714386 17045.308594
462.723816 57011.355469
462.733246 105041.171875
462.742706 145737.796875
462.752136 133037.203125
462.761566 83278.796875
462.770996 31470.923828
462.780457 8314.112305
462.789886 2342.255859
462.799316 79.351654
463.205536 74.202461
463.214996 3999.490479
463.224457 12779.831055
463.233917 22535.015625
463.243347 31072.035156
463.252808 26782.425781
463.262268 15976.432617
463.271729 5762.909668
463.281189 922.494751
464.209198 152.440186
464.218689 1403.877808
464.22818 4541.812012
464.23764 7523.062012
464.247131 8749.394531
464.256622 7649.489258
464.266113 5069.504395
464.275604 2294.449951
464.693268 376.238983
464.702759 3768.714355
464.71225 15138.53125
464.721741 42371.351562
464.731262 72989.1875
464.740753 93997.179688
464.750244 77603.015625
464.759766 45942.152344
464.769257 18109.78125
464.778748 4319.702637
464.788269 1115.730591
464.79776 286.660034
465.206604 869.723206
465.216125 3581.263428
465.225647 9418.908203
465.235138 17282.166016
465.244659 22327.410156
465.254181 20185.261719
465.263702 13159.282227
465.273224 5757.34082
465.282745 1033.753906
471.171814 73.64209
471.181519 2056.841064
471.191223 19102.925781
471.200897 68079.195312
471.210602 105269.765625
471.220306 340136.15625
471.230011 1153750.375
471.239716 2891620.75
471.24942 4667865.0
471.259094 5511653.0
471.268799 4057090.75
471.278503 2260061.75
471.288208 727721.4375
471.297913 203474.0
471.307617 79425.34375
471.317322 56015.902344
471.327026 10798.323242
471.336731 207.194839
471.676514 89.301186
471.686218 1145.30481
471.695953 5733.819336
471.705658 13800.854492
471.715363 38791.863281
471.725098 143407.5
471.734802 448591.75
471.744507 893853.4375
471.754242 1322455.625
471.763947 1302523.125
471.773651 840263.0625
471.783386 408917.8125
471.793091 116750.578125
471.802826 32760.269531
471.812531 15209.302734
471.822266 9907.987305
471.83197 3970.495605
471.841675 776.269226
472.182037 1154.371948
472.191742 9243.985352
472.201477 37691.328125
472.211212 106552.382812
472.220947 174080.765625
472.230682 206303.4375
472.240417 153417.125
472.250122 78434.4375
472.259857 27279.115234
472.269592 5417.231934
472.279327 864.642517
472.688354 681.421997
472.69809 4913.246582
472.707855 13384.549805
472.71759 32162.607422
472.727325 45804.609375
472.737091 44151.457031
472.746826 30649.273438
472.756561 16216.893555
472.766327 2243.674805
473.195496 305.954102
473.205261 2714.64624
473.215027 4676.837891
473.224762 14930.003906
473.234528 41740.78125
473.244293 71927.796875
473.254059 91985.9375
473.263824 74126.671875
473.27359 42759.285156
473.283356 15518.811523
473.293121 3157.118408
473.302887 551.005005
473.312653 55.351089
473.722992 1514.735962
473.732788 6570.077637
473.742554 13872.991211
473.752319 20766.078125
473.762115 19548.113281
473.771881 12454.599609
473.781677 5470.665527
473.791443 629.331604
476.216125 386.852753
476.225983 2659.456787
476.23584 4187.291992
476.245697 5336.611816
476.255554 5436.832031
476.265381 4109.825195
476.275238 1937.179199
478.212921 397.703217
478.222839 2922.366211
478.232758 6194.626953
478.242676 9921.675781
478.252594 6080.249023
478.262512 3614.345215
478.27243 1350.154297
478.699188 751.584045
478.709106 4759.918457
478.719055 11985.503906
478.728973 18646.582031
478.738922 21357.599609
478.74884 16292.111328
478.758759 9064.057617
478.768707 3083.235352
478.778625 798.005981
479.206085 274.628082
479.216034 2252.665771
479.225983 4543.496582
479.235931 5701.159668
479.24588 4748.034668
479.255829 2434.872314
479.723755 315.38797
479.733704 2188.016602
479.743683 3625.178711
479.753632 4217.191895
479.763611 3570.681152
479.77356 2178.247314
479.783539 126.635826
480.212311 6.950495
480.22229 1253.428467
480.232269 6456.231445
480.242249 19509.210938
480.252228 35711.558594
480.262207 49747.558594
480.272186 43325.820312
480.282166 26249.957031
480.292145 10158.167969
480.302124 2173.093506
480.69165 460.452301
480.70163 5500.756836
480.711639 35662.554688
480.721619 99445.492188
480.731628 169634.625
480.741608 215134.859375
480.751617 176816.390625
480.761597 104308.96875
480.771606 42031.558594
480.781586 13038.429688
480.791595 1846.488159
480.801575 28.25498
481.201721 1231.763306
481.211731 4107.427734
481.221741 13474.615234
481.23175 33361.152344
481.24176 47348.992188
481.25177 44229.679688
481.26178 30060.740234
481.27179 13826.418945
481.281799 995.62738
481.742676 350.865753
481.752686 2699.908691
481.762726 4561.908691
481.772736 5471.264648
481.782776 4841.97998
481.792816 2771.435303
483.139343 61.487892
483.149414 681.365967
483.159485 2549.075928
483.169556 4901.624512
483.179626 6921.766113
483.189697 6288.473145
483.199768 3791.738281
483.209839 1569.885376
483.21991 351.213318
484.734314 389.018158
484.744415 2516.266602
484.754547 3524.111328
484.764679 3979.457275
484.77478 3223.185303
484.784912 1520.464478
485.179871 586.065002
485.190002 4327.485352
485.200134 7465.675293
485.210297 15649.000977
485.220428 65733.59375
485.23056 205268.8125
485.240692 400843.375
485.250824 579776.5
485.260956 552146.875
485.271088 349094.0625
485.281219 163194.5
485.291382 46799.554688
485.301514 11473.449219
485.311646 7243.397461
485.321777 3786.488525
485.331909 1157.869751
485.342072 30.438002
485.707245 2024.476562
485.717407 13197.424805
485.72757 42432.886719
485.737701 87123.117188
485.747864 134336.5
485.758026 142488.515625
485.768158 101769.476562
485.77832 55038.800781
485.788483 16375.120117
485.798615 1043.838867
486.1745 119.591293
486.184662 1790.503174
486.194824 10224.380859
486.204987 29738.046875
486.215179 52992.398438
486.225342 71332.851562
486.235504 61355.308594
486.245667 36439.746094
486.255829 14903.822266
486.265991 3860.925049
486.276184 804.029846
486.693329 451.205688
486.703522 3718.917725
486.713684 10274.850586
486.723877 16237.751953
486.73407 18002.943359
486.744232 13415.325195
486.754425 8049.182129
486.764618 2928.95752
487.202789 416.891663
487.212982 3189.445557
487.223175 11275.780273
487.233368 28355.875
487.243561 45535.535156
487.253784 53121.320312
487.263977 39250.804688
487.27417 21161.304688
487.284363 6671.04834
487.294586 1328.474854
487.70282 396.483154
487.713043 2306.04834
487.723267 7626.936523
487.733459 17025.085938
487.743683 25223.275391
487.753906 25846.826172
487.764099 17583.195312
487.774323 8908.15918
487.784546 2498.124023
487.794769 277.658447
492.735504 306.330902
492.74588 2236.522217
492.756256 5140.786621
492.766632 7322.934082
492.777008 7463.890137
492.787384 5670.425781
492.79776 3073.585938
492.808136 445.363678
493.202545 506.903687
493.212952 3641.345703
493.223328 7702.652832
493.233704 10431.744141
493.24411 6634.337402
493.254486 4825.312988
493.264893 2801.340088
493.275269 1155.879517
493.72226 131.915878
493.732666 1493.086304
493.743073 5967.370117
493.753479 11732.876953
493.763885 16956.673828
493.774292 16546.519531
493.784698 10517.157227
493.795105 5019.333496
493.805511 855.024719
494.180298 59.79155
494.190704 933.828125
494.201141 4986.807617
494.211548 13417.771484
494.221954 58079.027344
494.232391 182695.828125
494.242798 388344.6875
494.253235 597436.0
494.263641 641366.125
494.274048 447009.0625
494.284485 235609.9375
494.294891 71471.15625
494.305328 15338.509766
494.315735 6075.716797
494.326172 4209.078125
494.336578 1704.326416
494.701569 4046.298584
494.712006 26230.476562
494.722412 78510.28125
494.732849 158365.375
494.743286 225654.515625
494.753723 241727.734375
494.76416 182033.53125
494.774597 104039.296875
494.785034 37601.296875
494.795471 10518.827148
495.192291 302.291046
495.202728 2657.994141
495.213196 9552.291992
495.223633 18724.126953
495.2341 25504.701172
495.244537 24445.488281
495.255005 16642.822266
495.265442 8397.064453
495.275909 2449.285645
495.286346 267.198273
495.715149 216.877029
495.725616 2971.553467
495.736084 12770.199219
495.746552 30155.595703
495.757019 46837.128906
495.767487 51064.570312
495.777954 36041.085938
495.788422 18654.003906
495.798889 6063.092285
495.809357 1533.810547
496.228363 219.107605
496.238861 1645.636841
496.249329 3890.290771
496.259827 5952.666016
496.270294 6181.896973
496.280792 4313.245605
496.29126 1803.669556
497.74118 515.772888
497.751709 3220.296875
497.762238 4647.435059
497.772797 5198.626953
497.783325 4253.930664
497.793854 2168.44043
501.213013 498.926636
501.223663 3936.061523
501.234283 9679.43457
501.244934 15453.84668
501.255585 17183.5
501.266205 12019.436523
501.276855 6058.306152
501.287506 1504.871826
501.692169 14.798594
501.70282 832.39447
501.71347 4913.681152
501.724121 23782.457031
501.734772 45090.789062
501.745453 61284.914062
501.756104 54596.230469
501.766754 32062.71875
501.777405 10526.360352
501.788055 1580.199829
502.20401 238.072449
502.214691 1724.45813
502.225342 3875.286133
502.236023 5639.250488
502.246704 5641.108398
502.257355 4044.948975
502.268036 1966.807739
505.162415 27.40888
505.173157 523.555664
505.183929 821.598511
505.194702 969.778259
505.205475 835.010315
505.216248 491.801331
506.219147 44.280231
506.229919 537.787048
506.240723 1070.234253
506.251526 1496.908203
506.262329 1564.356567
506.273132 1189.740234
506.283936 600.202026
506.294739 104.917557
506.683838 128.892685
506.694672 1644.043823
506.705475 5530.916504
506.716309 3303.297852
506.727112 4262.004883
506.737915 11523.669922
506.748749 37396.613281
506.759552 79616.773438
506.770386 121740.757812
506.781189 127528.125
506.792023 85453.953125
506.802826 42162.773438
506.81366 10882.694336
506.824463 2150.679443
507.225037 68.758003
507.23587 1773.174438
507.246704 7965.157227
507.257507 17714.09375
507.268341 25931.283203
507.279175 26030.224609
507.290009 17728.650391
507.300842 9031.726562
507.311707 2879.913086
507.32254 662.488281
509.714722 95.058815
509.725616 1320.613159
509.736542 6192.579102
509.747437 13001.473633
509.758362 18690.033203
509.769287 17746.003906
509.780182 11334.518555
509.791107 5300.405273
509.802002 900.12561
514.738342 353.820221
514.74939 2420.468018
514.760437 4445.899902
514.771545 5246.118164
514.782593 4396.464844
514.793701 2480.780273
519.623108 350.223389
519.634338 7178.549316
519.645569 12867.198242
519.656799 15647.732422
519.66803 12810.254883
519.67926 6253.071777
519.724182 562.987671
519.735413 4558.088867
519.746643 11675.90332
519.757874 18281.994141
519.769104 19284.349609
519.780396 12700.375
519.791626 6231.412109
519.802856 1608.030762
520.218872 397.358704
520.230103 2748.286133
520.241394 6094.515137
520.252625 10695.137695
520.263916 9673.620117
520.275146 4841.374512
520.286377 2147.699219
522.714294 322.419495
522.725647 2198.664062
522.736938 4241.532715
522.748291 5193.571777
522.759644 4472.340332
522.770935 2872.959717
522.782288 1207.818726
528.219482 127.598335
528.230957 2046.669678
528.242493 8461.705078
528.254028 20275.46875
528.265503 33079.480469
528.277039 38917.144531
528.288513 31269.765625
528.300049 18464.189453
528.311584 7739.661133
528.323059 1895.12561
528.703308 214.034882
528.714783 1997.52417
528.726318 10426.161133
528.737854 48719.785156
528.74939 125893.898438
528.760925 209147.484375
528.772461 255706.84375
528.783997 197321.71875
528.795532 111257.164062
528.807068 39713.886719
528.818604 7760.458008
528.830078 1028.063599
529.210876 36.292427
529.222412 774.213989
529.233948 5879.540039
529.245483 18398.248047
529.257019 36924.664062
529.268555 55092.652344
529.280151 56285.460938
529.291687 37118.164062
529.303223 18302.546875
529.314758 4969.218262
529.326294 675.824951
529.719177 483.140472
529.730713 3052.838379
529.742249 5072.458496
529.753845 5721.151855
529.765381 4770.657715
529.776978 3270.280029
529.788513 1798.061646
530.216614 190.021149
530.22821 1443.814087
530.239746 3743.439453
530.251343 6098.226074
530.262939 6709.919922
530.274475 5280.29248
530.286072 3081.666992
530.297668 1282.348633
533.706848 257.159027
533.718506 3336.932373
533.730225 11911.678711
533.741882 30429.353516
533.753601 49974.628906
533.765259 60123.738281
533.776978 45783.460938
533.788696 25956.207031
533.800354 8345.636719
533.812073 804.589844
534.221619 1699.085327
534.233337 7753.77002
534.245056 15681.915039
534.256775 21052.408203
534.268433 18490.441406
534.280151 11778.407227
534.29187 4897.205566
534.303589 1187.526489
537.208008 688.114685
537.219788 3234.32251
537.231628 8481.142578
537.243408 39064.96875
537.255249 111891.101562
537.267029 222387.71875
537.27887 318406.90625
537.290649 302792.71875
537.30249 192249.09375
537.31427 90690.75
537.326111 27196.734375
537.337891 6849.318848
537.349731 4664.719727
537.361511 4884.492188
537.373352 5078.398926
537.727844 64.185501
537.739685 3841.218018
537.751526 17669.966797
537.763367 44695.675781
537.775146 73169.476562
537.786987 89671.25
537.798828 68797.664062
537.810669 36759.496094
537.822449 9596.844727
537.83429 1187.563965
542.201355 380.038971
542.213318 2560.97583
542.225281 8918.766602
542.237244 39541.179688
542.249207 109498.78125
542.261169 211918.140625
542.273193 299877.125
542.285156 281495.71875
542.297119 178639.265625
542.309082 84772.125
542.321045 24589.683594
542.333069 5213.279297
542.345032 3426.959717
542.356995 3306.82666
542.368958 3232.86084
542.656555 214.83461
542.668518 1571.523926
542.680542 5514.128906
542.692505 14466.709961
542.704468 21773.433594
542.716492 49548.648438
542.728455 173233.921875
542.740479 518275.8125
542.752441 994019.875
542.764465 1422970.5
542.776428 1343159.625
542.788391 847166.6875
542.800415 397462.1875
542.812378 114070.867188
542.824402 40035.347656
542.836365 20535.955078
542.848389 10874.991211
542.860352 4171.582031
542.872375 864.705688
543.19635 410.703796
543.208374 3850.657959
543.220337 14895.033203
543.232361 58539.875
543.244385 172236.5
543.256348 308645.1875
543.268372 418869.78125
543.280396 358210.625
543.292419 215336.859375
543.304382 85312.46875
543.316406 19446.097656
543.32843 3665.149902
543.340454 1692.91333
543.736938 584.58197
543.748962 3304.558594
543.760986 4343.310547
543.77301 4139.189941
543.785034 3040.96875
543.797058 1547.306396
551.133301 11326.192383
551.145569 46666.660156
551.170105 2038.98645
551.182373 19942.873047
551.194641 83939.898438
551.206909 243815.640625
551.219177 359523.3125
551.231445 834948.0
551.243713 2822780.75
551.255981 7720871.0
551.26825 13339512.0
551.280579 17354402.0
551.292847 14384098.0
551.305115 8483939.0
551.317383 3372181.75
551.329651 947308.125
551.341919 345784.15625
551.354187 263643.34375
551.366455 110105.6875
551.378723 48662.175781
551.698059 6799.095215
551.710388 41338.125
551.722656 85617.75
551.734924 289717.9375
551.747253 981550.125
551.759521 2485484.75
551.771851 4016125.5
551.784119 4819108.0
551.796387 3658851.5
551.808716 2066494.375
551.820984 706568.875
551.833252 195994.78125
551.845581 63864.640625
551.857849 39273.8125
551.870178 7197.516602
551.882446 3334.726318
551.919312 38.568886
551.931641 412.817352
551.943909 1412.53125
551.956238 3525.761475
551.968506 2044.5802
551.980835 586.930054
570.227112 671.382874
570.23999 4138.958984
570.25293 11190.947266
570.265869 18835.666016
570.278748 20998.755859
570.291687 15676.274414
570.304565 8378.405273
570.317505 3309.371094
570.330444 937.422485
573.273499 114.280617
573.28656 882.723877
573.299561 1221.276367
573.312561 1330.778442
573.325562 1112.639038
573.338623 609.652222
598.229309 503.519257
598.243225 2849.769775
598.25708 6132.092285
598.270935 10459.191406
598.284851 9446.733398
598.298706 4034.094727
598.312561 1376.574341
610.242126 366.929718
610.256409 2039.172119
610.270752 3827.972656
610.285034 4572.424805
610.299316 3675.273926
610.313599 1806.456543
643.304138 552.822632
643.319641 2485.37793
643.335083 3450.109863
643.350586 4041.702637
643.366028 3634.893799
643.381531 1995.686157
655.305298 624.300781
655.321228 2851.721191
655.337158 4136.907715
655.353027 4393.008301
655.368958 3294.768066
655.384888 1499.451904
656.292664 419.978241
656.308594 2050.280029
656.324524 3455.150635
656.340515 4181.34375
656.356445 3809.595459
656.372375 2171.061768
660.312622 474.41568
660.328735 2232.496826
660.344788 3470.688232
660.360901 3834.624268
660.377014 3346.682373
660.393066 2039.828979
672.315552 580.389893
672.332092 2733.617432
672.348633 4430.758301
672.365173 5138.586914
672.381653 4591.705566
672.398193 3303.979004
672.414734 1571.200317
684.25824 336.286407
684.275208 2925.154541
684.292175 10686.519531
684.309143 22530.857422
684.326111 32665.849609
684.343079 32718.488281
684.360046 21542.328125
684.377075 10058.527344
684.394043 2912.704346
684.411011 532.969849
688.315613 489.187286
688.332764 2235.282959
688.349854 3604.962646
688.367004 4051.270996
688.384094 3046.43042
688.401245 1287.987427
689.327026 263.105499
689.344177 1494.728027
689.361328 4167.049805
689.378479 8776.057617
689.395691 11857.201172
689.412842 9805.359375
689.429993 4290.346191
689.447144 1757.833252
700.319885 619.375977
700.337463 3033.312256
700.355042 6792.137207
700.37262 11487.920898
700.390198 10121.97168
700.407776 4728.668457
700.425354 2105.349121
701.269836 217.372299
701.287415 1877.820312
701.305054 8541.963867
701.322693 31060.955078
701.340271 58051.367188
701.35791 78217.484375
701.375488 69651.867188
701.393127 40608.601562
701.410706 13331.269531
701.428345 3050.571777
701.445984 241.66098
702.292297 356.226074
702.309937 1874.122681
702.327576 4668.643555
702.345215 9126.244141
702.362854 11525.032227
702.380554 8611.125977
702.398193 3729.818115
702.415833 1381.320557
704.27301 526.490173
704.29071 2462.177246
704.308472 4259.641113
704.326172 4995.849609
704.343933 3918.252441
704.361633 1272.828491
712.262329 1555.238892
712.280334 7545.254883
712.29834 16007.022461
712.316406 24285.720703
712.334412 24044.015625
712.352417 16259.956055
712.370483 7570.063477
712.388489 2251.13208
712.406555 346.497498
717.336243 126.355896
717.354431 696.155151
717.372681 1160.182739
717.390869 1402.974731
717.409119 1243.720581
717.427307 688.163757
726.32843 878.050659
726.346985 4148.808594
726.36554 7130.332031
726.384094 8498.222656
726.402649 7038.503906
726.421265 3894.605469
726.439819 1233.143188
728.318604 515.689087
728.337219 2367.570801
728.355835 4186.857422
728.374512 5229.09375
728.393127 4623.018555
728.411804 2664.9104
728.43042 780.089661
729.27002 591.413086
729.288696 6099.692871
729.307373 24749.244141
729.32605 50610.34375
729.344727 72882.304688
729.363403 76487.65625
729.38208 52699.925781
729.400757 25565.287109
729.419434 5743.492676
729.438171 855.144897
730.298218 739.404907
730.316956 3581.99585
730.335632 6209.975098
730.35437 7034.550781
730.373108 5558.583008
730.391785 3062.554688
730.410522 905.495361
733.282837 305.017181
733.301697 1641.94519
733.320496 3659.442871
733.339355 5173.210938
733.358154 4804.9375
733.377014 2847.474121
733.395813 883.260742
737.309875 520.190857
737.328857 2367.870605
737.347839 4009.028076
737.366821 4461.971191
737.385803 3599.71582
737.404785 1859.646606
738.317078 422.784668
738.33606 1906.501953
738.355103 3276.250488
738.374146 4010.726562
738.393127 3813.94873
738.41217 2746.121094
738.431213 1178.496826
743.345642 568.361694
743.364868 2415.827881
743.384033 3659.47168
743.403259 3680.651367
743.422485 2474.591309
743.441711 957.314148
745.348267 678.764282
745.367615 3205.788574
745.386902 5583.993652
745.406189 6235.12207
745.425476 4748.427246
745.444763 2187.081055
746.333313 777.053589
746.352661 3015.118164
746.372009 4013.332764
746.391357 4173.907715
746.410645 3053.677734
746.429993 1260.001953
747.300964 788.067505
747.320312 3955.196045
747.339722 8239.924805
747.35907 11763.523438
747.378418 11911.25293
747.397827 8136.063965
747.417175 4177.40625
747.436584 1432.182251
749.300171 514.848938
749.319641 2350.541748
749.339111 4010.71582
749.358521 4163.939941
749.377991 2709.225098
749.397461 943.129089
754.304077 577.17926
754.323669 3611.674561
754.343323 8926.597656
754.362976 13132.788086
754.382629 13503.323242
754.402283 8981.753906
754.421936 3783.916992
754.441589 1240.908325
755.306885 365.56189
755.326599 2557.272217
755.346252 7097.531738
755.365967 17563.691406
755.38562 29198.216797
755.405334 36221.59375
755.424988 29718.800781
755.444702 17446.583984
755.464417 6539.893555
755.48407 832.616821
756.351196 530.492737
756.370911 2315.914307
756.390625 3864.610107
756.4104 4427.928223
756.430115 3715.541748
756.449829 1967.798584
757.279053 334.363983
757.298828 1809.202393
757.318604 4101.455078
757.338379 5688.255371
757.358154 4924.96875
757.377869 2421.751709
757.397644 479.117371
766.290466 689.84021
766.310547 4826.98584
766.330688 13589.053711
766.350769 24728.871094
766.370911 32031.71875
766.391052 26598.773438
766.411133 15330.356445
766.431274 6018.155273
766.451355 1164.073364
767.337463 549.03418
767.357605 2144.505615
767.377747 3070.144775
767.397949 3329.878906
767.418091 2471.86499
767.438232 987.512451
769.356995 606.659668
769.377197 2610.605225
769.397461 4450.754395
769.417664 5409.822754
769.437927 4563.850098
769.458191 2499.365234
769.478394 721.442322
772.34021 742.613953
772.360535 4375.07666
772.38092 10206.686523
772.401245 14407.5
772.421631 15660.913086
772.441956 11627.305664
772.462341 5793.049316
772.482666 1385.407959
783.282837 312.982269
783.30365 2169.020996
783.324402 9162.744141
783.345215 31475.291016
783.366028 75397.179688
783.38678 116401.5625
783.407593 126935.585938
783.428345 93202.617188
783.449158 50130.15625
783.469971 15932.394531
783.490784 1806.32373
784.323242 401.817688
784.344055 2947.589355
784.364868 8558.228516
784.385742 14076.589844
784.406555 16652.560547
784.427368 13627.648438
784.448242 8296.305664
784.469055 3631.833008
784.489868 906.956238
794.289856 604.479492
794.311096 2592.41626
794.332336 5207.080078
794.353577 9011.300781
794.374817 11025.03418
794.395996 7991.553223
794.417236 3139.973633
794.438477 911.179016
797.333984 425.872345
797.355347 2973.382812
797.376709 8397.392578
797.398071 14057.357422
797.419434 17509.791016
797.440796 14906.529297
797.462097 8632.275391
797.483459 3364.819824
797.504822 1073.50708
800.309814 346.045746
800.331299 3317.477539
800.352722 14537.458984
800.374207 46847.617188
800.395691 99492.898438
800.417175 149268.578125
800.438599 155684.0625
800.460083 107241.734375
800.481567 54567.789062
800.503052 15369.516602
800.524536 1756.747925
801.341309 463.704956
801.362793 3516.162598
801.384277 10194.280273
801.405823 18218.941406
801.427307 23638.695312
801.448853 20409.291016
801.470337 12260.68457
801.491882 4924.606445
801.513367 470.291992
802.417847 638.444702
802.439392 2405.980957
802.460999 3301.772949
802.482544 3383.471436
802.504089 2707.50708
802.525635 1261.06311
811.284424 615.065857
811.306335 3260.732178
811.328247 14179.758789
811.350159 41754.972656
811.37207 72376.625
811.393982 87915.445312
811.415894 71895.453125
811.437805 40080.492188
811.459778 12490.148438
811.481689 2834.814209
811.503601 252.369034
812.315247 493.101746
812.337219 3150.065186
812.359131 8105.896484
812.381104 12671.621094
812.403076 14970.755859
812.425049 12377.860352
812.44696 7096.181641
812.468933 1942.515991
813.370056 832.445618
813.392029 3333.404541
813.414001 5260.842773
813.436035 6174.251465
813.458008 5807.268066
813.480042 4465.896973
813.502014 2674.980713
813.524048 1000.030823
814.360779 892.05011
814.382812 4745.631348
814.404846 10531.665039
814.42688 15813.847656
814.448914 17756.925781
814.470947 13432.664062
814.492981 6909.726562
814.515015 1818.386597
825.334351 549.088806
825.356812 2271.936279
825.379272 4103.897949
825.401794 5790.5
825.424255 6019.398926
825.446777 4487.778809
825.469238 2056.247314
828.287537 551.398193
828.31012 3382.88623
828.332764 12190.683594
828.355347 46498.199219
828.37793 117051.976562
828.400574 195512.015625
828.423157 243321.671875
828.445801 199039.515625
828.468384 115943.890625
828.491028 45477.105469
828.513611 10350.37207
828.536255 277.952789
829.328308 426.267822
829.350952 3645.682617
829.373596 10510.657227
829.39624 20090.839844
829.418884 27788.765625
829.441528 25929.445312
829.464172 16350.072266
829.486816 7428.353027
829.509521 998.308289
832.348511 605.005737
832.371277 2614.312012
832.394043 4601.405273
832.416809 5428.250977
832.439575 4673.455566
832.462402 2998.498779
832.485168 1149.614014
842.31958 235.172729
842.342773 2010.609863
842.365967 9219.617188
842.389099 23744.283203
842.412292 41031.582031
842.435486 50492.074219
842.458679 41810.382812
842.481873 24403.425781
842.505066 10157.669922
842.528259 2433.479492
842.551453 173.57663
843.363708 1061.928711
843.386902 5006.817871
843.410156 10262.463867
843.43335 13293.698242
843.456604 10666.875977
843.479797 5752.204102
843.503052 1784.523804
844.270142 593.07251
844.293396 4159.091309
844.31665 15828.819336
844.339905 34647.652344
844.36322 51652.238281
844.386475 53351.578125
844.409729 37773.226562
844.432983 19363.400391
844.456238 6292.48877
844.479553 1351.677979
845.317871 807.330627
845.341187 3327.32959
845.364502 5833.80127
845.387817 7275.682617
845.411133 7221.552734
845.434387 6173.477051
845.457703 4752.53125
845.481018 3140.223145
845.504333 1468.140625
846.344238 755.161011
846.367554 4059.331543
846.39093 9663.604492
846.414246 15021.641602
846.437622 15765.836914
846.460938 10641.658203
846.484314 4798.915039
846.50769 719.659119
855.286377 632.187256
855.31012 2521.613525
855.333801 4004.651855
855.357544 4130.995117
855.381226 2670.597168
855.404968 696.394714
856.30719 946.883789
856.330933 3725.708984
856.354675 9874.538086
856.378479 18519.068359
856.402222 24298.603516
856.425964 20338.355469
856.449768 12109.498047
856.473511 4975.616211
856.497314 1134.017456
858.354248 114.070435
858.378113 1116.135254
858.401917 4889.698242
858.425781 12229.116211
858.449646 19415.972656
858.473511 23535.205078
858.497314 18736.8125
858.521179 10278.886719
858.545044 3229.046387
858.568909 230.354126
859.380554 557.838196
859.404419 2685.336182
859.428345 5744.435547
859.452209 7794.387207
859.476074 7555.093262
859.5 5438.799805
859.523865 2331.069824
861.2948 107.64463
861.318787 1858.091797
861.342773 8202.52832
861.366699 18564.412109
861.390686 27635.425781
861.414673 28713.705078
861.43866 20462.390625
861.462646 10141.969727
861.486572 2630.604004
861.510559 368.593506
867.366821 613.968384
867.391052 3715.57666
867.415222 9552.682617
867.439453 15045.845703
867.463684 16117.320312
867.487915 11086.901367
867.512146 5599.952148
867.536377 1537.989624
870.353821 458.588715
870.378174 2023.914062
870.402527 3955.60791
870.42688 5341.553223
870.451233 5061.851074
870.475586 3245.91626
870.499939 1154.974609
871.37738 951.715027
871.401733 3767.656494
871.426147 8036.222656
871.4505 12807.783203
871.474915 11243.942383
871.499329 6981.522461
871.523743 3386.129883
871.548096 1180.025879
872.256104 515.114563
872.280518 3295.075195
872.304932 13521.563477
872.329346 37277.199219
872.353821 59654.199219
872.378235 70341.6875
872.402649 56030.117188
872.427124 30575.242188
872.451538 9136.134766
872.475952 2316.278809
873.307434 574.141052
873.331909 2473.384766
873.356384 4527.062988
873.380859 5457.262207
873.405334 4467.443359
873.42981 2437.281738
873.454285 747.882019
874.336121 596.588135
874.360657 3472.721924
874.385193 8486.441406
874.409668 13224.353516
874.434204 15149.923828
874.45874 11288.985352
874.483215 5412.04541
874.507751 990.636169
879.358704 489.507874
879.383423 2336.309814
879.408142 6327.396484
879.432922 12253.726562
879.457642 14106.928711
879.482361 10564.172852
879.50708 5077.20752
879.531799 924.346252
886.373291 560.257812
886.398315 2299.483643
886.42334 4017.908936
886.448364 4818.46875
886.473389 4090.888428
886.498413 2454.376221
886.523438 880.874939
888.353394 835.23175
888.378479 3230.848389
888.403625 5324.37207
888.428711 6419.166016
888.453857 5543.897949
888.478943 3256.33667
888.504028 1126.619629
889.283081 350.127411
889.308228 2957.727783
889.333374 12206.831055
889.358521 34236.183594
889.383667 56912.660156
889.408813 67704.0625
889.43396 54110.03125
889.459106 29893.742188
889.484253 6550.567871
889.50946 431.966614
896.366089 258.976257
896.391479 2233.489502
896.416931 8602.887695
896.442383 19088.267578
896.467834 28791.097656
896.493286 29870.771484
896.518738 20914.447266
896.544189 10723.492188
896.569702 3173.205078
896.595154 518.495728
899.376404 580.707031
899.401978 2445.858643
899.427551 4641.637695
899.453125 6435.997559
899.478699 6741.361328
899.504272 5224.730469
899.529846 2818.441406
899.555481 868.783691
913.400269 516.006653
913.426453 2695.10083
913.452637 6838.121582
913.478821 12010.275391
913.505005 14372.051758
913.531189 11158.771484
913.557373 6122.302246
913.583557 2433.783447
913.609741 785.368042
924.334351 574.726379
924.361023 2508.016846
924.387695 7943.277832
924.414307 23089.888672
924.440979 46485.714844
924.467651 65137.050781
924.494263 61905.296875
924.520935 38999.109375
924.547607 17753.771484
924.57428 4583.219238
924.600891 807.214233
925.374512 715.188965
925.401184 4120.660645
925.427917 11259.518555
925.45459 19710.980469
925.481262 25219.300781
925.507996 22922.310547
925.534668 14797.736328
925.561401 6585.681641
925.588074 1690.310913
926.336182 799.994263
926.362915 3095.555176
926.389648 5020.409668
926.416382 5564.50293
926.443115 4468.264648
926.469849 2709.926514
926.496582 1131.968994
932.947998 122.618973
932.974976 562.920349
933.002014 839.185059
933.029053 849.7453
933.056091 601.281372
933.083069 257.627167
941.353821 441.444336
941.381165 5014.85791
941.408569 21836.134766
941.435974 64848.792969
941.463379 135055.609375
941.490723 198968.53125
941.518127 204677.3125
941.545532 137258.78125
941.572937 67953.539062
941.600342 17423.892578
941.627747 1604.564087
941.655151 11.895936
942.395386 1758.78894
942.422791 7208.825684
942.450256 18187.660156
942.477661 30491.730469
942.505127 39823.914062
942.532532 32860.785156
942.559998 19305.3125
942.587402 6593.183594
942.614868 847.112
943.30127 591.882812
943.328735 3427.619873
943.356201 13408.057617
943.383728 39835.214844
943.411194 81821.914062
943.43866 113304.507812
943.466125 108041.820312
943.493591 71059.867188
943.521118 33219.796875
943.548584 7310.224609
943.57605 1454.37793
944.346069 574.680176
944.373596 4415.295898
944.401123 11542.477539
944.42865 18455.796875
944.456177 21762.40625
944.483704 17157.84375
944.51123 9824.59082
944.538757 3151.502686
957.357239 298.516693
957.385315 2682.474121
957.413391 8074.993652
957.441528 13226.543945
957.469604 15411.569336
957.497681 12326.412109
957.525757 6760.628418
957.553894 1768.267334
960.341553 770.500732
960.369751 5345.54541
960.39801 20285.736328
960.426208 52098.039062
960.454407 82002.453125
960.482666 91589.976562
960.510864 68071.828125
960.539124 36281.515625
960.567322 8210.177734
960.595581 921.34082
961.386536 1113.322266
961.414795 5298.765625
961.443054 11508.048828
961.471313 16397.912109
961.499573 15575.261719
961.527893 9722.441406
961.556152 4257.516602
961.584412 1094.573975
969.235596 112.389397
969.264221 1173.408813
969.292847 3838.415771
969.321472 6355.385254
969.350098 10594.394531
969.378662 21427.21875
969.407288 68622.929688
969.435913 193554.125
969.464539 363486.96875
969.493164 509088.59375
969.52179 468919.9375
969.550415 288958.125
969.579041 125488.1875
969.607666 26090.427734
969.636292 5832.290527
969.664917 4992.649414
969.693542 5180.43457
969.722229 4069.919922
969.750854 68.22007
970.352478 840.926147
970.381104 5289.001465
970.40979 20349.203125
970.438477 58781.558594
970.467102 102621.929688
970.495789 136474.75
970.524475 128014.3125
970.553101 75659.226562
970.581787 30436.392578
970.610474 4524.80957
971.270325 485.059357
971.299011 2581.689453
971.327698 5234.37207
971.356384 17992.132812
971.385132 51687.824219
971.413818 95275.117188
971.442566 126379.726562
971.471252 110720.023438
971.499939 67756.25
971.528687 27058.240234
971.557373 4033.835205
971.586121 769.249634
972.333191 616.145813
972.361938 3939.057129
972.390686 10875.321289
972.419434 18969.791016
972.448181 23233.833984
972.476929 18715.271484
972.505676 10678.885742
972.534485 4052.905762
972.563232 653.980408
974.377625 470.998199
974.406494 3667.396484
974.435303 10377.046875
974.464172 18824.416016
974.492981 25104.826172
974.521851 21416.949219
974.55072 12077.563477
974.579529 4362.841309
974.608398 418.632843
985.342224 850.417603
985.371521 5497.328613
985.400879 14223.037109
985.430237 24355.345703
985.459534 29822.451172
985.488892 23085.625
985.518188 12551.818359
985.547546 3999.944824
985.576904 234.085144
986.369507 716.064819
986.398926 2861.131592
986.428284 5253.240234
986.457642 7137.442383
986.487061 7087.814941
986.516418 4902.384766
986.545776 2099.412598
986.575195 1.66037
987.369019 278.669617
987.398438 3340.231934
987.427856 11527.518555
987.457275 30277.912109
987.486694 50202.496094
987.516113 62916.03125
987.545593 49348.605469
987.575012 27730.248047
987.604431 8188.892578
987.63385 777.703674
988.311096 258.710541
988.340576 2538.679199
988.370056 11272.8125
988.399536 34967.691406
988.428955 76150.1875
988.458435 112821.609375
988.487915 117231.992188
988.517395 80368.335938
988.546875 39518.292969
988.576355 8855.887695
988.605774 1249.852905
989.343079 431.951263
989.372559 2633.66748
989.4021 7755.564941
989.43158 14792.703125
989.461121 19759.119141
989.490601 18239.275391
989.520142 11785.538086
989.549683 5455.699707
989.579163 1077.740845
1001.372742 550.834778
1001.402771 2848.45166
1001.432861 7188.152344
1001.462891 11982.097656
1001.49292 13245.262695
1001.52301 9388.040039
1001.55304 4680.773438
1001.58313 1460.595337
1002.334961 303.165985
1002.365051 2637.290283
1002.395142 8457.81543
1002.425232 21807.046875
1002.455322 37173.660156
1002.485413 46198.929688
1002.515503 37446.171875
1002.545654 21246.617188
1002.575745 7371.899414
1002.605835 728.068787
1003.388977 735.777466
1003.419128 2988.956299
1003.449219 7009.695801
1003.47937 11270.138672
1003.509521 10206.261719
1003.539673 5858.277344
1003.569824 1928.783325
1018.413757 725.167969
1018.44458 3950.356201
1018.475403 9368.96582
1018.506226 13501.546875
1018.537048 12638.301758
1018.567871 7284.562012
1018.598694 3170.540771
1018.629517 1097.526733
1106.524048 3643.045166
1106.55896 13942.016602
1106.593872 19129.578125
1106.628784 18847.943359
1106.663696 13113.938477
1106.698608 5291.49707
END IONS
