BEGIN IONS
PEPMASS=831.424
CHARGE=1
MSLEVEL=2
SOURCE_INSTRUMENT=LC-ESI-Orbitrap
FILENAME=f.ktahlan/KT-1/MUN/Methanol/SC/3 SC onTSB mrth-pos.mzXML;
SEQ=*..*
IONMODE=Positive
ORGANISM=GNPS-LIBRARY
NAME=Tunicamycin A M+H
PI=Tahlan
DATACOLLECTOR=lfnothias
SMILES=CC(C)CCCCCCCCCC=CC(=O)NC1C(C(C(OC1OC2C(C(C(C(O2)CO)O)O)NC(=O)C)CC(C3C(C(C(O3)N4C=CC(=O)NC4=O)O)O)O)O)O
INCHI=
INCHIAUX=
PUBMED=
SUBMITUSER=lfnothias
TAGS=
LIBRARYQUALITY=3
SPECTRUMID=CCMSLIB00005435938
SCANS=4400
70.029114 5674.36084
70.065384 39741.183594
71.013016 5525.454102
71.049408 15094.814453
71.085777 31437.898438
72.044609 16143.245117
72.081139 2944.313965
73.065254 2416.72998
74.096634 3103.239746
79.05442 70499.265625
80.049713 29894.019531
81.033592 61365.757812
81.070023 198952.640625
82.065323 49383.820312
83.012695 3033.701172
83.049271 65398.359375
83.085632 227985.34375
84.044495 1118420.875
84.081078 2382.211182
85.028503 20339.972656
85.064751 4564.98877
85.101326 15865.907227
86.096481 13951.620117
91.054161 10261.182617
92.049591 5691.834473
93.033249 2771.979736
93.069901 104464.765625
94.065147 5754.032227
95.012711 51762.652344
95.049309 14094.000977
95.08551 172435.015625
96.007851 5279.942871
96.044365 555262.6875
97.028442 88188.21875
97.064926 28591.960938
97.101166 145398.265625
98.060005 116426.75
99.044067 21526.398438
99.080452 12268.186523
100.039536 3437.337158
101.023781 2410.311523
101.095581 2228.548828
102.054916 3706.942383
103.054138 4387.648926
105.070061 5260.83252
106.065132 11855.323242
107.049065 10390.22168
107.085449 70588.382812
108.044411 25069.830078
109.028496 68667.25
109.101151 197563.5
110.060043 65699.546875
111.044067 91821.085938
111.049629 2050.831299
111.08046 18431.648438
111.116867 49753.980469
112.039185 23202.662109
113.034531 295032.46875
113.096069 10133.583984
114.055054 14694.294922
116.070137 4485.133789
118.065239 5742.29834
120.04464 9776.379883
120.080788 12550.173828
121.02832 13727.094727
121.065308 4175.435059
121.101166 135434.640625
122.059769 22434.355469
123.043777 16225.475586
123.116699 127479.414062
124.038818 18547.320312
125.096138 15973.890625
125.132576 9108.848633
126.054893 383813.71875
127.038902 34083.074219
127.112007 5720.474609
130.04985 3604.934082
130.065308 14902.488281
131.049042 13939.287109
133.027557 3462.515869
134.060104 36923.566406
135.043884 9251.794922
135.116791 171929.484375
136.039459 11748.839844
136.0755 4745.962891
137.023453 9190.397461
137.13205 16362.523438
138.054901 2008503.75
139.038879 98885.6875
139.057831 9665.301758
139.111588 5649.650879
140.070496 17906.755859
141.029266 3321.531738
144.06546 383412.0625
146.060181 5118.386719
147.043991 3989.269775
148.0392 33355.480469
148.0755 33281.703125
149.059769 16114.280273
149.132507 87538.078125
150.054688 16543.21875
151.038574 2939.887939
152.070663 14626.820312
155.044647 8585.870117
156.065475 56874.554688
157.0495 11584.967773
158.060379 20289.943359
159.044174 5926.663574
160.039444 9893.016602
162.05481 29119.529297
163.038666 24494.951172
163.061584 2822.123779
163.148254 27204.974609
164.070389 9290.271484
165.164078 4615.628906
168.065506 397012.78125
170.081589 2692.161377
176.070526 63345.03125
177.054703 15245.026367
178.049942 37364.554688
180.065582 13972.688477
182.081238 2405.042236
186.075989 348690.46875
187.039597 3543.254883
194.0811 21382.435547
198.074768 3514.594482
204.065887 153227.015625
204.08667 644642.4375
205.049423 42140.96875
205.195175 85356.015625
213.122543 2340.972168
222.076111 149641.578125
223.059753 16559.433594
223.20575 69420.976562
229.155731 4267.642578
233.055145 5740.748047
240.086548 126519.632812
240.232193 193578.53125
241.072327 2917.625977
241.236603 3215.986572
258.096619 10337.006836
264.231018 16401.330078
269.076691 17897.40625
278.248749 2712.770752
287.087463 4844.839844
288.231506 3079.767822
289.215424 2343.365234
290.247742 39647.398438
298.083069 3543.074707
304.225128 2680.267578
306.242249 963508.9375
307.244751 12574.996094
316.092285 9058.878906
316.226929 51911.917969
316.261444 4725.614258
317.076691 3099.818848
318.242859 41203.175781
330.243042 2536.641846
332.257996 34528.28125
334.102386 18906.085938
334.236786 9016.499023
335.092743 2645.428711
342.242676 4942.010254
351.4599 2504.147705
352.114014 110550.882812
356.259186 13836.248047
360.253082 201490.421875
374.268921 3425.429932
378.218353 4261.660645
378.263672 103992.921875
396.275574 3850.500488
398.271545 5206.577148
400.248505 27211.521484
403.220703 3676.229736
404.276703 3498.323242
408.255585 5511.650879
420.272369 2750.872803
426.26474 43427.234375
434.292633 2893.411621
444.274261 84585.5
447.344635 16612.748047
448.349335 3695.927979
462.284729 568879.3125
463.289093 5207.889648
480.294525 18192.119141
498.30542 40336.816406
530.382263 4315.491699
538.29071 12543.021484
556.301453 40236.601562
574.312317 241623.953125
610.333313 359219.21875
611.339539 3192.179443
832.350769 2846.566162
END IONS
