BEGIN IONS
PEPMASS=857.281
CHARGE=1
MSLEVEL=2
SOURCE_INSTRUMENT=LC-ESI-Orbitrap
FILENAME=f.daniel/Albis/XA_Frac_6.mzXML;
SEQ=*..*
IONMODE=Positive
ORGANISM=GNPS-LIBRARY
NAME=Methoxy-MCA-Albicidin M+H
PI=Roderich Suessmuth
DATACOLLECTOR=Daniel Petras
SMILES=C/C(C(NC1=CC=C(C(NC(CC#N)C(NC2=CC=C(C(NC3=CC=C(C(NC4=CC=C(C(O)=O)C(O)=C4OC)=O)C(O)=C3OC)=O)C=C2)=O)=O)C=C1)=O)=C\C5=CC=C(OC)C=C5
INCHI=
INCHIAUX=
PUBMED=28876492
SUBMITUSER=daniel
TAGS=
LIBRARYQUALITY=3
SPECTRUMID=CCMSLIB00004681476
SCANS=687
285.083344 4.017094
285.666656 0.000194
294.0 1.17774
294.25 2.024343
294.833344 6.1e-05
330.666656 0.957262
331.083344 6.369924
331.666656 0.000377
333.0 1.089349
333.583344 5.8e-05
334.916656 2.17006
335.333344 1.310266
335.916656 7.8e-05
348.916656 2.198757
349.083344 2.456229
349.666656 0.000156
358.166656 2.320204
358.666656 0.000186
381.25 2.681641
381.833344 0.000145
416.083344 2.735706
416.666687 0.000229
429.166687 2.716569
429.75 0.00016
452.916687 0.648218
453.5 4e-05
458.916687 1.43223
459.583344 0.848737
460.083344 7.5e-05
468.25 20.673769
469.0 0.000541
481.5 1.548745
482.0 0.000118
500.166687 1.563208
500.416687 1.041566
501.0 8e-05
509.25 37.496864
510.25 0.000113
527.416687 0.352794
527.916687 2.9e-05
568.5 0.517362
569.083374 3.5e-05
582.916687 2.443407
583.5 0.000134
630.416687 1.827245
631.0 9.2e-05
633.666687 0.517112
634.25 3.3e-05
674.083374 94.171021
674.25 95.330589
675.083374 0.000913
681.75 1.905958
682.333374 0.000113
682.666687 1.629029
682.833374 1.516494
683.166687 0.7832
683.5 3.540282
684.0 0.000169
725.333374 2.906679
725.916687 0.000177
730.166687 1.226989
730.75 8.9e-05
755.25 2.211822
755.833374 0.000155
757.083374 3.085175
757.75 0.000123
761.5 1.35162
762.083374 0.000102
764.666687 0.594132
765.166687 0.954511
765.75 5e-05
767.0 1.093366
767.583374 7.2e-05
769.833374 0.842798
770.333374 6.3e-05
782.583374 0.617896
783.083374 3.7e-05
798.666687 1.480249
799.166687 0.000135
802.583374 1.188417
803.083374 6.9e-05
810.833374 1.365817
811.416687 7e-05
811.666687 1.153013
812.166687 6.8e-05
812.583374 0.688298
813.083374 5.2e-05
820.666687 1.96201
820.916687 2.129101
821.416687 2.478932
821.583374 1.654479
822.166687 8.7e-05
827.166687 1.027204
827.666687 9.7e-05
834.833374 1.078446
835.416687 6.8e-05
838.583374 3.340724
838.916687 1.801912
839.166687 14.88474
839.75 0.000712
840.166687 1.090998
840.666687 6.8e-05
848.166687 4.397144
848.916687 2.3e-05
864.416687 0.616759
864.916687 5.6e-05
END IONS
