BEGIN IONS
PEPMASS=1113.0
CHARGE=1
MSLEVEL=2
SOURCE_INSTRUMENT=DI-ESI-Ion Trap
FILENAME=Didemnin_B_IT_1113mz.mzXML
SEQ=*..*
IONMODE=Positive
ORGANISM=GNPS-LIBRARY
NAME=Didemnin B M+H
PI=Dorrestein/Moore
DATACOLLECTOR=Roland Kersten
SMILES=O=C(N1CCC[C@H]1C(=O)N(C)[C@@H](C(=O)N[C@@H]3C(=O)N[C@@H]([C@@H](O)CC(=O)O[C@H](C(=O)[C@@H](C(=O)N[C@H](C(=O)N2CCC[C@H]2C(=O)N(C)[C@H](C(=O)O[C@@H]3C)Cc4ccc(OC)cc4)CC(C)C)C)C(C)C)[C@@H](C)CC)CC(C)C)[C@@H](O)C
INCHI="InChI=1S/C57H89N7O15/c1-15-33(8)46-44(66)29-45(67)79-49(32(6)7)48(68)34(9)50(69)58-39(26-30(2)3)54(73)64-25-17-19-41(64)56(75)62(13)43(28-37-20-22-38(77-14)23-21-37)57(76)78-36(11)47(52(71)59-46)60-51(70)42(27-31(4)5)61(12)55(74)40-18-16-24-63(40)53(72)35(10)65/h20-23,30-36,39-44,46-47,49,65-66H,15-19,24-29H2,1-14H3,(H,58,69)(H,59,71)(H,60,70)/t33-,34-,35-,36+,39-,40-,41?,42+,43-,44-,46+,47-,49-/m0/s1"
INCHIAUX=N/A
PUBMED=22458477
SUBMITUSER=mcruesemann
TAGS=
LIBRARYQUALITY=3
SPECTRUMID=CCMSLIB00000075320
SCANS=82
314.078156 12.725374
317.08725 115.643234
318.954285 34.826729
321.167999 427.342926
322.208191 70.33934
323.155914 32.635632
323.911591 26.062618
326.221985 13.962071
327.362976 53.19812
328.165924 18.273848
330.316193 6.4944
331.361633 4.721335
332.47757 18.017752
333.224792 33.790962
334.082947 19.24641
335.102783 115.980827
336.1763 122.182144
337.035461 81.742508
338.193115 15.568351
339.007233 36.776066
341.126648 51.370804
342.066284 39.404041
344.253937 5.947228
345.263641 34.628803
346.31073 14.949905
347.055145 20.995708
348.135193 51.404572
349.126038 2748.205322
350.218506 320.423309
351.253143 30.761871
352.33786 51.862514
353.185089 75.886459
354.264038 290.477081
355.18692 30.906261
356.020447 37.437302
356.909485 56.489601
358.180969 9.439566
359.622772 11.728859
361.006531 66.343842
362.161194 187.706635
363.315704 21.929726
364.310699 63.703766
365.221252 26.320463
366.183899 143.357574
367.164642 711.367554
368.251801 180.994766
369.309235 23.451126
369.82132 14.869531
372.17688 117.791534
373.205933 100.779251
374.171783 23.221519
375.192535 5499.87793
376.166748 603.012512
376.727264 5.529348
378.13269 24.958626
378.68454 2.679513
379.214874 137.047699
380.123413 742.938354
381.178162 112.196716
382.28302 41.139549
382.923401 33.379837
383.468262 31.75577
384.285339 3.554385
385.258545 16.61307
386.120789 104.037056
387.259674 57.474197
388.231293 17.595209
389.188934 20.235914
390.044891 267.549347
391.268616 53.737213
392.174347 96.865318
392.727203 42.374748
393.262543 47.668671
394.186615 114.01693
395.166382 23.182512
396.086151 50.135574
396.663727 62.737854
397.332611 141.069443
398.246643 241.220108
399.291718 207.879059
400.324249 22.424234
401.730011 105.243088
402.425232 247.713135
403.299652 95.415871
404.189545 33.665665
405.071625 12.344246
407.017242 18.510962
408.078583 89.441742
409.049072 212.440109
409.764221 9.397559
410.367645 59.160534
411.05899 138.780075
411.943756 54.054749
413.314972 25.183542
414.098907 48.482479
414.973694 14.367712
416.118896 53.370636
418.195679 80.098137
419.326782 3.144675
420.273682 670.168213
421.130676 122.132713
421.972961 44.78051
422.527435 28.655766
424.384247 143.539368
425.155334 482.833405
426.513153 138.189621
427.226288 2346.804688
428.299713 302.608795
429.119598 7.630656
430.289734 142.806717
431.113495 49.272976
432.137115 41.924099
433.038025 100.399345
434.164093 284.567505
434.727264 9.670115
435.236786 89.429253
436.175446 16.374598
437.080994 79.566307
438.19162 33.132317
439.156403 211.246063
440.291779 54.039795
441.027924 12.825409
442.217529 14.779783
443.769653 53.10664
444.398102 7.366613
445.214478 84.894875
446.216797 420.605438
447.170685 239.098953
448.336456 137.227188
449.230988 169.526718
450.138123 123.534058
451.054169 50.344925
451.636383 1.044069
452.221008 27.53639
452.773743 5.79054
453.442261 155.882614
454.32019 27.794416
455.508484 37.977795
456.369446 51.520832
458.171783 103.891045
459.331573 33.680325
460.251343 213.44014
461.085327 68.363838
461.762085 72.021973
462.585999 8.220148
463.138153 20.650282
464.189423 530.0177
465.225677 498.602478
466.205933 197.464432
467.178192 38.185162
468.31897 52.636688
469.270782 34.6106
471.322296 8.013012
471.983093 18.626049
473.199921 140.037796
474.2771 594.424805
475.210144 150.060211
476.261749 124.86235
477.268463 192.64856
478.153015 54.007771
478.741913 26.782557
479.483917 3.822784
480.299255 24.882034
481.199371 9.707967
482.300446 1522.540527
483.438965 202.416916
484.393829 65.426651
485.255493 120.346977
486.101562 86.171356
487.207031 61.125
487.77533 31.173731
488.277008 359.887695
489.233154 83.731865
490.288086 61.373947
491.083923 32.32613
492.248383 3188.918701
493.246979 894.262024
494.367432 122.68634
495.227203 18.801819
496.241028 162.971176
496.982178 10.883417
497.517578 22.085325
499.419647 30.930447
500.005219 6.785688
500.513031 48.637207
501.406799 75.462219
502.359924 65.8862
503.234009 166.327148
503.77066 9.842632
504.297241 69.926422
505.410492 3.609798
506.361603 197.577438
507.384796 92.595261
509.147858 31.43
509.760773 443.980133
510.263763 16296.428711
511.288391 2959.729248
512.297668 570.134155
513.38269 148.545395
514.419006 27.442196
515.289124 19.244177
516.267212 4.115857
517.082092 92.221298
517.756714 5.009132
518.286438 36.318867
519.228943 1548.198853
520.208252 1118.056519
521.28418 229.182922
522.284973 71.510544
523.363525 113.828247
524.287842 1059.635254
525.336121 166.455353
527.09613 25.147141
528.290649 1770.177979
529.270874 1548.130249
530.192871 165.486191
530.940247 62.117805
531.686401 17.713482
532.358765 61.689865
533.222656 91.532516
534.37854 47.882401
535.38147 92.826744
536.348694 137.076324
537.286621 7185.420898
538.281494 4670.779297
539.222107 682.244263
540.186951 1143.912354
541.252319 403.215698
542.261292 579.27533
543.267761 129.833466
544.190796 57.304756
545.136353 37.125992
545.990051 12.62512
547.249512 641.352844
548.321472 355.573212
549.488342 30.438717
550.259827 106.27742
551.062378 28.9706
552.463135 71.453957
553.313049 49.437649
554.296814 71.815529
555.173157 1987.157104
556.095642 396.713196
557.195679 202.73735
558.262756 3818.372803
559.246826 1105.047119
560.202209 50.933838
560.824219 428.37616
561.362122 685.944458
561.923462 2055.486084
562.601318 712.869446
563.478333 218.963974
564.315186 83.266533
565.329895 384.561462
566.342651 372.967255
567.296936 84.464333
568.732788 1831.745728
569.417603 2441.075928
570.45575 287.545502
571.258301 82.238312
572.21344 124.790321
573.189026 89.574654
573.727295 1.804958
574.394409 11.005157
574.981995 11.625927
575.804077 1464.852417
576.344849 1255.760864
576.95697 403.170898
577.514465 61.119713
578.394409 242.910858
579.190186 88.302307
580.293701 300.409576
581.428406 111.760399
582.309204 33.54245
583.373779 13.564236
584.179199 71.744034
585.231689 406.011597
586.329834 65.471634
587.275208 10.609651
588.413452 94.471687
589.334351 635.604919
590.308838 219.154465
590.860107 36.918556
591.499939 87.905602
592.415222 70.84745
593.290222 156.502945
593.882263 8.607122
594.485046 34.945511
595.24231 80.597069
595.953003 63.007877
596.582886 8.086875
597.437256 41.413849
598.453857 91.048615
599.419922 36.247528
600.264954 53.4902
601.366821 60.541958
602.021057 22.416113
602.537048 104.465553
603.356689 113.592926
604.359253 47.499756
605.247253 21.537727
606.364685 291.396606
607.334045 1119.812744
608.368164 2149.746338
609.336914 1029.255127
610.343689 85.671638
611.386719 62.644886
612.460266 33.072144
613.523499 73.007408
614.265198 37.658779
614.998779 42.348854
615.760742 35.437115
616.355225 163.101685
617.185913 114.146202
617.692139 37.1577
618.343628 256.931152
619.392883 564.780212
620.313965 219.543991
620.818176 12.769291
621.372559 41.688858
622.421143 29.110332
623.289795 23.312683
624.270325 130.583527
625.3078 925.70459
626.397278 163.931824
627.380615 201.068115
628.014343 96.893265
628.536438 120.202759
629.49707 46.48349
630.531616 46.590164
631.339966 211.760956
632.257385 168.913345
633.059143 4.123506
634.264893 435.178253
635.336487 1523.608765
636.343811 618.348145
637.325439 4061.574951
638.450378 769.689697
639.560059 54.902618
640.387817 75.631195
641.267273 124.528442
642.294617 663.160767
643.298706 380.195038
644.353821 55.092403
645.260925 167.35434
646.256836 25.216309
647.445557 103.780151
648.367859 29.790031
649.288452 147.436646
649.818176 2.855453
650.431946 146.633148
651.432251 149.954239
652.288452 467.507446
653.438232 351.996643
654.327087 84.684563
655.321167 1787.113525
656.368347 327.404083
656.909119 2.144871
657.466614 188.264648
658.377563 149.793243
659.430786 99.982712
660.418945 202.87114
661.394775 192.913879
662.265869 82.948334
663.236389 299.234558
664.294983 17.463661
665.321899 15.013128
666.33374 48.626312
667.541504 87.908302
668.331421 638.909302
669.363586 372.74176
670.4505 295.302246
671.506592 60.102657
672.160583 12.743827
673.400574 301.233582
674.485046 415.796173
675.338501 1369.591064
676.44458 382.365265
677.574036 57.464119
678.371277 22.02319
679.26001 259.869232
680.405334 80.482292
681.17041 78.062065
682.34668 5.816432
683.301941 91.238884
684.337646 81.175949
685.435852 760.092224
686.305176 1283.091187
687.370605 923.063477
688.494934 161.683701
690.305359 76.815376
691.377563 78.516006
692.271118 841.346191
693.331848 765.640686
694.202026 131.15509
695.383789 72.08297
697.3526 1055.221069
698.328186 288.216339
698.909119 3.463797
699.698242 8.525703
700.234741 56.956806
701.291626 1478.161255
702.295654 578.60144
703.345764 924.083618
704.311646 1446.566406
705.400452 493.790222
706.327637 83.951424
707.309509 136.196808
708.355164 206.780563
709.269348 55.961483
710.315491 332.095154
711.284424 65.826683
711.798157 35.917305
712.427917 9.621804
713.435547 31.311752
714.339172 46.650684
715.291565 1294.391479
716.415588 791.230835
717.521057 89.345993
718.225281 6.974955
719.325623 1181.468384
719.855957 89.934906
720.487183 243.423737
721.187622 37.341038
722.417725 37.025909
723.543701 31.890663
724.295349 125.775848
725.165955 30.639063
725.810425 8.886685
726.493164 43.314384
727.369446 255.919357
728.422791 440.150024
729.299866 237.908493
730.372437 83.195229
731.244934 25.520065
732.301941 43.565739
733.315186 6814.772949
734.28479 2069.961426
735.443298 227.260422
736.423401 67.622147
737.285522 36.349289
738.473267 33.546726
739.52356 51.950344
740.658447 83.496262
741.217102 115.303474
742.35321 91.499535
743.426086 24.727818
744.284119 119.742271
745.013611 37.677383
745.658325 41.809223
746.318787 628.559021
747.527832 332.731293
748.360046 46.123127
749.0578 14.850307
750.198303 182.015533
750.727295 1.4459
751.344543 50.649494
752.410522 913.370911
753.440125 256.20459
754.348511 465.036469
755.394653 226.861877
756.341003 144.780746
757.251099 216.247803
758.157959 56.275612
758.680359 30.582169
759.58667 6.04059
760.413696 2239.060303
761.42157 644.045654
762.327515 1060.226929
763.417603 592.899841
764.346069 3921.647217
765.354614 1216.45166
766.31958 53.149002
766.947327 38.195274
767.534241 48.730774
768.456238 42.551403
769.425476 35.277149
770.410095 2392.557373
771.501099 859.092285
772.474976 308.856079
773.486572 97.120926
774.348022 6.284907
775.650513 12.598446
776.475403 35.578495
777.45459 1.25572
778.345215 3443.888916
779.354248 980.748352
780.374939 11153.679688
781.381287 3641.958008
782.323792 221.480743
783.409546 163.917099
784.335754 99.675255
785.287048 84.372101
786.281982 80.799492
787.40387 190.797836
788.364197 20011.335938
789.386108 7250.228516
790.428162 162.299454
791.450317 11.344112
792.475647 159.134903
793.292358 100.630157
794.140991 34.628773
795.330444 45.428036
796.430664 283.93869
797.449768 394.925415
798.348083 203972.234375
799.33313 56386.835938
800.375671 858.654907
801.331909 215.090515
802.497437 347.560547
803.523804 53.27866
804.40863 162.483398
805.426086 149.702057
806.385803 31589.138672
807.394104 8927.980469
808.311646 392.8284
809.362366 303.284332
810.492126 16.368446
811.165527 50.754757
812.403259 6.696648
812.920166 76.386536
813.491394 16.650948
814.338135 331.453369
815.493774 616.417297
816.366699 191723.1875
817.342224 30816.412109
818.188721 190.954742
819.274841 39.217781
820.340637 70.705345
821.320984 28.342964
822.339111 37.705921
823.361511 45.708187
824.3526 1278.332397
825.410706 3240.841797
826.397583 1102.344727
827.390564 171.429718
828.051941 90.465767
828.606628 29.209318
829.30719 215.179428
829.909119 3.845448
830.431519 150.217377
831.540039 29.25791
832.469849 19.605339
834.375244 86.349274
835.519165 23.758959
836.440002 255.76445
837.391052 150.295593
838.529053 85.08989
839.425598 28.41888
840.157227 14.707167
841.384155 123.248779
842.407898 193.538406
843.400513 19536.689453
844.419006 5657.668945
845.377441 188.884857
846.351074 708.31543
847.399597 660.772949
848.499268 76.836693
849.509705 31.634659
850.520508 28.071918
853.277283 83.963585
854.320496 737.147217
855.200867 124.482307
856.003784 33.67321
856.531738 6.859121
857.370728 227.139343
858.422058 77.446533
859.447754 734.752991
860.46167 680.25885
861.433472 20263.566406
862.449158 7379.397949
863.443665 75.009071
864.281311 17.872847
865.154724 51.184628
865.756348 6.409956
866.595276 50.238235
867.647217 88.685631
868.393311 20.388536
869.481934 20.494757
870.4198 119.212082
871.386597 26.930824
872.993408 19.695599
873.671204 11.064391
874.237366 2.690169
874.771912 3.303163
875.314636 196.447922
875.947388 6.900548
876.763184 162.492538
877.701721 98.924286
878.441711 14.948105
879.413086 2.30698
880.392395 25.346319
880.94751 13.088249
881.515747 49.969467
882.608276 22.684895
883.41449 66.287399
884.491028 214.692505
885.440369 5153.311523
886.465393 1793.56958
887.409485 21.022327
888.186157 26.678116
890.028687 43.709255
890.545471 1.132342
891.846619 9.44269
892.675598 12.492034
893.409973 410.165466
894.408691 239.075729
895.304565 145.727264
896.171326 8.572203
896.687256 25.048058
897.391052 88.427254
897.99054 5.362384
898.650635 11.258327
899.367737 145.465103
899.909119 4.88612
900.479736 150.243607
901.257751 118.222694
901.939697 90.06115
902.470886 512.769714
903.424683 8339.404297
904.549255 2559.712891
906.044373 14.443043
906.640686 7.371232
907.367615 278.137665
908.391724 80.676689
909.377258 16.948011
910.258667 61.89315
911.167358 86.824089
912.593262 268.098907
913.533569 188.603699
914.266602 46.45919
914.843811 26.679117
915.450928 268.434875
916.50885 368.109589
917.36969 410.580811
918.093506 194.186844
918.600769 450.914551
919.473816 2055.791992
920.487 637.05365
921.433594 5820.680664
922.481873 1562.692749
923.332336 17.832129
924.235962 33.853489
925.427979 1841.075684
926.384949 752.516113
927.46936 271.468079
928.524719 311.102997
929.515625 194.73175
930.525208 58.351875
931.575928 114.976524
932.53479 41.745758
933.419189 206.573929
933.969055 17.659544
934.472046 44.297009
935.493042 72.645447
936.600891 34.956577
937.260071 103.331825
937.766418 62.115784
938.431152 705.232605
939.475464 309.314911
940.248291 72.329292
941.423889 102.283913
942.179199 32.414406
942.749268 281.423462
943.469543 34406.171875
944.474609 9730.833984
945.453369 46.264397
946.467224 15.604685
947.449341 22.661627
948.161987 76.384605
948.818176 2.875669
949.327148 142.140991
950.530273 74.252197
951.594421 49.43697
952.164917 31.477119
953.073059 46.676136
953.62561 91.514572
954.576965 142.579361
955.48761 906.641602
956.440369 2149.413086
957.568298 653.387878
959.439575 57.059315
960.326843 6.539633
961.416626 609.152954
962.53772 237.73703
963.459656 151.002487
964.035522 91.468933
964.776978 37.823425
965.448792 155.694061
966.556458 107.073441
967.456787 286.059814
968.060669 57.747303
968.657288 71.174034
969.502136 71.304321
970.244629 10.792732
971.483398 201.469177
972.4021 78.14875
973.050659 31.358412
973.598267 26.96212
974.144531 98.396484
974.691223 239.649597
975.462769 151.413986
976.235413 60.861256
976.959167 2.809288
977.523865 75.260948
978.242004 18.993021
978.757446 36.393639
979.547729 334.315002
980.391907 182.542419
981.480774 111.570847
982.306152 19.270794
983.383606 930.127747
984.324402 577.545959
985.36438 321.993225
986.391235 226.551331
987.436951 919.914917
988.558899 485.187592
989.900757 28.610947
990.637268 21.770535
991.19165 4.9225
991.731628 14.614232
992.705139 41.476704
993.605225 71.955643
994.437561 91.747643
995.517456 83.362915
996.566833 187.723984
997.481262 1047.203613
998.495728 4124.537598
999.464539 6810.623047
1000.448853 2813.806885
1001.623962 30.465591
1002.45929 16.510416
1003.697693 13.786642
1004.75238 44.498444
1005.695435 39.631531
1006.478821 33.900223
1007.500793 47.428295
1008.297546 16.442183
1009.16272 36.656761
1010.088623 43.126755
1011.564087 38.855003
1012.573303 71.030205
1013.345154 58.118515
1014.652405 38.316799
1015.41864 8979.904297
1016.462524 4008.804443
1017.566772 34.074596
1018.536011 55.295975
1019.311646 9.469164
1020.284607 126.023537
1020.823059 44.952599
1021.52594 45.605537
1022.549133 252.157639
1023.527832 51.126949
1024.416016 38.836102
1025.111328 50.099487
1025.783569 4.288772
1026.592651 38.717503
1027.505981 18.60231
1028.45459 1.023918
1029.403198 17.22352
1030.103638 21.943228
1030.766724 39.919689
1032.465454 115.713196
1033.529175 70.232521
1034.546387 62.535019
1035.34668 50.63139
1036.362793 89.608788
1037.191528 132.660873
1037.859009 2.963015
1038.549927 125.967628
1039.521606 174.121185
1040.49646 2974.518311
1041.521484 1011.467896
1042.740356 92.451172
1043.587891 20.190159
1044.372437 18.867521
1045.512085 18.347343
1046.436646 20.223366
1047.072144 57.319019
1047.576538 56.055805
1048.567017 625.908081
1049.461792 164.138702
1050.501587 1666.539917
1051.474976 704.261902
1052.398804 180.550003
1052.990112 69.359688
1053.650024 92.633514
1054.168457 121.666809
1054.913208 171.316864
1055.823486 60.24115
1056.779419 215.087296
1058.031128 79.405495
1058.607788 154.147522
1059.689941 70.575806
1060.603882 43.574253
1061.503174 47.091625
1062.250366 34.799339
1063.448364 38.739052
1065.158325 90.386589
1065.862915 5.227635
1066.533203 799.288635
1067.532959 634.612061
1068.527466 5039.03418
1069.535889 2612.560547
1070.531616 19.393074
1071.94873 34.38343
1072.888184 129.266129
1073.398926 37.659874
1074.177124 71.806129
1075.104614 118.804359
1076.491211 10403.509766
1077.538208 4343.583008
1078.563477 211.24469
1079.569946 173.600952
1080.345337 200.248352
1080.907471 88.535202
1081.585938 102.750122
1082.543823 314.471191
1083.518921 119.032776
1084.505493 131247.46875
1085.465576 76422.648438
1086.503418 90.986481
1087.272705 2.269763
1087.795776 60.261673
1088.751831 63.25486
1090.330078 206.712433
1091.629395 177.536621
1092.53894 527.138306
1093.580811 1329.675659
1094.450317 156892.328125
1095.460449 33284.316406
1096.499634 193.864685
1097.540405 58.36293
1098.702637 99.425972
1099.394287 152.778168
1099.909058 3.270164
1100.834839 50.413567
1101.504639 44.024082
1102.012207 73.660591
1102.808228 50.678364
1110.5979 2.985086
1111.548218 7.771029
1113.181885 1.655051
1118.365723 14.430426
1120.620728 10.314149
1127.408081 17.620695
1133.355469 9.641167
1134.738037 28.421452
1135.393188 12.902183
1136.356689 54.507751
1136.986328 7.582316
1137.499146 29.661825
1138.363647 29.462191
1144.187744 18.557159
1146.233521 26.146738
1147.284668 5.179898
1150.484497 60.493137
1151.81958 145.041962
1152.518311 40.299603
1153.122803 4.980097
1153.768799 22.575649
1154.545166 10.699265
1155.591553 2.935997
1158.639893 6.932393
1160.314819 26.618929
1161.233643 3.055785
1162.502808 2.480017
1164.956665 2.641748
1167.727295 1.126753
1168.589722 2.946005
1169.106934 44.30162
1169.644775 7.049447
1172.03186 17.490627
1173.822632 10.410368
1176.423584 42.67292
1178.727295 1.55374
1179.363403 14.395279
1183.854858 45.910446
1195.114502 21.290911
1197.425171 10.15576
1201.356689 13.062491
1204.688232 2.851756
1211.961792 57.340286
1216.552979 10.325695
1217.547974 7.66187
1219.505615 3.355354
1235.553711 21.019405
1236.379517 19.714901
1238.56189 13.060905
1241.545654 19.981873
1242.498657 7.471379
1244.011353 59.078571
1246.272705 1.09395
1250.82251 6.433739
1251.432129 16.287346
1254.347656 5.604798
1256.131348 3.231958
1264.003174 65.168152
1267.707886 9.687614
1272.189941 5.804029
1272.734741 4.246981
1280.180054 5.677144
1287.800903 13.289594
1300.343262 7.978158
1307.181885 1.282103
1308.504761 3.195268
1313.620483 32.224537
1318.774048 7.397136
1322.215942 32.661221
1326.287964 6.679464
1327.090698 15.706562
1328.963013 2.552058
1334.00061 6.236907
1337.593018 32.976124
1338.935181 8.268456
1342.90918 1.269402
1346.142456 2.346821
1352.375854 5.949044
1360.134521 2.718288
1366.095825 10.390205
1366.801636 14.172979
1372.116699 50.567753
1376.050903 5.928939
1377.971802 8.295209
1379.834595 12.425128
1381.041626 20.329554
1388.403198 2.641428
1389.663208 9.426695
1390.811401 5.451068
1397.727295 1.315694
1400.862549 27.069338
1404.545532 1.130148
1405.800781 5.970041
1409.723022 6.328187
1412.890625 38.059685
1424.184082 18.96796
1425.406006 6.865621
1426.824097 6.578788
1433.636353 1.154138
1434.585449 6.17873
1435.42749 8.800376
1436.848633 102.396187
1439.501099 4.133343
1444.90918 1.62796
1447.57251 9.425881
1451.130493 29.476276
1452.321411 50.615894
1459.674927 13.341663
1472.72168 8.108395
1485.17981 4.681119
1517.77124 2.559087
1520.106445 8.051309
1521.081177 15.207995
1533.80249 8.074192
1537.40564 3.793404
1548.507568 2.529748
1554.699341 5.539941
1567.2229 4.351781
1582.998169 4.485798
1587.770752 3.924171
1605.401978 4.393719
1608.831421 7.1961
1611.95752 4.105935
1613.572754 8.59621
1616.76416 2.902684
1618.363647 1.078161
1619.631836 27.060169
1620.411987 5.489801
1626.640869 31.09903
1630.120728 9.847368
1635.636353 1.020331
1638.818237 1.136126
1644.318359 7.20428
1646.858398 4.326019
1649.000244 6.267568
1650.181885 1.373612
1652.5271 11.334042
1655.835815 5.909842
1670.075439 23.269886
1671.081055 9.679333
1674.762817 3.623926
1676.718018 10.325958
1688.726074 9.780331
1701.541626 7.475327
1703.761475 39.702003
1721.549438 10.406857
1737.947021 3.668618
1744.860962 6.14267
1753.191162 15.438479
1779.64856 20.886505
1780.683105 2.445912
1781.869995 42.258419
1782.541626 38.280281
1783.744507 78.707443
1785.272461 6.613805
1794.809326 23.548218
1795.318604 36.947762
1795.874512 52.0158
1796.741577 234.431091
1797.757324 195.96489
1798.459717 22.389036
1801.0 1.11765
1803.272827 1.192784
1806.0 1.094477
1809.473511 8.343382
1811.367798 12.671919
1813.761108 19.312756
1817.956177 4.797655
1824.009766 10.894715
1824.953857 6.568192
1835.338257 8.828585
1844.233276 4.980235
1889.081299 8.968238
1912.408813 3.556638
1928.163086 80.127327
1979.74231 21.659204
1985.343018 11.886993
END IONS
