BEGIN IONS
PEPMASS=777.295
CHARGE=1
MSLEVEL=2
SOURCE_INSTRUMENT=LC-ESI-Orbitrap
FILENAME=Cpd_12_777_13OHterracinolide.mgf
SEQ=*..*
IONMODE=Positive
ORGANISM=GNPS-LIBRARY
NAME=13_-hydroxyterracinolide G M+Na
PI=LITAUDON/TOUBOUL
DATACOLLECTOR=Esposito
SMILES=O[C@]12[C@@]([C@@H](OC(C)=O)[C@@](OC(C)=O)(C)C2)([H])[C@@H](OC3=O)[C@](CC3)(OC(C)=O)[C@H](OC(C(C)C)=O)[C@@H](OC(C)=O)[C@@H](OC(C)=O)C(C)(C)/C=C/[C@@](C)(O)C1=O
INCHI=
INCHIAUX=
PUBMED=N/A
SUBMITUSER=lfnothias
TAGS=
LIBRARYQUALITY=1
SPECTRUMID=CCMSLIB00000840545
SCANS=1
200.589462 4110.691406
221.726944 2505.370605
228.309708 2782.402344
231.470535 2280.277832
240.233231 2315.960205
279.136414 3843.719482
311.128632 3619.121338
311.893127 4419.016602
321.147675 4435.845703
327.67807 2578.656006
339.159607 10019.137695
345.583923 3490.517334
349.145599 4323.601562
352.03772 3595.322998
357.169556 3490.207275
367.152863 12577.595703
373.704041 2514.502197
385.163666 4842.131836
385.976135 2365.903076
389.135681 8424.674805
395.453461 2615.101074
405.395233 2657.514648
406.371582 2764.271484
407.146515 5061.473633
420.328125 3202.118896
427.176971 4364.949219
429.535248 2813.834961
431.682587 4236.086914
432.775909 2614.810547
445.18811 4845.212891
449.154053 21250.138672
459.203583 3471.738525
465.188202 5406.348633
467.165833 3386.578369
487.330261 3594.724854
509.176178 69751.828125
527.18811 14993.191406
537.208008 13570.489258
553.234131 9135.775391
569.197205 79769.890625
587.203125 7897.84082
597.233521 372147.375
598.957886 2617.862549
613.266785 26045.361328
615.245605 6374.336914
629.226257 51007.464844
644.739258 2995.184082
657.253113 1581438.125
673.279114 9908.591797
695.298035 98412.320312
697.367065 3062.145752
699.263611 4172.12207
712.830811 5514.84082
716.237244 5557.667969
716.295166 2875.998535
716.324158 4514.896484
716.38208 4710.094727
716.440063 4338.242188
716.469055 3798.746338
716.498047 3991.267334
716.527039 7292.658203
716.585022 5402.523438
716.643005 8111.941406
716.700989 6301.901367
716.72998 9199.232422
716.787964 10373.416016
716.846008 8521.203125
716.875 11638.325195
716.933044 11992.165039
716.962036 12820.016602
716.991089 14134.110352
717.020081 15835.680664
717.049133 15049.78125
717.078125 21295.40625
717.107178 18978.048828
717.136169 23287.126953
717.266785 4021295.0
717.368469 21647.228516
717.397461 21545.966797
717.426514 22377.451172
717.455566 18871.611328
717.484619 18540.142578
717.513672 16498.804688
717.571777 15074.619141
717.60083 12674.639648
717.629883 10942.820312
717.658936 9341.376953
717.687988 9493.472656
717.717041 10071.941406
717.775146 8850.957031
717.80426 6782.577148
717.833313 6938.962891
717.862366 7974.067383
717.920532 7986.862305
717.978638 6279.533203
718.036804 5496.594727
718.065918 4786.177734
718.124084 3912.594482
718.153137 5592.368164
718.211365 4601.125
718.240417 4411.182617
718.298645 3980.241455
718.327698 3128.130615
784.213013 2823.66626
END IONS
