BEGIN IONS
PEPMASS=804.502
CHARGE=1
MSLEVEL=2
SOURCE_INSTRUMENT=LC-ESI-Ion Trap
FILENAME=f.amelnik/804mz/Koranimine.mzXML;
SEQ=*..*
IONMODE=Positive
ORGANISM=GNPS-LIBRARY
NAME=Koranimine M+H
PI=P.Dorrestein
DATACOLLECTOR=AMelnik
SMILES=O=C(NC(CC(C)C)C(NC(CC(C)C)C(NC(CC1=CC=CC=C1)C(NC(C(C)C)C([NH2+]C(CC2=CC=CC=C2)C(NC(C(C)C)/C=N\3)=O)=O)=O)=O)=O)C3C(O)C
INCHI=InChI=1S/C44H65N7O7/c1-25(2)20-32-39(53)47-35(23-31-18-14-11-15-19-31)42(56)51-37(28(7)8)43(57)49-34(22-30-16-12-10-13-17-30)41(55)50-36(27(5)6)24-45-38(29(9)52)44(58)48-33(21-26(3)4)40(54)46-32/h10-19,24-29,32-38,52H,20-23H2,1-9H3,(H,46,54)(H,47,53)(H,48,58)(H,49,57)(H,50,55)(H,51,56)/p+1/b45-24-
INCHIAUX=
PUBMED=21520944
SUBMITUSER=amelnik
TAGS=
LIBRARYQUALITY=3
SPECTRUMID=CCMSLIB00000531504
SCANS=217
101.107254 39802.726562
101.961746 31931.433594
102.259773 36039.261719
103.053978 68167.34375
104.15377 38680.378906
105.069725 37012.378906
110.561218 34396.347656
111.091873 158809.703125
113.10717 330250.375
115.05439 33239.730469
119.081001 51605.550781
120.080727 3234665.25
139.122498 1553282.5
140.106583 979232.0
140.142761 48556.878906
141.101303 154521.59375
141.137878 36469.789062
142.121994 177513.484375
144.0802 36586.863281
154.15863 69935.703125
157.133423 1445937.25
158.128159 59450.808594
158.217789 39415.023438
165.102417 745207.1875
167.117706 380888.4375
167.452179 35816.621094
168.101501 151171.078125
169.132675 69146.320312
169.169189 177283.84375
171.112152 127115.75
174.127106 125938.773438
176.106476 43683.960938
180.216003 37180.089844
182.117355 80769.984375
183.112183 45205.660156
183.148621 61885.800781
185.127808 832786.375
186.126724 567429.625
187.143982 1878927.875
188.142227 161919.765625
196.096786 184482.703125
197.128464 536524.0625
197.163849 86220.0625
199.180618 476940.5
202.154358 331123.3125
203.144806 71437.429688
203.154449 1358067.375
208.180099 39817.554688
209.163681 196769.875
213.137573 217104.53125
213.159714 54818.964844
214.12236 50739.945312
215.138107 5723683.0
215.149963 70475.757812
219.148849 3091497.0
225.159546 50367.875
225.196396 77560.15625
226.190186 58212.414062
227.174469 1965429.625
230.164017 178044.34375
231.112564 59791.382812
231.149231 4740373.5
231.277618 36882.53125
232.164276 74891.945312
233.164124 1566258.75
235.179703 143352.25
236.174942 81324.296875
237.159088 415095.9375
237.617157 34050.816406
239.174347 57134.199219
241.170868 37811.542969
241.190399 57611.535156
243.147583 47421.355469
245.165024 33242.71875
247.143219 4955621.5
248.174622 183861.75
249.122986 80150.914062
249.158432 226221.46875
251.173874 212429.640625
252.205978 65419.679688
253.133636 76682.4375
253.190979 3433720.5
254.185516 524832.8125
255.170547 53482.300781
255.205353 78056.679688
259.180298 46137.695312
261.158691 6260874.0
262.190521 52996.382812
263.173981 607645.125
264.170776 544372.0625
265.153107 229894.046875
265.189972 64220.882812
267.169281 77284.882812
269.164978 252498.671875
269.185699 1030608.625
270.160217 241590.5625
270.181091 201305.234375
270.216888 238950.140625
271.144104 220383.109375
271.180115 47999.308594
275.139038 41316.804688
278.185822 200987.578125
280.201508 710558.4375
281.185059 10754880.0
281.202881 56339.15625
282.216492 47275.898438
283.201569 1021250.125
284.196625 876749.375
285.196747 57156.992188
286.190704 338905.625
286.211365 40796.015625
287.173706 218830.265625
287.210175 563571.9375
288.168762 206480.859375
289.189972 37659.980469
295.201874 473341.0
296.195587 1364055.75
297.160339 323677.125
298.212158 669655.8125
299.1745 43185.957031
301.227051 536703.875
303.170319 155928.046875
304.164185 211824.59375
304.201691 483029.28125
308.276123 38765.761719
310.210571 2500581.75
310.231201 34131.535156
311.194916 48936.976562
311.213135 40681.441406
312.191895 54581.929688
313.19101 58099.535156
314.187042 119162.507812
314.205292 1253175.25
315.169159 1593504.0
315.206482 1758585.5
315.238342 142924.71875
317.184479 364923.15625
318.18161 233565.40625
320.19635 166431.9375
321.195953 181382.078125
322.211243 72073.21875
326.242615 153866.890625
327.206146 83514.90625
328.221893 13898631.0
329.221191 1603192.25
330.179382 2606290.75
330.21524 633515.0625
332.195312 312732.125
332.231873 530523.4375
334.248596 47969.476562
338.204712 50421.132812
338.222412 85866.476562
338.243042 205801.40625
342.216522 80153.929688
343.200439 211911.8125
344.194885 927098.8125
344.231018 58399.058594
347.243347 71914.929688
348.190399 2146627.25
349.190979 716827.6875
349.221985 55980.222656
349.246735 156769.5625
350.241913 459768.6875
355.269958 133709.890625
356.234222 48108.113281
357.21521 203975.0625
360.227997 7071752.0
362.207642 1326310.875
363.206909 166307.609375
364.259766 272130.03125
366.216278 292408.46875
366.272827 164527.734375
367.26889 217028.046875
369.214355 288503.3125
370.210663 139534.515625
372.229004 185324.96875
374.243256 3707769.0
376.260468 340033.09375
377.186005 63587.320312
377.255493 178474.421875
378.237427 70753.632812
379.405396 48823.640625
380.251495 189182.0
381.287537 44244.859375
382.246246 507688.5625
382.270874 3301644.75
383.232849 341031.03125
383.263977 363736.25
384.22699 310050.84375
385.262573 74032.359375
386.24353 175787.859375
387.239105 43585.390625
388.223999 181082.625
389.253448 320337.125
392.253021 65299.808594
393.285645 322722.15625
393.690216 43156.234375
394.214142 2307078.0
394.26889 14814972.0
394.298615 46455.488281
398.219208 49186.078125
398.240082 338983.8125
399.295746 703573.5
400.220459 49218.441406
402.236633 528799.125
403.267975 1125482.625
404.264648 41381.324219
408.226135 332755.75
409.279938 646756.4375
410.243896 363245.875
411.239044 536826.3125
411.266357 77687.039062
411.293762 1066302.625
412.221344 45201.648438
412.261017 60141.328125
413.25531 173379.984375
414.237335 1648999.5
414.273193 204949.265625
415.270966 680183.9375
415.306885 60978.617188
416.252258 953232.3125
417.247833 1103507.25
422.207581 145610.546875
426.273041 52180.128906
427.289581 2601347.5
428.254364 1607291.125
428.287994 1958222.75
428.321625 183478.359375
429.286591 651486.8125
430.270081 1369387.75
431.262848 1530418.625
433.278961 1051192.625
437.271515 52537.085938
438.275024 162461.515625
440.25296 63857.582031
442.270233 737044.875
443.264984 7104377.5
445.250122 56386.421875
445.281311 270535.3125
445.316986 1338353.375
447.293427 3201078.0
447.329376 61915.03125
448.291168 220187.0625
453.247681 63944.765625
455.300323 55890.992188
456.283325 141969.953125
457.278931 6566772.5
457.315918 177164.53125
459.260895 186189.5
461.274506 5788495.0
462.23938 81683.140625
462.271515 867256.5
465.342285 57102.210938
469.280914 288044.15625
469.309479 49510.679688
471.258759 54098.152344
472.328033 157815.953125
473.312744 2553299.75
473.347168 69757.59375
475.292053 14239304.0
476.298248 394977.0
477.249237 166476.40625
477.283875 519674.78125
479.302826 2014460.5
482.300964 275609.25
483.29422 240119.890625
483.329498 103282.0625
485.275574 109859.273438
485.311066 471402.84375
489.267853 242450.421875
490.267212 73535.328125
493.342468 432679.03125
494.313782 252753.078125
495.257812 123373.609375
495.294403 125385.953125
495.330994 176226.984375
496.314972 566021.25
497.313599 961346.4375
498.345825 83540.414062
499.291626 63744.839844
499.326355 364035.34375
500.31842 351271.625
501.308411 1080571.125
501.340332 522762.0
502.337463 1499883.625
506.312378 62223.121094
507.29718 2768186.75
507.335144 80564.78125
511.325592 1446044.75
512.319763 175998.875
512.358215 205796.015625
513.344116 3250338.75
514.338501 466326.0
516.285034 296643.28125
516.34967 282595.9375
517.27771 154526.484375
521.313416 445916.4375
523.328674 585785.625
524.324036 377258.75
525.304321 51585.382812
526.339355 191736.859375
527.320557 1910969.375
528.355286 1926109.875
529.335999 3782507.25
530.331116 2105761.0
530.371338 211627.28125
532.328613 604098.75
533.308899 146528.46875
534.309143 81937.507812
535.288696 157015.09375
537.303162 76060.226562
538.338379 83139.226562
539.32312 82683.039062
540.352417 688216.3125
541.336609 16714283.0
544.347107 452243.15625
545.312744 64122.832031
546.365051 9474528.0
547.36615 455131.40625
550.336487 973792.25
556.34845 13571907.0
558.364441 1552563.375
560.321716 60508.460938
561.304382 408639.78125
562.372009 339314.375
563.321655 173246.265625
568.346436 573354.0
568.384033 67320.523438
572.357178 149675.125
574.356262 17639390.0
575.317017 103645.601562
575.356262 1117861.75
577.338135 76115.015625
578.332458 240147.40625
578.372437 50980.425781
580.349976 75304.765625
589.385803 1578169.875
590.371155 7890761.0
591.385742 466746.1875
592.382812 828094.625
594.357422 73868.226562
595.389099 580900.8125
596.376282 250879.484375
597.281982 45284.726562
601.380676 209044.859375
602.369507 259182.484375
603.350952 83379.726562
604.350464 230158.25
607.399353 291293.46875
608.343384 329661.84375
610.391602 148160.453125
611.429993 177878.5625
612.413452 2867707.0
613.406555 409785.5625
615.385681 48084.5625
619.394531 221518.359375
620.37616 1241537.375
622.358765 198395.859375
622.396484 322343.96875
626.376587 56604.574219
629.368713 1010838.875
629.436096 358242.28125
630.365845 227139.109375
637.404968 70032.09375
639.425171 1187191.375
640.407471 15008127.0
642.402771 203632.96875
643.384094 885265.0
644.376709 266360.625
645.409241 630117.6875
646.397644 666093.625
647.390076 617935.5625
648.374756 154321.390625
649.401733 71982.648438
650.391785 53059.683594
657.434143 3856177.75
658.392639 243569.65625
659.429321 49193.128906
660.410217 440169.5625
661.401428 211140.203125
663.422668 928386.0625
667.411865 197554.984375
670.399292 472432.1875
673.40564 317713.1875
674.392944 1457098.5
675.421204 283247.5
676.403992 340414.34375
677.401001 72260.921875
685.440613 166402.65625
687.418091 362223.5
688.40387 1031324.4375
691.420349 1534206.625
693.434387 960689.75
697.44342 77502.664062
702.387695 63958.773438
703.412964 2188707.75
703.457153 1668009.0
705.435059 664033.375
714.46875 929245.4375
715.402771 531825.4375
716.483887 151323.234375
721.430115 1222661.0
724.451599 522439.625
725.433167 616359.375
731.4776 145555.234375
732.483521 1098404.5
741.466858 529234.5
742.464539 8092996.5
743.444763 68250.429688
751.449951 44939.097656
757.464844 82942.195312
758.494263 1995118.625
759.476379 7436101.5
759.555359 60377.734375
760.470276 5828305.5
768.4823 340080.25
769.460876 2256379.0
776.50354 4955585.5
786.491882 27092418.0
787.475891 11592953.0
804.245789 41836.0
804.495544 48627932.0
1031.202148 50187.027344
1262.408447 41243.300781
1264.325195 44972.9375
END IONS
