BEGIN IONS
PEPMASS=758.481
CHARGE=1
MSLEVEL=2
SOURCE_INSTRUMENT=LC-ESI-Hybrid FT
FILENAME=f.novakj/Pseudacyclin_A_linearized.mzXML;
SEQ=*..*
IONMODE=Positive
ORGANISM=GNPS-LIBRARY
NAME=Linearized pseudacyclin A M+H
PI=Havlicek
DATACOLLECTOR=
SMILES=C(CCC(NC(=O)C(NC(=O)C)C(C)CC)C(=O)NC(CC1=CC=CC=C1)C(O)=O)NC(=O)C(C(CC)C)NC(=O)C(C(CC)C)NC(=O)C1CCCN1
INCHI=
INCHIAUX=
PUBMED=26195308
SUBMITUSER=novakj
TAGS=
LIBRARYQUALITY=3
SPECTRUMID=CCMSLIB00000531486
SCANS=1
183.560257 666571.0
211.14389 330460.0
215.998352 666707.0
225.988297 646888.0
270.180908 838720.0
324.227783 1174386.0
341.657684 308196.0
341.66156 294212.0
341.664886 429124.0
341.667542 615996.0
341.669495 900988.0
341.673645 588980.0
341.675415 304628.0
365.254272 1164648.0
372.727966 443761.0
372.730164 406881.0
372.732239 479673.0
372.735779 349841.0
383.264771 1447666.0
383.267151 300162.0
384.268127 282867.0
393.249084 1382374.0
394.252502 320986.0
435.254456 334264.0
435.256653 531240.0
435.259583 2518120.0
435.262634 536728.0
435.264801 316584.0
436.262939 655879.0
438.306824 5070549.0
439.310181 1273251.0
548.338379 447501.0
548.343323 2245118.0
548.347595 487438.0
549.346802 663049.0
565.406311 484345.0
585.375 437217.0
593.401062 5300250.0
594.39801 297217.0
594.404419 1824553.0
595.407959 292200.0
603.385437 5207732.0
604.388794 1853828.0
740.469299 459427.0
758.479553 17779688.0
END IONS
