BEGIN IONS
PEPMASS=833.435
CHARGE=0
MSLEVEL=2
SOURCE_INSTRUMENT=LC-ESI-qTof
FILENAME=f.mice/SC_-Fe_Anionenaustauscher_Masterarbeit/140121_Probe_12.mzXML;
SEQ=*..*
IONMODE=Positive
ORGANISM=GNPS-LIBRARY
NAME=Tunicamycin VI M+H
PI=Bandow
DATACOLLECTOR=Senges
SMILES=CC(C)CCCCCCCCCCCC(=O)NC1C(C(C(OC1OC2C(C(C(C(O2)CO)O)O)NC(=O)C)CC(C3C(C(C(O3)N4C=CC(=O)NC4=O)O)O)O)O)O
INCHI=1S/C38H64N4O16/c1-19(2)13-11-9-7-5-4-6-8-10-12-14-24(46)40-27-31(51)28(48)22(55-37(27)58-36-26(39-20(3)44)30(50)29(49)23(18-43)56-36)17-21(45)34-32(52)33(53)35(57-34)42-16-15-25(47)41-38(42)54/h15-16,19,21-23,26-37,43,45,48-53H,4-14,17-18H2,1-3H3,(H,39,44)(H,40,46)(H,41,47,54)/t21-,22-,23-,26-,27-,28+,29-,30-,31-,32+,33-,34-,35-,36-,37+/m1/s1
INCHIAUX=
PUBMED=
SUBMITUSER=mice
TAGS=
LIBRARYQUALITY=3
SPECTRUMID=CCMSLIB00003739963
SCANS=2497
42.498642 14.0
72.221748 14.0
72.314522 8.0
81.045837 7.0
84.052177 12.0
93.479897 23.0
93.631897 19.0
96.029518 9.0
96.050903 16.0
98.06797 12.0
109.987053 10.0
113.038795 38.0
126.06012 89.0
126.069923 48.0
127.04232 21.0
130.265793 11.0
138.057129 354.0
138.21106 24.0
138.7659 23.0
139.043747 26.0
139.059189 60.0
140.064865 16.0
144.066162 184.0
147.932617 7.0
156.06987 21.0
168.066818 527.0
169.070053 93.0
170.076279 24.0
172.860214 12.0
176.072021 8.0
176.576355 28.0
186.045578 16.0
186.075348 851.0
186.111084 42.0
186.945816 15.0
187.083115 42.0
188.081635 29.0
194.085983 14.0
204.082443 1586.0
205.087769 217.0
206.089294 15.0
207.093262 33.0
209.841446 8.0
218.562439 14.0
222.081009 29.0
222.432465 8.0
222.43898 8.0
237.625992 11.0
240.075119 23.0
242.237747 41.0
287.075287 20.0
306.231506 29.0
307.271362 7.0
307.401459 7.0
308.244019 162.0
308.972565 12.0
309.241211 33.0
309.256561 21.0
310.255371 17.0
337.223175 13.0
341.025757 17.0
352.09436 1298.0
352.192688 52.0
352.651611 7.0
352.832031 8.0
353.102661 192.0
353.160095 9.0
354.112396 25.0
354.243866 19.0
355.098877 8.0
358.893158 9.0
358.901428 9.0
362.242157 10.0
364.564056 58.0
365.740295 27.0
372.062408 6.0
380.266815 51.0
380.905548 10.0
381.246429 15.0
383.388977 7.0
390.275024 11.0
398.249725 41.0
398.275879 13.0
399.269684 16.0
413.330963 21.0
428.258667 28.0
429.243988 19.0
446.241089 27.0
447.26532 14.0
463.239319 9.0
464.273438 77.0
465.271057 79.0
471.819611 11.0
472.929718 15.0
473.556549 21.0
483.276978 14.0
483.28656 14.0
494.900879 13.0
500.286041 164.0
501.292297 68.0
502.279999 30.0
522.128174 18.0
532.050476 8.0
540.258545 16.0
540.268677 16.0
558.264954 109.0
559.26593 24.0
569.61676 12.0
571.12854 15.0
574.440552 15.0
575.257019 16.0
575.278015 42.0
576.283569 953.0
576.419861 17.0
576.461792 14.0
577.248169 30.0
577.2901 313.0
577.48938 8.0
577.919678 17.0
578.276489 25.0
578.297546 26.0
579.284729 75.0
580.188721 33.0
586.462219 20.0
595.269897 25.0
596.036987 13.0
598.416138 20.0
607.108398 9.0
607.764771 13.0
609.035339 27.0
609.768188 6.0
610.296509 126.0
610.835876 15.0
610.900635 10.0
611.27832 310.0
611.41864 9.0
611.76416 9.0
611.79657 12.0
611.839722 36.0
611.90448 15.0
612.012512 24.0
612.142151 8.0
612.196167 20.0
612.228577 105.0
612.304138 8984.0
612.390564 42.0
612.422974 67.0
612.44458 25.0
612.487793 28.0
612.509399 31.0
612.606689 47.0
612.714722 18.0
612.865967 37.0
613.168701 24.0
613.29834 3636.0
613.449768 30.0
613.536255 16.0
613.590332 20.0
613.601135 20.0
613.763367 51.0
613.784973 23.0
614.131104 12.0
614.30426 709.0
614.444946 10.0
614.726318 8.0
615.278442 122.0
615.321777 98.0
615.375916 35.0
615.45166 9.0
615.625 12.0
616.123352 38.0
616.296753 24.0
616.600281 7.0
616.676147 8.0
617.587097 11.0
618.140503 17.0
623.099792 11.0
623.121643 7.0
628.286804 38.0
629.304871 53.0
629.775879 17.0
630.203247 8.0
630.312866 1327.0
630.575867 11.0
630.619751 39.0
631.189941 19.0
631.310547 586.0
631.365417 29.0
632.320129 126.0
633.319519 9.0
637.291809 11.0
639.23291 7.0
643.5448 12.0
645.817078 9.0
650.418274 20.0
673.283936 31.0
674.689331 24.0
674.700623 24.0
676.255066 11.0
678.197754 37.0
680.166077 30.0
685.150574 31.0
704.111816 23.0
706.790283 24.0
712.022766 25.0
717.847473 7.0
721.325562 13.0
739.506775 33.0
748.974976 24.0
750.002747 12.0
751.162964 9.0
751.27063 28.0
753.138428 26.0
754.049255 23.0
760.392151 7.0
761.090515 31.0
769.096558 32.0
773.109192 9.0
773.194092 18.0
773.23053 11.0
773.995544 28.0
779.312195 7.0
780.677734 39.0
787.241699 14.0
787.560181 11.0
788.111572 18.0
792.18573 10.0
793.021484 8.0
796.159546 15.0
798.193359 11.0
803.456238 8.0
803.691345 8.0
814.357727 31.0
815.342224 160.0
815.591553 8.0
816.190125 31.0
816.302368 25.0
816.339722 19.0
816.377197 28.0
817.02594 16.0
817.337952 8.0
817.375366 15.0
818.349182 8.0
818.524109 16.0
818.711426 14.0
818.748901 21.0
826.248474 16.0
832.345886 42.0
832.67334 37.0
833.114319 23.0
833.139526 11.0
833.215149 41.0
833.25293 20.0
833.35376 1245.0
833.467163 21.0
833.580627 31.0
833.668884 7.0
834.24884 34.0
834.299255 42.0
834.362244 818.0
834.526245 41.0
834.627136 7.0
834.664978 33.0
834.753296 18.0
834.791138 12.0
834.841492 23.0
835.18219 16.0
835.232666 16.0
835.283081 8.0
835.358765 194.0
835.384033 140.0
835.535461 10.0
835.901428 7.0
836.153931 42.0
836.305359 15.0
836.36853 80.0
836.419006 17.0
836.987305 14.0
837.227234 37.0
837.30304 12.0
837.353577 7.0
837.404114 27.0
837.505249 19.0
857.854309 6.0
867.663879 7.0
916.808044 9.0
921.095825 33.0
990.086121 47.0
995.629761 27.0
1005.572571 27.0
1021.527954 18.0
1024.292603 17.0
1035.584961 6.0
1035.598999 6.0
1036.259277 6.0
1040.42334 18.0
1040.4375 18.0
1053.291138 20.0
1065.354492 6.0
1068.748413 7.0
1094.375732 11.0
1156.377075 27.0
1161.400391 27.0
1177.119263 6.0
1195.614136 6.0
1201.387451 45.0
1212.838867 7.0
1231.212769 16.0
1242.420288 7.0
1317.013428 7.0
1387.788452 31.0
1389.171021 22.0
1392.73645 25.0
1487.782349 23.0
1505.988281 6.0
1625.20813 21.0
END IONS
