BEGIN IONS
PEPMASS=487.116
CHARGE=1
MSLEVEL=2
SOURCE_INSTRUMENT=DI-ESI-qTof
FILENAME=gnps_Uvedalin_pos_MplusK.mgf
SEQ=*..*
IONMODE=Positive
ORGANISM=GNPS-LIBRARY
NAME=Uvedalin M+K
PI=Norberto Lopes
DATACOLLECTOR=Monica Pupo
SMILES=O=C([C@@]1([C@@H](O1)C)C)O[C@H]2[C@@H]3[C@H](OC(C3=C)=O)/C=C(C)/CCC=C(C(OC)=O)[C@@H]2OC(C)=O
INCHI=InChI=1S/C23H28O9/c1-11-8-7-9-15(21(26)28-6)18(29-14(4)24)19(31-22(27)23(5)13(3)32-23)17-12(2)20(25)30-16(17)10-11/h9-10,13,16-19H,2,7-8H2,1,3-6H3/b11-10+,15-9+/t13-,16+,17-,18-,19-,23-/m0/s1
INCHIAUX=N/A
PUBMED=N/A
SUBMITUSER=rsilva
TAGS=
LIBRARYQUALITY=3
SPECTRUMID=CCMSLIB00000081681
SCANS=1
153.037155 401.0
201.073776 114.0
229.062531 227.0
257.055847 144.0
349.093994 307.0
371.078888 1000.0
375.071625 132.0
389.084656 658.0
412.102234 120.0
487.116089 3276.0
END IONS
