BEGIN IONS
PEPMASS=1463.78
CHARGE=1
MSLEVEL=2
SOURCE_INSTRUMENT=LC-ESI-qTof
FILENAME=f.philipwi/0_WilliamsFreshwaterCyanosStandardsConvertedTo_mzXML_v2/PW-43_P1-E-7_Scytonemin_A_1462amu_01_15558_Scan632-735.mzXML;
SEQ=*..*
IONMODE=Positive
ORGANISM=GNPS-LIBRARY
NAME=Scytonemin A M+H
PI=Philip Williams
DATACOLLECTOR=Williams
SMILES=O=C([C@H]([C@@H](C[C@H](CCCC(CC1=CC=CC=C1)O)OC([C@@H](NC(C)=O)C)=O)NC([C@@H]2[C@@H](C)CCN2C([C@]([C@H](C(C)C)O)([H])NC(CNC3=O)=O)=O)=O)O)N[C@H](CO)C(NCC(N4[C@H](C(N5[C@H](C(N[C@H](CC(C)C)C(N[C@@H](CCO)C(N[C@@H]3CC6=CC=CC=C6)=O)=O)=O)[C@@H](C)[C@@H](O)C5)=O)[C@@H](C)[C@@H](O)C4)=O)=O
INCHI=
INCHIAUX=
PUBMED=
SUBMITUSER=philipwi
TAGS=
LIBRARYQUALITY=3
SPECTRUMID=CCMSLIB00000424913
SCANS=647
73.722298 76.0
116.484451 48.0
155.11528 140.0
156.069382 208.0
156.731033 76.0
157.106308 504.0
158.443405 28.0
165.107346 96.0
167.623154 52.0
167.994736 56.0
168.141022 164.0
168.971039 44.0
169.145081 168.0
171.082184 36.0
172.804001 32.0
176.121201 156.0
178.12326 96.0
184.093521 60.0
184.154068 124.0
184.725418 36.0
185.097244 580.0
185.401794 28.0
185.940308 52.0
186.103439 68.0
186.288147 28.0
186.601471 28.0
188.259552 32.0
191.809509 32.0
195.152145 100.0
197.107147 64.0
199.080887 40.0
200.152588 116.0
202.123352 28.0
203.105576 248.0
203.339539 112.0
203.530457 36.0
205.10141 168.0
205.801132 28.0
206.127518 204.0
206.37764 32.0
207.129211 60.0
208.986481 32.0
209.095993 120.0
210.213867 36.0
211.083511 24.0
211.148346 40.0
212.084885 64.0
213.162231 420.0
213.49826 40.0
214.152847 88.0
215.149994 132.0
215.692627 32.0
216.160965 64.0
217.869995 28.0
217.954697 28.0
218.163864 324.0
219.160919 24.0
220.171799 92.0
221.137604 124.0
222.134033 108.0
223.145813 296.0
223.323166 28.0
224.140625 76.0
225.136734 128.0
226.120483 124.0
227.133118 272.0
228.131744 216.0
229.712418 32.0
230.150848 128.0
230.234421 24.0
230.514999 44.0
231.07666 32.0
231.1586 120.0
232.182617 56.0
237.133194 112.0
238.125641 84.0
239.110306 72.0
239.179306 96.0
239.346924 36.0
240.141068 52.0
240.620773 156.0
241.161453 1156.0
242.354263 32.0
243.11821 104.0
243.317795 32.0
244.203537 104.0
245.789948 52.0
247.140915 124.0
247.652252 52.0
248.171173 588.0
249.132935 352.0
250.153427 96.0
250.51944 36.0
251.139297 144.0
252.095825 52.0
252.168701 300.0
252.4198 48.0
252.551483 36.0
253.126205 148.0
254.119888 292.0
255.137756 540.0
255.497742 36.0
255.569077 32.0
256.151459 68.0
257.181702 84.0
257.539612 80.0
258.185455 192.0
259.250793 36.0
260.144501 116.0
262.125244 220.0
263.141388 184.0
264.10611 92.0
264.16098 96.0
265.154785 72.0
266.110596 76.0
267.158203 68.0
267.683075 36.0
268.163025 40.0
270.178192 116.0
271.146271 152.0
271.356232 120.0
272.132721 516.0
272.628265 28.0
273.152374 140.0
276.154968 92.0
277.109161 108.0
277.225891 64.0
278.001221 32.0
278.135193 116.0
278.426514 60.0
278.724426 28.0
278.79892 24.0
278.905365 40.0
280.175934 160.0
280.653961 40.0
281.17746 48.0
281.33783 36.0
282.108154 164.0
282.183105 116.0
283.158386 108.0
284.119781 188.0
285.178528 92.0
286.151001 236.0
286.514893 36.0
287.158936 104.0
288.169373 144.0
288.52533 24.0
289.161896 128.0
290.151764 72.0
293.178131 96.0
294.155457 68.0
294.675354 24.0
296.163116 336.0
296.582397 36.0
297.010681 40.0
297.194885 188.0
297.912201 80.0
298.181458 180.0
299.179352 84.0
299.366272 48.0
299.597931 28.0
300.164307 136.0
301.162659 96.0
302.149872 108.0
304.167206 124.0
304.338837 44.0
305.151184 64.0
305.897675 28.0
306.176605 620.0
307.080597 24.0
307.192322 100.0
307.527588 32.0
308.388916 52.0
309.173004 88.0
310.101898 64.0
311.21936 264.0
311.441254 32.0
312.155823 620.0
312.691193 28.0
312.958954 32.0
313.157684 372.0
313.177429 132.0
313.222382 256.0
313.514587 20.0
313.61615 40.0
313.932312 16.0
314.163116 84.0
315.175934 156.0
316.168365 952.0
316.512695 36.0
317.191528 232.0
318.159241 120.0
319.924042 160.0
320.209137 212.0
321.215851 64.0
323.22757 224.0
324.076202 24.0
324.179474 72.0
324.615753 40.0
325.949371 96.0
326.201569 44.0
327.176178 176.0
327.516418 84.0
328.156616 172.0
329.226868 620.0
329.885559 128.0
330.135071 44.0
330.22934 84.0
331.166595 160.0
331.578094 32.0
332.177307 80.0
332.56546 32.0
334.181152 356.0
334.288116 32.0
335.190582 180.0
337.168884 144.0
337.559418 36.0
337.934296 24.0
338.168701 52.0
339.166962 288.0
339.929321 52.0
340.225403 348.0
340.899231 68.0
341.227356 912.0
342.024506 24.0
342.204865 1576.0
343.214203 316.0
343.369751 36.0
343.936981 24.0
344.209106 164.0
344.410004 36.0
344.717651 36.0
345.180847 160.0
345.28006 176.0
346.172729 204.0
346.590149 44.0
346.673218 68.0
347.053131 164.0
347.169891 168.0
347.350067 28.0
347.694672 36.0
347.884888 36.0
348.378784 40.0
348.979553 36.0
349.144348 128.0
349.420319 44.0
349.742096 88.0
350.875519 20.0
351.197998 88.0
352.441467 24.0
353.189178 160.0
354.169525 176.0
355.198517 112.0
355.691986 44.0
355.872345 36.0
356.171021 72.0
356.377563 36.0
356.509949 120.0
357.168335 124.0
357.533752 44.0
357.631012 56.0
358.112518 64.0
358.365906 64.0
358.522797 36.0
359.024628 36.0
359.234375 4328.0
359.476929 56.0
359.579315 68.0
359.738251 52.0
360.239166 1252.0
360.928711 24.0
361.192871 232.0
361.461761 44.0
361.582947 36.0
361.946686 20.0
362.197296 200.0
362.322723 28.0
362.89325 68.0
363.190155 160.0
364.202332 96.0
364.777863 24.0
365.277222 64.0
365.618408 40.0
365.776886 28.0
366.203705 68.0
366.38562 44.0
367.181274 268.0
367.889038 40.0
368.072449 52.0
368.219452 596.0
368.35379 32.0
368.757629 36.0
369.232635 220.0
370.222809 104.0
370.399719 32.0
371.237549 180.0
371.750458 80.0
372.204773 172.0
372.365234 28.0
373.182312 428.0
373.805786 28.0
374.224945 68.0
375.014557 28.0
375.214935 96.0
376.200562 108.0
377.215088 36.0
377.338898 24.0
378.263306 92.0
379.218109 204.0
379.65799 40.0
380.244476 216.0
381.198853 140.0
381.896973 44.0
382.033997 32.0
382.194885 88.0
383.216705 140.0
383.742828 36.0
384.201233 120.0
385.21994 196.0
385.555603 40.0
385.793457 24.0
386.094025 28.0
386.227692 168.0
386.374603 40.0
386.469879 32.0
387.231476 636.0
387.598511 32.0
388.150909 68.0
388.246765 96.0
388.829376 32.0
389.21701 168.0
390.209442 100.0
390.729706 36.0
390.843109 32.0
391.044769 24.0
391.201721 148.0
392.225616 80.0
392.849426 40.0
393.172974 100.0
394.253113 80.0
395.177612 76.0
396.217407 56.0
396.915558 20.0
397.245392 576.0
397.639771 32.0
398.253876 108.0
398.504608 28.0
399.064728 24.0
399.215302 404.0
399.663452 28.0
399.931091 32.0
400.180634 116.0
400.721863 44.0
400.88327 68.0
401.177338 268.0
401.998932 44.0
402.211029 184.0
402.753326 44.0
403.183502 252.0
403.457245 44.0
403.598114 32.0
404.03363 44.0
404.256836 1016.0
404.713013 20.0
405.253387 320.0
405.546997 36.0
405.81662 32.0
406.246246 80.0
406.574585 48.0
407.011719 44.0
407.225647 136.0
407.860931 24.0
408.234375 104.0
408.363159 48.0
409.226685 64.0
410.243317 124.0
410.853088 56.0
411.266663 96.0
411.977966 28.0
412.188354 208.0
412.560394 24.0
412.754639 44.0
412.858246 52.0
413.078461 112.0
413.195068 244.0
413.415375 116.0
414.06369 40.0
414.229431 36.0
414.868286 44.0
415.203918 104.0
416.248749 132.0
417.227112 248.0
417.885986 80.0
418.22226 84.0
418.368256 24.0
419.227661 132.0
419.929138 80.0
420.220032 96.0
420.796906 40.0
421.136963 44.0
421.25119 108.0
421.346313 36.0
422.241547 104.0
422.498535 32.0
422.708221 24.0
422.917938 36.0
423.251923 272.0
423.403107 36.0
423.967316 60.0
425.23584 992.0
426.24942 204.0
426.872986 32.0
427.228485 384.0
427.360413 96.0
427.523193 68.0
427.900879 32.0
428.045929 32.0
428.252167 296.0
429.08963 44.0
429.252899 248.0
429.709259 72.0
429.815002 36.0
430.204102 252.0
430.899353 24.0
431.201782 136.0
431.640686 52.0
431.839355 44.0
431.958588 36.0
432.634521 32.0
432.753845 24.0
432.886475 28.0
433.235413 72.0
433.881744 48.0
434.506042 60.0
435.225922 356.0
436.240173 248.0
437.274841 84.0
438.254364 96.0
439.188049 380.0
440.318695 44.0
441.228119 44.0
441.252838 40.0
441.751099 32.0
442.138824 60.0
442.260101 184.0
442.6492 40.0
442.850403 84.0
443.118713 40.0
443.245422 344.0
443.803345 68.0
444.018219 68.0
444.259613 456.0
444.661255 28.0
444.824524 32.0
445.120331 40.0
445.267395 140.0
445.766113 52.0
446.271057 636.0
446.695251 40.0
447.272125 380.0
447.922089 32.0
448.212524 624.0
448.461884 52.0
448.853455 40.0
449.220978 156.0
450.238007 96.0
451.111633 128.0
451.242279 224.0
451.423096 24.0
452.306152 92.0
453.286011 280.0
453.850677 36.0
454.256836 168.0
455.253632 160.0
455.965057 80.0
456.252197 396.0
456.498138 36.0
456.911346 80.0
457.208923 200.0
458.256531 92.0
459.241364 56.0
459.558563 40.0
460.023285 32.0
460.215088 156.0
461.254272 192.0
462.276215 216.0
462.569824 28.0
463.063507 28.0
463.260803 52.0
463.859436 24.0
464.274048 124.0
465.247101 108.0
466.227386 204.0
466.389008 40.0
466.623077 44.0
466.762787 28.0
466.967377 52.0
467.27005 180.0
467.615021 60.0
468.028656 32.0
468.26355 280.0
468.448669 80.0
468.55899 40.0
468.709656 44.0
468.956848 36.0
469.063507 36.0
469.269775 9188.0
469.643555 88.0
469.807434 92.0
470.011749 84.0
470.271393 2216.0
470.608978 80.0
470.790833 28.0
470.956818 32.0
471.274841 460.0
471.814911 40.0
472.277405 404.0
472.499786 36.0
472.992554 24.0
473.103485 36.0
473.285156 352.0
473.69986 36.0
473.833801 92.0
474.268524 788.0
474.788177 40.0
474.949341 96.0
475.269562 356.0
475.866669 36.0
476.103088 28.0
476.251251 92.0
476.478699 28.0
476.659607 44.0
476.910156 40.0
477.211029 72.0
477.55072 80.0
477.982666 40.0
478.12204 112.0
478.239746 100.0
479.056366 56.0
479.268982 168.0
479.600647 24.0
479.949707 48.0
480.312866 44.0
481.067566 68.0
481.251099 64.0
482.252502 152.0
482.522736 24.0
482.732788 32.0
482.984924 24.0
483.262115 148.0
484.270172 200.0
484.442963 32.0
484.709595 32.0
484.906067 28.0
485.259491 204.0
485.771271 92.0
485.945374 28.0
486.282684 152.0
486.898132 52.0
487.056122 20.0
487.289307 304.0
487.478271 36.0
487.661224 20.0
487.787933 44.0
487.928741 20.0
488.305084 112.0
488.520294 24.0
488.745758 20.0
489.023407 40.0
489.275421 840.0
489.732727 44.0
489.914581 36.0
490.291138 2252.0
490.79129 32.0
491.296173 948.0
491.851013 24.0
492.020691 36.0
492.291473 288.0
492.897736 24.0
493.053406 32.0
493.296875 160.0
493.49231 44.0
493.597504 56.0
493.959717 24.0
494.232697 760.0
494.384827 44.0
494.963501 44.0
495.107941 68.0
495.259766 392.0
495.735504 52.0
496.268555 188.0
496.541565 44.0
496.854095 40.0
497.05304 44.0
497.291138 96.0
498.291199 304.0
498.532166 24.0
499.239716 92.0
500.275146 180.0
501.273407 292.0
501.870636 48.0
502.282776 168.0
503.285431 452.0
503.497528 48.0
504.272827 336.0
505.252228 64.0
505.573669 120.0
506.003754 20.0
506.266418 76.0
506.764008 40.0
507.648712 32.0
508.027588 52.0
508.284119 164.0
508.559326 24.0
509.318634 60.0
509.594879 28.0
510.2883 164.0
510.789948 40.0
511.268707 320.0
511.726807 32.0
512.257812 876.0
512.719055 36.0
512.891052 72.0
513.097656 36.0
513.269958 1408.0
513.762085 64.0
514.278931 280.0
515.278503 116.0
515.786865 20.0
516.240295 252.0
516.438538 148.0
516.583435 36.0
516.858704 52.0
517.148621 40.0
517.29657 252.0
517.97522 36.0
518.076782 36.0
518.288086 384.0
519.284485 248.0
519.775757 28.0
519.950134 68.0
520.298706 124.0
521.288269 124.0
521.914307 96.0
522.240173 64.0
522.394958 100.0
523.138306 44.0
523.240356 68.0
524.265015 128.0
524.765198 64.0
525.312927 348.0
525.800049 36.0
526.005005 36.0
526.290283 2544.0
526.672546 48.0
526.774963 32.0
526.926147 156.0
527.128296 32.0
527.295715 900.0
527.609253 20.0
527.711731 36.0
528.29657 344.0
528.664001 60.0
528.795898 44.0
529.281433 452.0
529.514404 32.0
530.254395 372.0
530.736267 72.0
530.930359 32.0
531.286377 1384.0
531.570007 40.0
531.768433 40.0
531.908081 24.0
532.288086 516.0
532.692017 40.0
532.849426 28.0
533.266785 160.0
533.37561 64.0
533.703186 44.0
533.968323 28.0
534.086182 40.0
534.269409 176.0
534.955688 32.0
535.314636 344.0
536.047241 36.0
536.308655 172.0
537.281372 96.0
538.277283 68.0
538.573975 44.0
538.736694 36.0
539.27002 168.0
539.521179 24.0
539.624817 28.0
540.265076 144.0
541.165955 48.0
541.324158 120.0
541.759277 160.0
541.863159 32.0
542.263855 80.0
543.125122 24.0
543.28479 324.0
543.452026 32.0
543.897888 56.0
544.281738 44.0
544.656372 60.0
544.879517 28.0
545.30426 304.0
545.757812 44.0
545.928589 84.0
546.287292 448.0
547.128723 32.0
547.292358 300.0
548.053528 32.0
548.29303 84.0
549.298706 184.0
549.965393 28.0
550.292297 136.0
551.280518 268.0
551.845093 96.0
552.281982 152.0
552.419739 20.0
552.584534 32.0
552.899292 28.0
553.308716 128.0
553.499023 20.0
553.633972 64.0
554.306458 112.0
554.654358 104.0
555.317566 188.0
555.585571 36.0
556.302185 112.0
556.848389 24.0
557.059021 52.0
557.288879 96.0
558.288086 184.0
558.971375 48.0
559.31427 324.0
559.860901 120.0
560.277222 312.0
561.083313 28.0
561.296326 208.0
561.551514 40.0
562.271423 148.0
563.318054 248.0
564.107239 40.0
564.319214 92.0
565.296387 120.0
565.358521 60.0
565.41571 96.0
565.516174 132.0
566.304688 52.0
567.078613 36.0
567.320374 172.0
568.307312 120.0
569.315369 168.0
570.149109 72.0
570.298584 260.0
570.712402 36.0
571.062744 28.0
571.18457 52.0
571.30835 96.0
572.022827 28.0
572.160034 56.0
572.322937 196.0
572.983704 64.0
573.321899 264.0
573.441528 44.0
573.548401 32.0
574.341675 192.0
575.311523 208.0
575.473572 28.0
575.794739 60.0
576.288147 108.0
577.312134 220.0
577.739014 112.0
578.168091 156.0
578.303162 64.0
578.890259 40.0
579.240723 80.0
579.410278 20.0
579.671143 40.0
580.321716 160.0
580.546326 132.0
581.329895 36.0
581.86792 32.0
582.296936 76.0
583.317139 248.0
583.822388 40.0
584.346191 68.0
584.88562 44.0
585.33075 260.0
585.780151 32.0
586.181335 48.0
586.318665 188.0
586.598083 28.0
586.922363 112.0
587.310364 236.0
587.524841 24.0
587.926636 44.0
588.143005 152.0
588.3255 400.0
589.319824 416.0
589.519714 32.0
590.339722 96.0
591.22345 196.0
591.331909 60.0
592.308899 100.0
593.332458 76.0
594.311401 124.0
594.778198 24.0
595.319946 284.0
595.831787 104.0
596.323059 104.0
596.707458 36.0
597.329163 180.0
597.907104 40.0
598.321411 208.0
599.163208 44.0
599.357544 80.0
600.338135 272.0
601.391541 72.0
602.185547 76.0
602.340149 156.0
603.064514 24.0
603.333557 420.0
603.531616 32.0
604.322998 308.0
604.769348 44.0
605.020203 24.0
605.315857 808.0
605.647583 20.0
605.838074 28.0
606.1026 40.0
606.332825 312.0
606.542114 56.0
606.85614 24.0
606.997437 24.0
607.334656 224.0
608.324402 164.0
609.182434 20.0
609.319092 104.0
610.317871 96.0
610.804016 40.0
611.330383 116.0
611.733887 36.0
612.342773 440.0
612.806458 176.0
613.122131 88.0
613.329651 436.0
613.627319 20.0
614.077393 48.0
614.34613 456.0
614.511902 32.0
614.748962 48.0
614.90094 52.0
615.347229 336.0
615.666016 32.0
615.871643 24.0
616.029846 36.0
616.338196 1816.0
616.583679 32.0
616.90033 20.0
617.130798 72.0
617.337097 960.0
618.160217 32.0
618.336365 120.0
619.330383 84.0
619.896301 48.0
620.086792 40.0
620.213806 100.0
620.339294 112.0
620.626587 24.0
620.960144 108.0
621.285034 296.0
621.675171 28.0
622.328674 344.0
622.995056 52.0
623.327881 124.0
623.647583 48.0
623.886353 32.0
624.355042 456.0
625.335388 172.0
626.03772 36.0
626.149353 40.0
626.286194 152.0
626.484375 36.0
626.803528 84.0
627.329895 212.0
627.841309 36.0
628.352966 160.0
629.369385 312.0
629.967407 36.0
630.35614 324.0
631.023865 32.0
631.389709 172.0
632.097168 48.0
632.367188 104.0
633.139343 32.0
633.341736 248.0
633.909485 20.0
634.333984 140.0
635.308716 260.0
635.901184 32.0
636.319763 172.0
636.496033 36.0
636.65686 36.0
636.79364 32.0
636.99469 28.0
637.351501 160.0
638.008667 28.0
638.319031 44.0
638.814026 40.0
639.317749 192.0
639.571472 36.0
640.116638 60.0
640.335144 1580.0
640.555237 32.0
640.813354 24.0
640.979187 44.0
641.34436 548.0
641.876526 56.0
641.955017 28.0
642.008057 28.0
642.350708 812.0
642.589661 56.0
642.840149 80.0
643.067017 32.0
643.356689 340.0
644.109497 20.0
644.341858 280.0
644.983398 64.0
645.356201 272.0
645.598755 124.0
645.971313 28.0
646.388245 208.0
646.53125 36.0
646.814087 36.0
647.008606 28.0
647.375427 372.0
648.367249 168.0
649.337219 84.0
650.336853 48.0
651.442749 44.0
652.347961 84.0
653.343384 60.0
653.771423 32.0
653.901794 44.0
654.064819 20.0
654.376221 172.0
654.541321 180.0
655.056641 44.0
655.344788 312.0
655.973633 48.0
656.376465 772.0
656.953552 56.0
657.118774 36.0
657.366882 576.0
657.623657 24.0
657.879089 32.0
658.063049 32.0
658.351379 2232.0
658.762451 44.0
659.030212 28.0
659.357666 872.0
659.562195 40.0
659.756958 44.0
659.930542 20.0
660.357056 780.0
661.354065 336.0
662.077515 56.0
662.348694 716.0
662.840454 36.0
663.359741 336.0
663.948669 148.0
664.375793 192.0
665.228088 28.0
665.325012 96.0
665.481873 88.0
666.380188 80.0
666.628723 28.0
666.87561 116.0
667.171936 104.0
667.369568 340.0
667.880127 72.0
668.361511 148.0
668.522766 32.0
669.032471 48.0
669.376709 96.0
669.84198 40.0
670.138977 24.0
670.326294 260.0
670.608704 52.0
670.931274 32.0
671.338989 140.0
671.69104 40.0
671.866577 32.0
672.364624 312.0
672.930664 96.0
673.11261 32.0
673.359558 1752.0
673.923218 72.0
674.374512 1168.0
674.618408 20.0
675.38031 628.0
675.723999 32.0
675.877319 20.0
676.135132 36.0
676.37854 664.0
676.600464 64.0
677.359619 96.0
677.784485 40.0
678.360657 480.0
679.348145 48.0
679.511536 32.0
680.026733 36.0
680.226196 52.0
680.352112 112.0
680.625305 32.0
681.357788 128.0
681.73999 32.0
681.906433 32.0
682.380493 144.0
682.838928 24.0
683.363525 76.0
683.538696 64.0
684.359009 144.0
685.139587 32.0
685.362183 104.0
685.974121 80.0
686.337463 84.0
687.176697 36.0
687.386719 92.0
687.845276 44.0
688.388245 172.0
688.781799 28.0
688.999329 24.0
689.37561 364.0
689.970154 24.0
690.40094 232.0
690.640076 32.0
691.38092 368.0
691.813232 88.0
692.397156 120.0
692.63501 112.0
693.171997 36.0
693.42749 72.0
693.675537 48.0
693.89386 52.0
694.405151 172.0
695.422729 52.0
696.388733 52.0
696.919617 28.0
697.345459 80.0
698.333923 120.0
698.773682 40.0
699.007874 24.0
699.374817 352.0
699.614746 24.0
700.377625 208.0
700.593018 20.0
701.065552 36.0
701.394226 200.0
701.926575 24.0
702.0448 20.0
702.386475 176.0
702.838867 40.0
703.17688 64.0
703.384399 192.0
703.559204 120.0
704.373352 84.0
704.682129 152.0
705.402283 212.0
706.393066 88.0
707.383911 248.0
708.019653 20.0
708.392822 60.0
708.511597 32.0
709.360229 120.0
709.988586 24.0
710.45874 124.0
710.753113 88.0
712.372803 248.0
713.401672 124.0
714.207153 32.0
714.377014 324.0
714.880249 72.0
715.022644 28.0
715.380188 184.0
716.133484 56.0
716.378296 152.0
716.628296 136.0
716.850159 132.0
717.054993 96.0
717.375122 472.0
717.635437 48.0
717.806213 28.0
717.985962 44.0
718.382812 308.0
718.916748 72.0
719.053528 80.0
719.375549 252.0
720.395691 168.0
721.406372 100.0
722.431702 96.0
723.213196 76.0
723.430603 100.0
723.590393 76.0
723.710449 32.0
724.406067 160.0
725.151611 56.0
725.403992 140.0
726.302185 36.0
726.456787 60.0
726.714539 28.0
727.388916 68.0
727.745972 24.0
728.405396 136.0
729.384033 112.0
730.017639 48.0
730.383972 664.0
731.390808 276.0
732.124695 48.0
732.24115 64.0
732.389954 172.0
732.637939 64.0
732.810486 32.0
732.931274 108.0
733.403503 92.0
734.394287 172.0
734.994202 24.0
735.395874 376.0
736.391113 236.0
736.789734 56.0
737.096252 28.0
737.371277 192.0
737.582092 60.0
737.80603 20.0
737.961853 44.0
738.117676 24.0
738.393005 76.0
738.671997 44.0
739.139832 24.0
739.399841 320.0
740.417358 180.0
740.821838 52.0
740.978027 20.0
741.220947 36.0
741.419983 228.0
742.106323 32.0
742.387329 548.0
742.905334 36.0
743.412476 264.0
743.961731 36.0
744.261169 20.0
744.400269 348.0
744.95697 40.0
745.148376 40.0
745.417969 220.0
745.983826 40.0
746.123108 108.0
746.385681 152.0
746.610718 52.0
746.90686 40.0
747.429626 160.0
748.406311 88.0
749.387024 180.0
750.011108 32.0
750.465027 44.0
750.86676 44.0
751.216125 80.0
751.410156 128.0
752.385254 388.0
752.562073 52.0
752.946838 24.0
753.393066 164.0
754.391235 260.0
754.749512 32.0
755.169861 20.0
755.423462 184.0
756.051514 44.0
756.428467 336.0
757.43689 244.0
758.20343 48.0
758.43866 496.0
758.640137 32.0
759.046204 40.0
759.248596 84.0
759.436646 396.0
760.394714 508.0
761.028137 36.0
761.406433 336.0
761.788391 24.0
761.940857 36.0
762.14032 32.0
762.426453 288.0
763.214172 72.0
763.419312 228.0
764.112549 48.0
764.39093 80.0
765.418579 92.0
765.946228 36.0
766.417969 184.0
766.987488 32.0
767.407227 484.0
768.420288 232.0
768.983643 44.0
769.406433 444.0
769.680237 120.0
770.389648 236.0
770.557739 48.0
771.420837 464.0
772.0271 40.0
772.419739 408.0
772.983826 48.0
773.40564 180.0
773.852478 32.0
774.09552 40.0
774.443909 584.0
774.863586 24.0
775.023315 28.0
775.200806 28.0
775.4505 476.0
776.426697 108.0
777.426147 260.0
778.02533 24.0
778.39679 72.0
778.843445 28.0
779.145874 52.0
779.441162 88.0
779.715393 36.0
780.419495 44.0
781.408691 160.0
782.176208 28.0
782.409241 492.0
783.277588 144.0
783.386169 240.0
784.426208 1076.0
784.680908 44.0
784.993042 32.0
785.171631 20.0
785.421753 924.0
785.921997 44.0
786.118591 28.0
786.426697 536.0
786.601257 84.0
787.030396 36.0
787.443176 620.0
787.817444 52.0
788.421021 328.0
788.651489 60.0
789.124084 100.0
789.414978 1344.0
789.684387 128.0
790.029358 56.0
790.432434 512.0
791.398254 348.0
791.633057 32.0
791.866272 28.0
792.405029 484.0
792.655701 32.0
793.032654 36.0
793.433655 60.0
794.064453 52.0
794.410278 236.0
794.613159 52.0
794.828796 36.0
795.421936 72.0
795.58374 40.0
796.395325 132.0
796.986816 36.0
797.390503 196.0
797.85083 24.0
798.438416 252.0
799.414185 208.0
800.157227 28.0
800.418152 320.0
800.680237 32.0
800.896729 48.0
801.418823 36.0
802.186218 44.0
802.440979 1616.0
803.450012 652.0
803.767639 32.0
803.930298 32.0
804.450745 116.0
804.689575 32.0
804.870422 20.0
805.250244 44.0
805.459534 408.0
805.899048 28.0
806.45575 128.0
806.613831 92.0
807.433716 724.0
808.128967 28.0
808.425415 268.0
809.071533 40.0
809.432922 216.0
809.760681 44.0
810.123535 24.0
810.444885 136.0
810.722351 28.0
811.414795 84.0
812.400574 192.0
812.629272 24.0
813.44397 236.0
813.756287 20.0
814.472778 160.0
814.993286 56.0
815.253479 40.0
815.429565 76.0
816.012695 136.0
816.474548 96.0
817.421997 308.0
818.434814 276.0
818.854431 52.0
819.432556 196.0
820.121094 36.0
820.418335 312.0
821.465576 80.0
822.252258 32.0
822.398438 68.0
823.463623 260.0
823.824951 20.0
824.451904 164.0
825.079041 60.0
825.442444 148.0
826.296814 76.0
826.452026 440.0
827.1521 64.0
827.447754 404.0
828.075195 52.0
828.435669 400.0
829.194519 56.0
829.453674 204.0
829.708557 36.0
830.441467 68.0
830.753235 32.0
831.15979 64.0
831.473389 172.0
832.488098 128.0
833.370605 36.0
834.084412 76.0
834.486755 184.0
834.710449 36.0
834.94989 48.0
835.115662 24.0
835.429749 316.0
835.576294 32.0
836.443237 172.0
837.161682 40.0
837.461731 132.0
838.449219 208.0
838.674744 32.0
839.413086 220.0
840.427002 132.0
841.452087 464.0
841.705017 36.0
841.940857 48.0
842.333069 128.0
842.462158 668.0
843.450745 132.0
844.14801 136.0
844.441345 464.0
844.636536 32.0
844.796326 100.0
845.092834 28.0
845.454041 456.0
845.826843 152.0
846.455688 840.0
846.682861 52.0
846.854187 36.0
847.447754 220.0
848.069641 64.0
848.208923 36.0
848.452881 76.0
848.747375 48.0
848.95166 76.0
849.118835 64.0
849.458313 160.0
849.713318 24.0
850.103638 28.0
850.32666 44.0
850.490601 84.0
851.434753 180.0
852.298157 152.0
852.484985 316.0
852.789368 44.0
853.19165 44.0
853.456421 348.0
854.460449 272.0
854.801697 56.0
854.96991 24.0
855.358459 120.0
855.479492 168.0
856.071533 52.0
856.42627 72.0
857.106262 36.0
857.454346 84.0
858.432983 64.0
859.454529 1412.0
860.475952 288.0
860.795776 64.0
861.455872 236.0
861.927917 28.0
862.152527 36.0
862.283508 36.0
862.488098 160.0
863.49115 156.0
864.459595 504.0
864.760254 36.0
865.461609 388.0
865.881226 36.0
866.162598 32.0
866.458435 232.0
867.086853 32.0
867.485779 160.0
867.814331 28.0
868.494446 272.0
869.492493 56.0
869.939514 40.0
870.5047 1224.0
871.047241 16.0
871.27301 24.0
871.495178 788.0
871.817017 44.0
872.138794 32.0
872.270569 40.0
872.487549 176.0
873.22467 48.0
873.483521 184.0
874.041199 24.0
874.468201 140.0
874.738586 32.0
875.059143 24.0
875.416687 140.0
876.436951 132.0
877.191223 28.0
877.490967 132.0
878.4776 148.0
879.193665 144.0
879.360352 44.0
879.498596 72.0
880.075256 56.0
880.479065 728.0
881.236145 36.0
881.492798 324.0
882.06897 24.0
882.488953 380.0
882.737793 76.0
883.458069 212.0
884.479126 200.0
885.425964 68.0
886.427673 148.0
887.458923 84.0
888.480652 572.0
889.488586 408.0
889.753113 24.0
890.47998 240.0
890.845764 36.0
891.04657 32.0
891.17981 28.0
891.467468 164.0
892.455261 148.0
892.893311 20.0
893.441895 100.0
893.826904 28.0
893.998413 24.0
894.471558 112.0
895.218628 32.0
895.464539 112.0
895.905396 160.0
896.460571 140.0
896.916931 44.0
897.231323 60.0
897.500488 136.0
897.814392 56.0
898.177368 24.0
898.4953 2468.0
898.941711 20.0
899.151917 28.0
899.502441 760.0
899.763733 48.0
899.897583 24.0
900.487915 376.0
900.700867 140.0
900.853943 76.0
901.488708 244.0
902.193726 60.0
902.525513 168.0
903.481384 232.0
903.687805 20.0
904.186096 36.0
904.485046 160.0
905.087219 20.0
905.518738 68.0
906.513062 108.0
907.512573 104.0
907.863037 44.0
908.292725 24.0
908.486755 228.0
909.215088 20.0
909.506287 296.0
910.485657 176.0
911.138245 68.0
911.351868 40.0
911.495422 172.0
911.986572 52.0
912.254578 64.0
912.52594 224.0
913.514587 176.0
914.498352 152.0
914.952026 120.0
915.528625 540.0
915.877808 44.0
916.503052 336.0
916.744324 44.0
917.079529 44.0
917.50415 236.0
918.486694 168.0
918.812439 28.0
919.035278 60.0
919.492798 40.0
920.068848 40.0
920.478271 244.0
921.470581 108.0
922.47998 188.0
923.496704 100.0
923.668762 44.0
923.959412 80.0
924.497925 128.0
924.754028 24.0
925.504089 120.0
926.544006 84.0
927.575134 76.0
927.955261 32.0
928.110596 32.0
928.246582 56.0
928.499817 624.0
928.965271 36.0
929.494812 80.0
930.296631 124.0
930.484985 144.0
930.734192 68.0
930.92865 52.0
931.523438 196.0
932.494202 104.0
932.991394 28.0
933.127747 36.0
933.524658 400.0
934.515015 96.0
935.195679 28.0
935.510071 152.0
936.486694 200.0
936.877625 32.0
937.162842 28.0
937.472839 80.0
937.689819 32.0
938.498108 128.0
939.134827 40.0
939.493408 428.0
939.779602 36.0
940.499878 152.0
941.540405 92.0
942.525513 56.0
943.524353 204.0
944.024902 76.0
944.240356 80.0
944.564697 72.0
944.945679 32.0
945.514648 76.0
946.503052 532.0
947.023926 32.0
947.493103 476.0
948.506775 216.0
948.947327 24.0
949.547729 64.0
949.699341 56.0
950.170105 32.0
950.503296 124.0
951.069275 32.0
951.495239 188.0
951.973816 44.0
952.249207 36.0
952.445923 40.0
952.615723 44.0
952.957458 52.0
953.549438 400.0
954.551453 128.0
954.847534 44.0
955.523682 136.0
956.108582 28.0
956.246582 44.0
956.524109 172.0
956.91687 28.0
957.512085 140.0
957.781921 28.0
958.177307 40.0
958.51355 172.0
959.250061 64.0
959.501221 132.0
959.89679 52.0
960.495361 156.0
961.514465 188.0
961.729248 92.0
962.268188 48.0
962.564819 120.0
963.184509 148.0
963.539124 272.0
963.949707 120.0
964.207031 28.0
964.518188 92.0
965.501343 320.0
965.989319 24.0
966.482666 160.0
967.237915 48.0
967.500122 200.0
967.733582 64.0
968.436768 132.0
968.497803 60.0
968.562439 56.0
969.539734 140.0
969.920471 36.0
970.532898 252.0
971.524048 100.0
972.519958 56.0
972.714111 124.0
973.294006 32.0
973.52533 480.0
974.525208 356.0
975.323486 52.0
975.529602 420.0
975.781433 36.0
975.960693 24.0
976.139893 52.0
976.523621 160.0
977.522705 232.0
977.773682 36.0
978.510254 188.0
979.52124 128.0
980.571594 60.0
980.985535 24.0
981.538696 536.0
982.243713 28.0
982.555603 660.0
983.302856 36.0
983.531494 220.0
984.518188 128.0
984.735901 48.0
985.54071 276.0
985.903137 32.0
986.553162 68.0
987.514465 92.0
988.555298 68.0
989.288696 44.0
989.563416 160.0
990.528381 112.0
991.294678 40.0
991.519836 504.0
991.776428 32.0
992.517151 204.0
992.720154 32.0
993.302673 40.0
993.540833 184.0
994.287354 100.0
994.536743 188.0
994.718933 100.0
995.521118 332.0
996.177673 24.0
996.512695 252.0
997.12854 32.0
997.570801 92.0
998.297363 40.0
998.566101 200.0
998.862122 60.0
999.056885 36.0
999.547729 3908.0
1000.020935 40.0
1000.242676 44.0
1000.547607 2432.0
1000.911377 36.0
1001.063293 136.0
1001.555725 1268.0
1001.792603 64.0
1001.96637 120.0
1002.550476 416.0
1002.743958 76.0
1002.938416 52.0
1003.542542 240.0
1003.736755 56.0
1004.019531 40.0
1004.55127 108.0
1005.556641 60.0
1005.817993 120.0
1006.080872 36.0
1006.323486 48.0
1006.544189 96.0
1007.494141 156.0
1008.539307 68.0
1008.755981 36.0
1008.957153 152.0
1009.217285 36.0
1009.561523 24.0
1010.556152 200.0
1010.707642 140.0
1011.552002 344.0
1011.770447 28.0
1012.074646 52.0
1012.552856 120.0
1013.230896 40.0
1013.536377 76.0
1013.859985 24.0
1014.550232 76.0
1014.996948 32.0
1015.362549 36.0
1015.569641 252.0
1015.931396 36.0
1016.561951 132.0
1017.150818 56.0
1017.571106 200.0
1018.520996 476.0
1019.101379 40.0
1019.306946 24.0
1019.546448 420.0
1020.540344 304.0
1021.543518 128.0
1022.198975 24.0
1022.568054 152.0
1023.569336 64.0
1024.536133 92.0
1025.584961 56.0
1026.585449 112.0
1026.830566 108.0
1027.553711 200.0
1028.579834 172.0
1028.97644 24.0
1029.324097 28.0
1029.553467 992.0
1029.835449 16.0
1030.551147 508.0
1031.550537 208.0
1032.12793 52.0
1032.557983 40.0
1033.599609 148.0
1034.320312 44.0
1034.611816 288.0
1035.546875 240.0
1035.952759 88.0
1036.607422 40.0
1037.048706 20.0
1037.534424 76.0
1038.178101 56.0
1038.321899 136.0
1038.570679 236.0
1039.574707 308.0
1039.968628 120.0
1040.535889 44.0
1040.849976 48.0
1041.055542 40.0
1041.556152 136.0
1041.783569 56.0
1043.521851 72.0
1044.513794 92.0
1045.551147 128.0
1045.832764 116.0
1046.548096 196.0
1047.076904 36.0
1047.565918 84.0
1048.593384 96.0
1049.009888 64.0
1049.574341 144.0
1050.662231 68.0
1051.530151 52.0
1052.607422 80.0
1053.588745 112.0
1054.541748 104.0
1054.766235 56.0
1055.559326 60.0
1055.937622 44.0
1056.310547 52.0
1056.557373 236.0
1057.553345 168.0
1057.823486 92.0
1058.543457 148.0
1059.358276 108.0
1059.576172 112.0
1060.575439 216.0
1060.811157 20.0
1061.557861 104.0
1062.562866 84.0
1063.514038 76.0
1063.740601 56.0
1064.582764 40.0
1065.599243 120.0
1065.799805 80.0
1066.573975 204.0
1067.595215 124.0
1068.620605 132.0
1068.991089 52.0
1069.42395 32.0
1070.032593 144.0
1070.348999 44.0
1070.546021 64.0
1071.646729 100.0
1072.606445 80.0
1073.60144 60.0
1074.562622 228.0
1075.096069 104.0
1075.562744 240.0
1076.624146 44.0
1077.571899 176.0
1078.577393 232.0
1079.596313 112.0
1080.561768 44.0
1081.192505 56.0
1081.339233 44.0
1081.611694 48.0
1082.64624 36.0
1083.394409 36.0
1083.592407 160.0
1084.212891 56.0
1084.592285 268.0
1085.073608 68.0
1085.588623 200.0
1085.76123 84.0
1086.61438 136.0
1087.195435 84.0
1087.566284 56.0
1088.640381 136.0
1089.634888 88.0
1090.119019 40.0
1090.589478 44.0
1091.567261 104.0
1092.203613 40.0
1092.592163 236.0
1092.919922 52.0
1093.58606 268.0
1093.849609 120.0
1094.589722 224.0
1094.965088 24.0
1095.239258 32.0
1095.583496 296.0
1096.572266 96.0
1097.286621 32.0
1097.567383 136.0
1097.962402 24.0
1098.542969 92.0
1098.87085 76.0
1099.51416 56.0
1100.600952 176.0
1101.589722 160.0
1101.894653 52.0
1102.042847 44.0
1102.594727 76.0
1102.974121 52.0
1103.600586 64.0
1104.350586 32.0
1104.591064 188.0
1105.028564 48.0
1105.568481 140.0
1106.02478 152.0
1106.592407 104.0
1107.339478 32.0
1107.585449 124.0
1107.954712 40.0
1108.37915 108.0
1108.609619 28.0
1109.037109 36.0
1109.538696 64.0
1109.928955 96.0
1110.614136 148.0
1111.394775 52.0
1111.617798 104.0
1112.159912 128.0
1112.586792 300.0
1113.602539 304.0
1114.586426 404.0
1114.776245 32.0
1115.095581 88.0
1115.393555 52.0
1115.603882 84.0
1116.600098 80.0
1116.884399 44.0
1117.591431 172.0
1118.098999 56.0
1118.602295 272.0
1118.951782 112.0
1119.165039 32.0
1119.335571 44.0
1119.619019 148.0
1120.146118 44.0
1120.601929 56.0
1120.807617 84.0
1121.552002 164.0
1122.216553 40.0
1122.584351 84.0
1122.835938 24.0
1123.049561 52.0
1123.241821 20.0
1123.596191 148.0
1124.053833 36.0
1124.588135 188.0
1125.024292 40.0
1125.63623 176.0
1126.390503 100.0
1126.66272 72.0
1126.833862 36.0
1127.240479 72.0
1127.518677 36.0
1127.687744 40.0
1128.618286 424.0
1128.864624 28.0
1129.625 368.0
1130.003052 64.0
1130.302979 88.0
1130.601807 2732.0
1131.274048 40.0
1131.608521 1248.0
1132.044434 48.0
1132.296997 76.0
1132.618896 892.0
1132.897705 56.0
1133.069336 32.0
1133.622925 336.0
1134.013672 28.0
1134.656372 192.0
1135.5802 120.0
1136.010864 32.0
1136.268799 40.0
1136.56958 28.0
1137.450806 40.0
1139.192993 48.0
1139.640381 156.0
1140.627319 204.0
1141.586792 96.0
1142.605469 200.0
1143.605835 268.0
1144.168335 24.0
1144.623779 56.0
1145.610596 104.0
1146.059326 96.0
1146.217651 56.0
1146.620361 952.0
1147.62854 412.0
1148.247314 40.0
1148.650757 88.0
1149.241089 40.0
1149.598145 488.0
1149.875488 92.0
1150.594971 156.0
1151.429077 40.0
1151.621826 36.0
1152.419922 24.0
1152.616699 100.0
1153.638306 56.0
1154.714966 44.0
1155.634399 100.0
1155.906616 20.0
1156.275024 28.0
1156.838745 32.0
1157.659058 184.0
1158.058472 96.0
1158.5896 132.0
1159.029541 44.0
1159.289917 40.0
1159.626709 100.0
1160.65625 192.0
1160.896606 60.0
1161.638916 124.0
1161.98291 40.0
1162.156738 48.0
1162.671021 68.0
1163.700073 56.0
1164.222046 152.0
1164.374268 48.0
1164.664551 176.0
1164.96167 148.0
1165.651367 192.0
1166.18042 36.0
1166.664673 164.0
1166.985962 40.0
1167.631592 396.0
1168.162231 24.0
1168.314697 32.0
1168.624756 316.0
1168.990234 28.0
1169.65625 208.0
1170.385498 36.0
1170.654297 136.0
1170.952637 36.0
1171.662842 36.0
1171.978027 44.0
1172.593628 60.0
1173.641113 84.0
1174.073975 44.0
1174.641968 52.0
1174.838623 28.0
1175.66272 128.0
1176.608154 356.0
1177.505005 160.0
1177.672607 176.0
1178.626953 64.0
1179.059204 48.0
1179.234375 28.0
1179.62085 116.0
1180.088257 24.0
1180.577026 68.0
1181.00415 44.0
1181.655518 48.0
1182.279053 32.0
1182.640259 84.0
1183.633301 120.0
1184.274414 32.0
1184.669312 32.0
1185.217896 28.0
1185.641113 572.0
1185.920288 64.0
1186.095947 36.0
1186.650269 432.0
1187.640259 356.0
1188.116577 36.0
1188.656494 220.0
1189.662842 88.0
1189.940918 60.0
1190.644653 44.0
1191.040649 96.0
1191.194702 40.0
1191.648926 80.0
1192.618286 64.0
1193.109497 24.0
1193.637939 28.0
1194.623413 108.0
1194.937744 68.0
1195.661255 172.0
1195.849487 108.0
1196.665771 284.0
1197.230469 44.0
1197.62854 192.0
1198.65979 36.0
1199.106079 40.0
1199.697998 124.0
1199.887207 96.0
1200.452881 44.0
1201.608765 400.0
1201.904663 124.0
1202.087891 28.0
1202.436646 36.0
1202.621582 136.0
1202.972046 76.0
1203.643921 408.0
1203.999146 72.0
1204.266968 36.0
1204.638794 624.0
1204.861938 60.0
1205.334473 140.0
1205.638794 448.0
1206.082153 76.0
1206.666504 504.0
1206.860718 124.0
1207.087891 84.0
1207.646851 144.0
1208.630615 120.0
1209.727295 36.0
1210.634033 104.0
1211.454834 20.0
1212.694214 52.0
1213.674194 132.0
1214.662476 140.0
1215.251831 24.0
1215.659668 376.0
1216.635376 80.0
1217.408325 36.0
1217.652222 108.0
1218.387085 24.0
1218.720825 40.0
1219.608765 84.0
1220.724487 56.0
1221.415039 36.0
1221.64502 168.0
1221.803345 140.0
1222.69165 96.0
1222.93042 64.0
1223.287109 28.0
1223.661255 224.0
1224.640747 240.0
1225.071411 32.0
1225.66272 120.0
1226.25415 68.0
1226.432739 128.0
1226.610107 36.0
1227.671753 84.0
1228.681763 52.0
1229.630615 224.0
1230.399048 76.0
1230.654419 72.0
1231.665283 164.0
1231.870483 52.0
1232.680786 128.0
1233.430054 160.0
1233.666382 372.0
1234.034668 44.0
1234.669067 108.0
1235.177002 36.0
1235.468262 156.0
1235.679443 108.0
1236.319824 60.0
1237.012573 44.0
1237.552856 40.0
1238.046265 84.0
1238.562134 28.0
1239.212891 48.0
1240.698364 68.0
1241.677368 68.0
1242.378906 44.0
1242.655029 592.0
1243.670776 432.0
1244.177002 28.0
1244.657837 308.0
1245.693115 208.0
1246.359009 24.0
1246.657593 60.0
1247.304321 48.0
1247.732178 48.0
1248.716064 116.0
1249.661743 132.0
1250.65332 112.0
1251.179565 68.0
1251.682007 60.0
1252.014038 124.0
1252.705688 60.0
1252.763428 92.0
1253.096924 120.0
1253.744873 56.0
1254.135132 36.0
1254.699585 52.0
1254.902832 40.0
1255.684448 56.0
1255.828735 108.0
1256.416138 28.0
1256.663818 60.0
1257.674194 96.0
1258.38269 28.0
1258.684326 48.0
1259.151733 28.0
1259.692261 280.0
1260.147095 56.0
1260.66626 1144.0
1260.994263 84.0
1261.66394 848.0
1262.66687 284.0
1263.641968 72.0
1264.647217 52.0
1264.865967 36.0
1265.140625 44.0
1265.651855 40.0
1266.714844 76.0
1267.035645 108.0
1267.648315 64.0
1268.715942 396.0
1269.396484 32.0
1269.706909 192.0
1270.032593 24.0
1270.709351 272.0
1271.687744 100.0
1271.986938 24.0
1272.748169 84.0
1273.123901 48.0
1273.305908 64.0
1273.670288 180.0
1273.897461 28.0
1274.238647 132.0
1274.7771 184.0
1275.685425 92.0
1276.036987 36.0
1276.773438 72.0
1277.68042 432.0
1278.009521 88.0
1278.178345 36.0
1278.674072 496.0
1278.947632 80.0
1279.416992 36.0
1279.695923 600.0
1280.1698 68.0
1280.367065 20.0
1280.692383 164.0
1281.685547 140.0
1281.891113 40.0
1282.68335 40.0
1283.706543 52.0
1284.476074 148.0
1284.70459 64.0
1285.697388 80.0
1286.281494 44.0
1286.720581 708.0
1287.718506 616.0
1288.706055 852.0
1289.700073 348.0
1290.033691 64.0
1290.78125 100.0
1291.04126 24.0
1291.224487 24.0
1291.737915 240.0
1291.968506 52.0
1292.728271 244.0
1293.317505 36.0
1293.722412 84.0
1294.671265 64.0
1295.206909 44.0
1295.809692 36.0
1296.383423 196.0
1296.69873 1868.0
1297.267578 124.0
1297.704468 1400.0
1298.128418 24.0
1298.408813 48.0
1298.699585 608.0
1299.292236 36.0
1299.442871 36.0
1299.685425 436.0
1300.006226 60.0
1300.242188 16.0
1300.705078 244.0
1301.102417 48.0
1301.299805 20.0
1301.483765 40.0
1301.730469 116.0
1302.047974 60.0
1302.717285 108.0
1303.071045 32.0
1303.692383 132.0
1304.060669 36.0
1304.718384 1132.0
1305.717285 700.0
1305.913696 104.0
1306.202393 24.0
1306.731934 384.0
1306.94043 72.0
1307.204224 52.0
1307.464355 36.0
1307.728149 128.0
1307.976929 20.0
1308.299683 16.0
1308.539795 36.0
1308.704712 88.0
1309.152954 44.0
1309.403809 32.0
1309.699341 72.0
1310.19104 32.0
1310.514038 28.0
1310.869141 64.0
1311.645142 28.0
1311.875977 48.0
1312.430176 32.0
1312.691162 104.0
1313.03064 36.0
1313.236206 160.0
1313.387451 36.0
1313.591431 44.0
1313.946045 32.0
1314.205688 56.0
1314.709839 10324.0
1315.265869 56.0
1315.710205 8644.0
1316.312622 136.0
1316.713867 2936.0
1317.457764 80.0
1317.720703 1008.0
1318.709229 524.0
1319.089478 36.0
1319.390381 32.0
1319.74646 48.0
1320.742554 84.0
1320.942261 24.0
1321.243408 40.0
1321.822754 36.0
1322.355835 24.0
1322.723633 88.0
1323.762451 48.0
1323.831055 32.0
1324.210938 40.0
1324.489258 88.0
1324.677124 164.0
1324.896973 92.0
1325.197021 32.0
1325.414551 32.0
1325.613647 72.0
1325.822144 80.0
1326.074585 56.0
1326.525269 44.0
1326.775024 124.0
1327.149292 92.0
1327.392822 48.0
1327.473755 28.0
1327.644775 36.0
1328.34314 172.0
1328.651978 124.0
1328.821167 28.0
1329.156494 36.0
1329.319092 72.0
1329.505005 72.0
1329.714233 40.0
1330.167603 84.0
1330.702393 72.0
1330.873657 52.0
1331.151978 48.0
1331.589966 48.0
1331.660767 28.0
1331.852173 96.0
1332.10376 32.0
1332.295654 56.0
1332.720947 20712.0
1333.379517 148.0
1333.723755 16180.0
1334.45874 120.0
1334.723999 6288.0
1335.240601 64.0
1335.725098 1864.0
1336.273682 88.0
1336.728516 464.0
1337.358398 52.0
1337.697754 204.0
1338.352051 60.0
1338.749146 164.0
1338.958496 72.0
1339.352051 32.0
1339.785767 28.0
1339.96167 40.0
1340.171631 44.0
1340.536011 72.0
1341.502197 32.0
1341.886108 36.0
1342.494629 40.0
1342.696777 52.0
1343.253784 28.0
1343.721069 84.0
1344.736694 44.0
1345.263794 32.0
1345.748535 132.0
1346.38623 24.0
1346.737061 32.0
1347.11145 36.0
1347.368774 56.0
1347.672974 40.0
1348.106689 120.0
1348.585815 92.0
1348.843384 36.0
1349.424805 48.0
1349.470703 40.0
1350.421265 52.0
1350.726196 692.0
1350.985352 52.0
1351.349487 36.0
1351.734741 496.0
1352.427612 40.0
1352.722656 384.0
1353.459351 36.0
1353.735107 64.0
1353.91394 32.0
1354.092529 120.0
1354.561768 40.0
1354.753662 72.0
1354.937134 60.0
1355.648193 40.0
1356.692017 152.0
1357.698975 112.0
1358.506104 40.0
1358.694092 272.0
1358.858521 28.0
1359.140503 16.0
1359.651367 60.0
1361.02124 28.0
1361.72522 56.0
1362.244385 20.0
1362.715698 124.0
1363.162109 40.0
1363.397461 32.0
1363.712646 152.0
1364.150757 36.0
1364.71814 220.0
1365.092651 36.0
1365.713745 96.0
1366.598633 52.0
1367.307495 108.0
1367.496094 32.0
1369.406128 72.0
1369.925171 28.0
1370.326294 64.0
1370.703857 84.0
1373.348389 56.0
1373.704224 360.0
1374.723022 228.0
1375.120605 24.0
1375.286133 20.0
1375.697632 52.0
1376.492065 44.0
1376.760132 56.0
1377.78186 152.0
1378.758057 160.0
1378.9729 136.0
1379.605225 100.0
1379.994507 20.0
1380.657593 20.0
1381.249756 96.0
1381.439331 68.0
1381.723633 76.0
1383.742676 112.0
1384.781982 72.0
1385.849731 32.0
1386.632935 64.0
1389.458984 40.0
1389.744141 120.0
1390.171997 104.0
1390.599854 20.0
1390.766235 64.0
1391.146606 24.0
1391.312988 24.0
1391.479492 40.0
1391.724121 1116.0
1392.709717 644.0
1393.725586 308.0
1394.262939 44.0
1394.694824 84.0
1395.405762 48.0
1396.19165 32.0
1396.811035 24.0
1397.621094 64.0
1397.835571 60.0
1398.336182 136.0
1398.765259 56.0
1399.027466 64.0
1399.75708 200.0
1400.076782 52.0
1400.386841 20.0
1400.761108 96.0
1401.174194 120.0
1401.484375 52.0
1401.766357 112.0
1402.205688 36.0
1402.758667 52.0
1403.722534 64.0
1404.349487 100.0
1404.731812 76.0
1405.854858 24.0
1406.751343 64.0
1407.002441 52.0
1407.791504 116.0
1408.269897 32.0
1409.322632 32.0
1409.556396 84.0
1409.762085 156.0
1410.739258 68.0
1410.971436 108.0
1411.731689 124.0
1412.781128 112.0
1413.05835 36.0
1413.609497 140.0
1414.675293 52.0
1415.753662 156.0
1416.693604 72.0
1417.773438 388.0
1418.773071 524.0
1419.29541 28.0
1419.780029 340.0
1420.00354 88.0
1420.328247 24.0
1420.789429 408.0
1421.505615 24.0
1421.760986 108.0
1422.810303 124.0
1424.198608 36.0
1424.67981 24.0
1424.896362 44.0
1426.364624 36.0
1426.822021 32.0
1427.183228 128.0
1427.756226 1396.0
1428.243042 24.0
1428.760498 904.0
1429.279053 24.0
1429.485718 56.0
1429.760986 872.0
1430.772949 220.0
1431.352417 104.0
1431.52124 44.0
1431.812744 48.0
1432.558472 52.0
1432.751587 28.0
1433.427246 56.0
1433.644409 28.0
1434.175415 24.0
1434.776367 144.0
1435.232544 36.0
1435.771606 1028.0
1436.778198 712.0
1437.14624 32.0
1437.31543 76.0
1437.578125 36.0
1437.791504 512.0
1438.093994 64.0
1438.772827 244.0
1439.191284 196.0
1439.584839 32.0
1439.751343 48.0
1440.108154 32.0
1440.422974 92.0
1440.603271 60.0
1440.88623 40.0
1441.160645 16.0
1441.45105 104.0
1441.668823 56.0
1442.056152 20.0
1442.631104 32.0
1443.315186 24.0
1443.630005 60.0
1443.938232 48.0
1444.315063 48.0
1444.532837 96.0
1444.762451 96.0
1444.970947 88.0
1445.359619 72.0
1445.769653 18876.0
1446.770508 14328.0
1447.186401 100.0
1447.45813 64.0
1447.776123 6564.0
1448.391846 120.0
1448.779785 1668.0
1449.195557 28.0
1449.382446 60.0
1449.779663 596.0
1450.777466 156.0
1451.234619 28.0
1451.452637 24.0
1451.779419 36.0
1451.956421 68.0
1452.452271 40.0
1452.821655 52.0
1453.139893 32.0
1453.374634 64.0
1453.924805 40.0
1454.525269 56.0
1454.914307 72.0
1455.199951 36.0
1455.442383 156.0
1455.601562 96.0
1455.670044 64.0
1455.918213 224.0
1456.22522 176.0
1456.681641 36.0
1456.857178 92.0
1457.775513 208.0
1458.164185 56.0
1458.473755 52.0
1458.661133 40.0
1459.375366 24.0
1459.762573 84.0
1460.019043 92.0
1460.219604 56.0
1460.938843 72.0
1461.530396 40.0
1461.702881 112.0
1461.99231 108.0
1462.489014 40.0
1462.727051 88.0
1462.89917 80.0
1463.084229 180.0
1463.432617 216.0
1463.78186 60160.0
1464.381836 168.0
1464.465576 176.0
1464.785767 43768.0
1465.401611 72.0
1465.784058 16848.0
1466.786255 4872.0
1467.188843 124.0
1467.227783 152.0
1467.503784 48.0
1467.789185 1212.0
1468.148193 64.0
1468.514893 124.0
1468.779663 224.0
1469.069946 108.0
1469.483765 68.0
1469.83667 60.0
1470.437012 72.0
1470.827271 56.0
1471.127563 120.0
1471.313232 92.0
1471.641846 44.0
1472.171631 36.0
1472.467285 32.0
1472.815796 64.0
1473.036011 32.0
1473.321411 84.0
1473.581909 44.0
1473.869507 36.0
1474.186157 32.0
1474.357422 32.0
1474.700195 52.0
1475.723145 36.0
1476.039795 28.0
1476.340698 16.0
1476.634644 24.0
1476.879639 32.0
1477.06543 40.0
1477.271606 28.0
1477.533813 108.0
1478.254883 60.0
1478.672852 44.0
1479.060669 28.0
1479.859131 192.0
1480.164062 56.0
1480.843628 40.0
1481.032715 48.0
1481.281494 40.0
1481.464233 24.0
1482.151245 48.0
1482.322998 48.0
1482.696167 192.0
1483.904297 48.0
1484.139771 28.0
1484.668945 24.0
1485.122192 32.0
1485.802246 64.0
1486.326172 24.0
1486.779175 124.0
1487.019409 64.0
1487.76416 80.0
1488.194458 40.0
1488.686401 36.0
1489.990234 60.0
1490.236206 84.0
1490.605347 32.0
1491.786987 44.0
1492.275391 48.0
1492.500977 36.0
1492.870483 48.0
1493.78186 24.0
1494.521118 48.0
1495.014038 32.0
1495.309814 68.0
1495.4823 32.0
1495.778198 24.0
1496.338135 96.0
1497.997803 36.0
1498.257812 52.0
1498.639404 20.0
1499.172485 120.0
1499.799438 56.0
1500.169678 36.0
1501.429199 64.0
1501.644165 40.0
1502.339111 124.0
1503.132812 176.0
1504.463013 52.0
1504.88916 24.0
1505.828979 40.0
1507.363037 20.0
1507.932373 36.0
1510.185791 84.0
1511.375 28.0
1511.870728 28.0
1512.837524 36.0
1514.920898 36.0
1516.409912 48.0
1517.005737 36.0
1517.72583 36.0
1521.154785 104.0
1522.373291 56.0
1523.318604 24.0
1524.413452 132.0
1525.708008 32.0
1527.376709 28.0
1530.91626 40.0
1537.907837 28.0
1540.058472 52.0
1540.408691 36.0
1542.285767 32.0
1543.287231 80.0
1544.339233 92.0
1546.494263 120.0
1554.25 116.0
1564.444702 44.0
1566.336182 20.0
1571.739746 24.0
1573.433472 124.0
1579.913208 72.0
1583.614624 72.0
1593.828613 96.0
1607.063843 84.0
1619.430298 80.0
1620.148682 220.0
1621.791138 88.0
1626.158203 148.0
1630.994385 116.0
1633.904785 140.0
1634.188232 124.0
1646.735962 56.0
1650.488892 128.0
1654.349854 80.0
1654.764771 40.0
1665.309326 140.0
1665.725586 28.0
1670.646362 148.0
1682.443848 128.0
1687.860596 116.0
1694.597778 120.0
1697.748169 36.0
1701.427246 64.0
1703.320923 88.0
1724.618042 40.0
1740.458252 136.0
1769.726929 36.0
1808.769897 36.0
1847.800415 44.0
1882.045044 116.0
1887.136841 52.0
1909.800781 104.0
1933.384766 104.0
1934.814575 60.0
END IONS
