BEGIN IONS
PEPMASS=567.896
CHARGE=1
MSLEVEL=2
SOURCE_INSTRUMENT=LC-ESI-Orbitrap
FILENAME=f.lfnothias/1901_fungal_symbiont_annotation_confirmation/Pure_compounds/Pure_compounds_mzML/LeucinostatinAandB_1uL_sensitive.mzML;
SEQ=*..*
IONMODE=Positive
ORGANISM=GNPS-LIBRARY
NAME=Leucinostatin A, 2-L-leucine, N9-oxide ; Paecilotoxin H  M+H
PI=Dorrestein
DATACOLLECTOR=lfnothias
SMILES=CCC(C)C=CC(=O)N1CC(CC1C(=O)NC(CC(C)C)C(=O)NC(C(C(C)C)O)C(=O)NC(C)(C)C(=O)NC(CC(C)C)C(=O)NC(CC(C)C)C(=O)NC(C)(C)C(=O)NC(C)(C)C(=O)NCCC(=O)NC(C)CCCON)C
INCHI=InChI=1S/C57H103N11O12/c1-19-36(10)22-23-44(70)68-31-37(11)30-42(68)50(75)62-39(27-32(2)3)48(73)64-45(46(71)35(8)9)51(76)66-56(15,16)53(78)63-40(28-33(4)5)47(72)61-41(29-34(6)7)49(74)65-57(17,18)54(79)67-55(13,14)52(77)59-25-24-43(69)60-38(12)21-20-26-80-58/h22-23,32-42,45-46,71H,19-21,24-31,58H2,1-18H3,(H,59,77)(H,60,69)(H,61,72)(H,62,75)(H,63,78)(H,64,73)(H,65,74)(H,66,76)(H,67,79)/b23-22+/t36-,37?,38?,39?,40?,41?,42?,45?,46?/m1/s1
INCHIAUX=BAYBYMBPRYTYMY-JNSBAATBSA-N
PUBMED=
SUBMITUSER=lfnothias
TAGS=
LIBRARYQUALITY=3
SPECTRUMID=CCMSLIB00005435707
SCANS=1399
84.080925 14395.676758
86.096405 2256.462891
94.072838 943.825378
97.553345 947.990967
100.075676 1370.67334
102.597923 1170.883301
111.080452 11665.203125
111.482697 924.827759
112.075882 2961.290771
124.646233 994.697937
171.149216 1196.888428
172.143707 1945.479736
194.153732 28061.255859
195.157364 3034.832275
199.143204 1461.494263
215.139206 1967.348877
222.148804 18284.677734
223.15152 1059.154907
227.175095 2641.553711
275.208008 2194.059082
310.210449 1777.518921
312.229279 2377.4021
329.786926 1564.714233
335.234406 1810.283325
405.969055 1177.40332
446.302063 3492.137939
455.754181 1101.155273
473.345917 1457.501465
531.354797 3690.909912
558.897705 1766.193115
586.428528 6762.609375
587.430054 1848.118042
700.667542 1299.916382
END IONS
