BEGIN IONS
PEPMASS=1253.8
CHARGE=1
MSLEVEL=2
SOURCE_INSTRUMENT=LC-ESI-qTof
FILENAME=f.amcaraballor/DorresteinLab_AMCR_2018/2018_02_12_NSF_FGA_Plates1_2_mzXML/PD-FGA-21_BD2_01_8377.mzXML;
SEQ=*..*
IONMODE=Positive
ORGANISM=GNPS-LIBRARY
NAME=Putative orfamide D M+H
PI=Dorrestein
DATACOLLECTOR=amcaraballor
SMILES=CCCCCCCCCC(O)CC(NC(C(NC(C(NC1C(C)OC(C(C(C)C)NC(C(CO)NC(C(CC(C)C)NC(C(CC(C)C)NC(C(CO)NC(C(CC(C)C)NC(C(C(C)C)NC1=O)=O)=O)=O)=O)=O)=O)=O)=O)CCC(O)=O)=O)CC(C)C)=O
INCHI=InChI=1S/C61H108N10O17/c1-15-16-17-18-19-20-21-22-39(74)29-47(75)62-41(25-32(2)3)53(79)63-40(23-24-48(76)77)52(78)71-51-38(14)88-61(87)50(37(12)13)70-58(84)46(31-73)68-55(81)43(27-34(6)7)64-54(80)42(26-33(4)5)65-57(83)45(30-72)67-56(82)44(28-35(8)9)66-59(85)49(36(10)11)69-60(51)86/h32-46,49-51,72-74H,15-31H2,1-14H3,(H,62,75)(H,63,79)(H,64,80)(H,65,83)(H,66,85)(H,67,82)(H,68,81)(H,69,86)(H,70,84)(H,71,78)(H,76,77)
INCHIAUX=
PUBMED=N/A
SUBMITUSER=amcaraballor
TAGS=
LIBRARYQUALITY=3
SPECTRUMID=CCMSLIB00004679301
SCANS=2702
183.115738 88.0
186.29512 54.0
208.139236 45.0
243.920349 46.0
260.154785 60.0
283.180603 79.0
284.264008 63.0
292.145264 44.0
294.251312 98.0
296.19574 83.0
300.194489 58.0
309.589508 65.0
311.731171 54.0
312.145996 94.0
312.25238 144.0
312.431946 30.0
313.259369 144.0
314.146515 69.0
314.169403 78.0
356.287476 76.0
358.632233 43.0
369.205261 57.0
382.791656 59.0
383.238586 39.0
383.393188 62.0
387.241425 57.0
395.267426 104.0
399.242737 28.0
401.255127 86.0
409.285919 167.0
413.268158 180.0
417.187225 100.0
423.175781 58.0
427.298462 144.0
431.285492 64.0
432.261566 43.0
441.296326 65.0
442.310791 48.0
445.292297 63.0
455.269623 51.0
464.286652 51.0
478.295044 95.0
481.344635 77.0
495.299896 78.0
496.341003 87.0
497.301819 61.0
500.322449 182.0
501.30896 74.0
504.263916 44.0
514.278748 46.0
514.320618 37.0
516.231079 35.0
518.306519 112.0
519.339233 60.0
524.333984 389.0
525.330811 99.0
526.360291 177.0
530.356262 54.0
540.249329 41.0
542.321472 50.0
542.343689 54.0
544.285645 101.0
550.336853 71.0
564.342529 32.0
567.391968 49.0
573.266235 93.0
579.392334 51.0
587.336975 87.0
594.334839 71.0
595.417725 65.0
596.391602 48.0
602.29364 43.0
603.542725 94.0
607.305054 65.0
611.334045 119.0
611.399292 60.0
613.352295 48.0
613.387878 53.0
613.717407 39.0
613.877014 35.0
615.392151 51.0
615.633484 60.0
623.326538 52.0
623.399902 787.0
624.400391 471.0
625.342163 40.0
625.428345 45.0
626.329651 42.0
628.179443 42.0
629.353027 53.0
630.374268 54.0
631.395386 404.0
632.367737 77.0
632.403992 105.0
633.394226 53.0
639.2771 42.0
641.403259 158.0
641.474792 49.0
642.403564 63.0
643.422729 41.0
652.348022 98.0
656.446594 74.0
664.396973 46.0
665.112 28.0
665.380615 71.0
665.452148 165.0
666.468323 60.0
669.410095 45.0
681.348389 54.0
682.389893 54.0
683.342957 83.0
683.470642 149.0
693.278442 77.0
693.380554 55.0
695.353271 49.0
700.437744 158.0
701.432495 81.0
706.42395 47.0
711.451843 48.0
713.471069 40.0
714.435791 36.0
728.418396 40.0
730.487793 113.0
731.45752 40.0
732.502197 51.0
736.494934 189.0
737.490234 33.0
738.519836 67.0
740.486572 51.0
742.430176 56.0
744.448242 58.0
745.469666 48.0
754.503235 362.0
755.458191 54.0
755.511841 91.0
776.420288 54.0
787.525208 36.0
788.550659 64.0
793.514832 39.0
794.430481 33.0
795.491394 65.0
796.52771 135.0
799.506409 42.0
805.530457 58.0
809.489319 66.0
811.447998 85.0
813.420044 79.0
813.509033 776.0
814.489014 77.0
814.548889 54.0
814.995728 46.0
815.35022 32.0
815.486206 79.0
815.708496 31.0
816.523499 71.0
818.652771 52.0
823.540283 72.0
824.522339 60.0
824.575317 95.0
825.452454 55.0
825.518188 42.0
826.474304 50.0
827.71991 56.0
829.500916 39.0
830.467407 91.0
831.475342 57.0
838.504578 53.0
841.523438 166.0
842.513184 43.0
847.640198 46.0
853.605225 52.0
855.498596 39.0
855.573975 38.0
870.504028 36.0
890.611694 68.0
894.273254 52.0
895.627075 49.0
896.537781 48.0
904.588013 37.0
907.53418 34.0
908.625977 72.0
912.610962 56.0
914.555847 53.0
918.595703 32.0
919.602173 41.0
920.618469 104.0
922.599487 41.0
923.618042 108.0
924.544983 136.0
935.385254 54.0
936.576721 194.0
936.707947 35.0
937.55188 54.0
937.62207 66.0
937.66217 53.0
937.74231 42.0
939.061584 72.0
940.588501 129.0
941.59967 52.0
942.555603 538.0
942.943359 39.0
943.54425 278.0
943.939575 88.0
944.50769 33.0
944.571106 110.0
954.60083 29.0
954.85791 67.0
955.631653 49.0
957.454102 52.0
960.559998 64.0
962.259583 44.0
973.573547 61.0
978.634766 86.0
989.475708 37.0
991.682495 47.0
996.660645 61.0
1010.651001 51.0
1035.616455 38.0
1036.677124 48.0
1038.610229 59.0
1047.161987 36.0
1049.704346 121.0
1051.662231 51.0
1053.678345 33.0
1054.703735 43.0
1054.766846 56.0
1067.690308 164.0
1068.705688 85.0
1069.712891 50.0
1076.177002 36.0
1081.587036 37.0
1105.685547 50.0
1112.55542 27.0
1112.72644 27.0
1112.784424 69.0
1122.730469 85.0
1123.632446 35.0
1123.700684 79.0
1132.641479 41.0
1136.767212 90.0
1138.614746 50.0
1140.709839 50.0
1141.77832 59.0
1144.71521 39.0
1149.752319 34.0
1150.750488 89.0
1153.910645 42.0
1154.712769 50.0
1154.79248 68.0
1157.2771 37.0
1171.671143 47.0
1171.724731 58.0
1172.760498 46.0
1182.735718 33.0
1187.668579 62.0
1193.76709 54.0
1194.580811 41.0
1207.789429 46.0
1208.77356 43.0
1210.789062 37.0
1216.487915 39.0
1217.673218 45.0
1217.787354 93.0
1218.608521 40.0
1218.765015 111.0
1219.780396 39.0
1225.789062 160.0
1226.79248 114.0
1231.14978 63.0
1235.686646 112.0
1235.781738 631.0
1236.006104 74.0
1236.776367 433.0
1236.913086 75.0
1237.644165 35.0
1237.7854 197.0
1238.001465 54.0
1238.795166 71.0
1242.609741 30.0
1246.207275 30.0
1249.647949 35.0
1250.59668 32.0
1253.468994 57.0
1253.576416 52.0
1253.654541 87.0
1253.801636 1902.0
1253.946533 94.0
1254.631836 53.0
1254.808472 1923.0
1255.15979 28.0
1255.623413 39.0
1255.812134 500.0
1256.2854 32.0
1256.620483 48.0
1256.692505 64.0
1256.757324 66.0
1256.815918 183.0
1257.390503 26.0
1257.78418 43.0
1261.184204 39.0
1270.30481 37.0
1387.150635 35.0
1588.102539 26.0
1637.998779 55.0
1655.799927 34.0
1683.007935 43.0
1722.729004 52.0
1744.538086 56.0
1744.66333 40.0
END IONS
