BEGIN IONS
PEPMASS=738.289
CHARGE=1
MSLEVEL=2
SOURCE_INSTRUMENT=LC-ESI-qTof
FILENAME=5a_15b-O-diacetoxy-14b-O-benzoyloxy-7b-O-nicotynoyloxy-3b-O-propanoyloxymyrsinol.mgf
SEQ=*..*
IONMODE=Positive
ORGANISM=GNPS-LIBRARY
NAME=5,15-O-diacetyl-14-O-benzoyl-7-O-nicotinyl-3-O-propanoylmyrsinol M+Na
PI=LITAUDON/TOUBOUL
DATACOLLECTOR=Esposito
SMILES=C[C@H]1C[C@@]2(OC(C)=O)[C@]([C@@H](OC(C)=O)[C@@]([C@H](OC(C3=CC=CN=C3)=O)C=C[C@@H]4C(C)=C)(CO5)[C@]4([H])[C@]5(C)[C@@H]2OC(C6=CC=CC=C6)=O)([H])[C@H]1OC(CC)=O
INCHI=
INCHIAUX=
PUBMED=N/A
SUBMITUSER=lfnothias
TAGS=
LIBRARYQUALITY=1
SPECTRUMID=CCMSLIB00000840362
SCANS=1
57.033878 267.295197
57.065228 10.32143
78.13221 19.560181
83.049507 45.022732
83.084602 76.005547
102.031288 201.8228
104.893791 12.18382
105.031975 522.616272
105.068069 127.003799
105.092659 19.78125
105.582909 23.907261
106.029358 865.889526
106.089645 16.53125
106.402519 29.240391
106.550911 21.125
107.030716 191.688095
117.068748 54.033329
119.081177 44.669121
119.240845 31.117649
124.038742 1113.016968
124.103653 14.4
124.115303 22.165541
124.273827 13.375
128.062103 121.209198
131.049149 79.347816
131.085953 331.653412
131.128998 16.049999
131.516251 82.755127
133.098557 63.408901
133.433487 34.224998
135.373138 23.408331
135.399704 47.78677
137.092575 53.273651
137.488861 20.18561
138.027191 154.102295
144.08873 158.969696
145.096649 66.480263
145.733475 26.125
146.021271 1229.722046
146.090805 12.00543
146.149704 24.003201
146.232437 30.240391
146.271149 39.183819
146.625534 12.36029
147.078934 91.199997
151.075119 96.135872
155.084808 272.109406
157.100189 194.013
159.079056 25.03125
165.08786 107.168999
165.127655 17.20833
165.292862 47.041672
166.63266 30.75
167.102386 140.796097
173.096298 98.346313
175.071198 40.653221
175.111115 409.574493
179.086456 155.076904
181.098038 42.14286
181.829636 12.66667
185.098282 157.204193
189.126266 101.142197
192.094055 129.092896
192.349182 39.68145
193.100754 606.307129
193.790588 10.2
194.105896 49.3153
194.281952 29.4
195.080688 49.44643
195.117218 186.031693
195.164352 18.0
195.366135 18.408331
196.117416 27.375
197.094421 40.240379
197.131897 128.507904
203.107117 76.030296
205.100815 94.360947
207.115417 144.809692
208.121826 148.042404
209.131348 176.001007
216.104568 158.692596
217.098343 210.797104
217.944519 21.33333
219.119049 434.447296
220.123871 127.533798
220.363205 41.805
221.126694 52.686409
223.142853 12.16667
228.109756 57.39859
231.116043 64.240387
231.427277 40.25
232.123947 197.893402
232.407776 17.13587
233.133713 198.921204
233.289337 55.01585
233.564621 14.00833
233.725418 16.027781
234.137711 108.0784
235.148849 1221.473999
235.237656 13.77885
235.36702 17.111839
235.388397 21.6
235.442276 29.575001
235.537918 27.0
235.666122 15.005
235.889252 13.25
237.160721 122.159203
241.154495 26.32692
244.094223 95.486107
244.124619 155.089996
245.116531 66.222977
247.147751 1296.944946
247.339233 14.875
247.371399 15.28571
247.555481 22.367649
247.616699 31.6
247.709686 16.0
248.069534 10.25
249.163208 353.056488
249.548141 22.005951
251.142395 172.837006
251.188492 11.01389
251.475784 19.005951
252.149124 38.190479
253.15712 156.123703
253.340179 65.227112
253.526093 10.025
253.920456 50.207142
257.13678 65.951218
259.148804 227.637207
261.126221 131.077301
261.169647 19.08333
262.137909 38.0
265.157928 524.16333
267.174164 310.820099
269.72995 13.34722
270.114441 24.165541
272.108185 79.287338
273.161316 51.862068
277.159393 1647.842041
277.485352 23.027439
277.804291 27.140631
278.160126 179.632706
282.113037 77.760132
290.115265 184.705505
291.175629 27.521549
292.093079 174.460907
294.15567 17.92045
295.16629 445.408203
295.266357 12.875
295.796906 40.907261
295.957764 13.32143
296.173279 93.777779
299.135406 104.257698
304.13266 27.94231
313.926208 16.11574
329.682648 12.00658
330.182037 66.008621
337.174896 24.0
339.191498 76.138702
351.195526 269.131287
352.511871 45.111488
353.171783 29.13306
358.447937 19.48214
359.160339 46.656818
369.189178 39.291672
370.079834 61.33065
370.178986 1281.000977
370.259125 13.00658
370.332794 27.28409
370.661072 27.07692
371.056519 19.33333
371.424347 25.0
371.579071 14.24039
372.190338 40.333328
373.179718 195.3853
373.238434 10.24039
374.586304 43.1413
376.184326 112.994102
377.163849 112.440002
382.174652 68.512192
385.179382 20.15
388.182678 91.224487
393.164398 69.064293
395.179626 21.28409
397.314209 13.28409
400.188477 153.860504
400.380219 21.6
401.174896 84.195663
404.499329 11.28125
404.562988 12.675
407.718353 13.08654
408.858124 41.5
411.221191 155.552307
411.677551 48.723209
415.195801 61.30682
417.729706 25.0625
418.199493 30.02273
421.693878 12.03571
422.60199 36.0
422.788452 22.04167
424.478516 19.140631
430.190796 28.926279
433.19574 323.900696
433.742249 12.125
434.202637 22.55682
434.662079 50.26667
436.210083 38.532612
444.21759 171.903198
445.210968 18.08333
451.21225 107.8918
456.324066 35.63636
460.205139 22.004311
462.223145 27.0625
474.227203 163.001297
483.178436 14.68056
484.162659 21.57065
488.251007 22.222219
492.23407 46.066181
494.058777 28.926279
496.213837 154.274994
496.692322 43.052971
497.182922 110.441399
499.210999 21.84091
512.242554 67.558823
514.218079 14.20455
534.249756 163.470703
534.579773 27.560181
534.925354 30.375
540.226746 24.347219
555.235352 666.583008
555.450684 17.0
555.648071 31.68145
555.713196 11.18382
555.788086 26.56818
556.232483 1119.006958
556.313232 13.025
556.616028 28.00403
556.821289 36.375
557.22821 101.081902
557.415405 59.382938
557.658936 65.077583
558.307556 52.450001
558.355347 10.68056
559.08197 16.33333
563.232239 39.336109
573.241882 37.284088
578.245544 46.049419
587.50238 24.29167
597.262329 33.349998
601.057922 14.55682
616.246704 97.81855
617.10437 10.375
617.199158 14.44444
618.237793 67.177643
625.565063 14.28571
634.275269 168.429199
643.905579 89.482758
644.982178 73.160263
656.289551 227.627594
656.469482 27.42857
657.103149 48.58065
673.963257 13.20833
674.632385 42.625
678.217163 55.102268
678.26709 2744.342041
678.421875 11.25
678.572449 32.333328
678.669678 26.045
678.733765 22.10227
678.905457 26.21121
679.077698 20.140631
679.267456 197.585999
679.413269 11.00961
679.48584 33.036289
694.573425 13.02083
700.437073 25.48077
738.279236 194.686996
738.343445 38.720242
739.283569 66.778229
739.542419 16.44022
739.854736 13.225
741.663879 39.461071
785.512085 21.57065
789.428406 38.727268
END IONS
