BEGIN IONS
PEPMASS=465.75
CHARGE=2
MSLEVEL=2
SOURCE_INSTRUMENT=LC-ESI-Orbitrap
FILENAME=f.Rolandoo1/20190519 Moroidin paper GNPS/Celogentin A.mzXML;
SEQ=*..*
IONMODE=Positive
ORGANISM=GNPS-LIBRARY
NAME=Moroidin-[QLLVWRH] M+2H
PI=Jing-Ke Weng
DATACOLLECTOR=Roland Kersten
SMILES=O=C1CCC(C(NC(C(NC(CC(C)C)C(NC(C(C)C)C(NC(C(NC2CCCNC(N)=N)=O)CC3=C(N4C=NC(CC(C(O)=O)NC2=O)=C4)NC5=C3C=CC6=C5)=O)=O)=O)C6C(C)C)=O)N1
INCHI=
INCHIAUX=
PUBMED=
SUBMITUSER=Rolandoo1
TAGS=
LIBRARYQUALITY=3
SPECTRUMID=CCMSLIB00005435921
SCANS=1
68.808563 10.094292
68.809105 1449.027832
68.809647 2942.748047
68.810188 3682.970459
68.81073 3000.411621
68.811272 1435.500122
69.067451 24.626059
69.068001 1574.599731
69.068542 5607.732422
69.069084 9792.071289
69.069633 11862.77832
69.070175 10345.729492
69.070717 6266.591797
69.071266 2306.319092
69.071808 30.901941
70.062103 33.234657
70.06266 1015.966003
70.063217 13044.575195
70.063774 49810.503906
70.064331 102547.5625
70.064888 146435.84375
70.065445 131726.421875
70.066002 80594.132812
70.066559 31535.220703
70.067108 7303.501465
70.067665 38.441826
70.223083 924.2771
70.223648 1805.5448
70.224205 2232.153076
70.224762 1938.454956
70.225319 1153.901123
71.047157 149.720123
71.047729 1938.19812
71.048294 4742.782227
71.048866 6046.336426
71.049431 5260.646973
71.050003 2975.007812
71.050568 598.862732
72.07518 674.247375
72.07576 10525.939453
72.07634 48900.316406
72.07692 82122.8125
72.077499 118988.054688
72.078079 175423.203125
72.078659 580251.6875
72.079239 1889225.0
72.079819 3695131.5
72.080399 5441884.0
72.080978 5160954.5
72.081558 3265221.25
72.082138 1510543.375
72.082726 434855.4375
72.083305 150677.5
72.083885 115179.164062
72.084465 65147.410156
72.085045 47643.246094
72.085625 7044.086426
72.086205 37.450127
73.081223 165.053467
73.081818 3298.111084
73.082405 20190.568359
73.083 50309.980469
73.083595 88182.90625
73.084183 93524.835938
73.084778 62656.449219
73.085373 29406.576172
73.08596 8156.800293
73.599945 106.921898
73.60054 1291.946655
73.601143 1975.144287
73.601738 2219.937256
73.602341 1802.057129
73.602936 930.657471
75.609344 3.012018
75.60997 2149.376953
75.610588 3595.956543
75.611214 4129.289062
75.611839 3426.331055
75.612465 1979.677734
79.282639 87.132149
79.28331 2011.073364
79.283981 4233.224121
79.284645 5564.975586
79.285316 5084.758301
79.285988 3137.784912
79.743835 113.637123
79.744507 2012.015747
79.745186 3678.582275
79.745857 4695.977539
79.746536 4424.336426
79.747208 3015.362549
79.747887 494.307953
84.037437 112.964912
84.03817 1325.289917
84.038902 5691.950684
84.039635 21542.216797
84.040359 52794.957031
84.041092 94022.164062
84.041824 313728.8125
84.042557 929310.5
84.043282 1693317.875
84.044014 2330131.75
84.044746 2040174.5
84.045479 1234794.0
84.046204 516130.78125
84.046936 136704.609375
84.047668 44133.269531
84.048401 31461.029297
84.049133 14903.71875
84.049858 7647.640625
84.050591 2571.538574
84.077629 323.638489
84.078362 2085.506348
84.079094 4444.491211
84.079826 6694.978027
84.080559 7266.226074
84.081284 5630.742188
84.082016 2971.20459
84.082748 920.450195
85.025658 316.853241
85.026398 2532.811279
85.027138 5023.347168
85.027885 6580.707031
85.028625 6105.17041
85.029373 3990.959717
85.030113 1635.023071
85.044983 169.25737
85.045731 2264.504883
85.046471 10222.34668
85.047218 15611.990234
85.047958 15554.755859
85.048706 10047.073242
85.049446 3471.459473
86.055618 753.646118
86.056374 5347.469727
86.057137 10192.233398
86.057892 13352.666992
86.058647 12561.133789
86.059402 8529.266602
86.060165 3631.6521
86.088936 1798.196167
86.089691 17335.425781
86.090454 69975.601562
86.091209 155814.671875
86.091965 283348.9375
86.09272 428013.28125
86.093483 1267099.375
86.094238 3765670.5
86.094994 7738452.5
86.095749 11437253.0
86.096512 11620408.0
86.097267 7693189.0
86.098022 3829652.5
86.098785 1119664.25
86.099541 339361.15625
86.100296 216516.0625
86.101059 138665.734375
86.101814 40226.863281
86.10257 12363.05957
86.103325 544.647583
86.135155 999.20874
86.13591 6856.822266
86.136673 12380.451172
86.137428 15775.436523
86.138191 14220.844727
86.138947 8708.442383
86.139702 2902.612549
87.095161 554.727844
87.095932 5612.484375
87.096703 32257.402344
87.097473 112802.140625
87.098251 242249.59375
87.099022 356827.28125
87.099792 364791.78125
87.100563 246358.84375
87.101334 124083.328125
87.102104 35863.160156
87.102875 7154.852539
88.68026 463.668213
88.681053 4585.538086
88.681847 10750.608398
88.682632 15800.772461
88.683426 16256.709961
88.684219 12255.370117
88.685013 6485.630859
88.686592 133.038528
88.687386 937.68042
88.688179 2133.878418
88.688972 3775.004639
88.689766 5769.991211
88.690552 6561.578125
88.691345 7379.431152
88.692139 7067.865234
88.692932 5052.868652
88.693726 2045.735718
88.694511 945.326477
88.727791 223.968048
88.728584 1348.657471
88.729378 2054.664795
88.730171 2473.11499
88.730957 2187.811523
88.73175 1236.234497
91.098633 544.785645
91.099457 2427.413818
91.100288 3355.586426
91.101112 3614.247803
91.101936 2988.883057
91.10276 1584.009399
91.420204 618.342896
91.421028 5306.949219
91.42186 8810.744141
91.422684 10242.625
91.423515 8672.461914
91.424347 4869.883301
92.372444 385.140137
92.373283 2105.610352
92.37413 4647.799316
92.374969 6433.209961
92.375809 4862.553711
92.377495 993.584351
92.378334 6969.760742
92.379181 18865.060547
92.38002 39677.972656
92.380859 61889.535156
92.381706 56065.703125
92.382545 29658.779297
92.383392 5059.435547
97.060867 203.757721
97.061775 1302.006226
97.062683 2386.938721
97.063591 3213.423584
97.064499 3187.408447
97.065407 2254.733398
97.066307 980.334473
98.989616 438.50708
98.990547 2717.372314
98.991486 4052.214355
98.992416 4539.348145
98.993355 3810.503174
98.994286 2105.68335
100.072372 869.011536
100.073318 3921.447998
100.074272 7336.061035
100.075218 9293.951172
100.076172 8466.270508
100.077118 5462.855469
100.078064 1888.706055
100.616592 539.420837
100.617554 2277.898193
100.618507 3566.694336
100.619469 4047.876709
100.620422 3276.632812
100.621384 1536.793579
102.050972 2110.578369
102.051949 11186.912109
102.052925 25188.816406
102.053902 39897.988281
102.054878 43518.617188
102.055855 31467.527344
102.056831 14178.999023
102.057808 3728.314209
104.610367 1022.087891
104.611382 5156.562988
104.612396 8342.414062
104.613411 9214.649414
104.614426 7064.810547
104.61544 3268.337891
109.024628 498.234436
109.025703 2007.966919
109.026787 2806.878906
109.027863 2999.887939
109.028946 2475.107178
109.030022 1286.335083
109.222427 1181.678955
109.223511 5908.619141
109.224594 9167.694336
109.225677 10095.46582
109.226761 8157.691895
109.227837 4233.53418
110.067207 2406.711182
110.068298 11181.493164
110.069397 22248.369141
110.070496 29324.503906
110.071587 27718.955078
110.072685 18820.779297
110.073776 7520.106934
112.081764 1986.638062
112.082886 11306.163086
112.084015 30575.146484
112.085136 53919.359375
112.086258 67541.859375
112.087387 60037.101562
112.088509 37937.246094
112.089638 15908.592773
112.090759 2146.692383
113.065941 756.400269
113.067078 4743.928223
113.068222 13425.713867
113.069359 24814.703125
113.070503 30484.439453
113.07164 25058.087891
113.072777 16819.203125
113.073921 7745.888672
113.075058 1869.905396
114.05043 2679.101562
114.05159 12036.994141
114.052742 24181.302734
114.053902 34140.863281
114.055054 35314.695312
114.056206 26688.203125
114.057365 14077.174805
114.058517 4167.60498
114.087402 1135.126709
114.088554 4191.490234
114.089714 7256.023438
114.090866 8850.9375
114.092026 7772.879883
114.093178 4799.459961
114.09433 1657.864014
114.215767 1468.380981
114.216927 6388.261719
114.218079 9642.701172
114.219238 9896.892578
114.220398 7196.256836
114.22155 3152.025391
114.694122 433.742523
114.69529 1537.980957
114.696449 2162.53125
114.697617 2193.678223
114.698784 1585.887939
114.699944 651.204163
115.081779 639.381958
115.082954 2787.320068
115.084122 5916.990234
115.085297 8286.813477
115.086464 8735.949219
115.087639 6823.143555
115.088806 3539.870117
115.089981 790.793518
115.835831 601.874695
115.837013 2549.485107
115.838196 4191.712891
115.839378 4869.394043
115.840561 3966.135742
115.841743 1833.789917
116.491135 681.911987
116.492332 4200.125488
116.493523 10431.469727
116.494713 14529.181641
116.495903 14925.033203
116.497101 13028.324219
116.498291 11973.933594
116.499481 15620.032227
116.500671 20749.84375
116.501869 23059.132812
116.503059 20177.773438
116.50425 14050.90625
116.505447 6191.843262
119.320633 2279.368408
119.321869 7580.671875
119.323105 10152.326172
119.324341 9782.567383
119.325577 6741.885742
119.326813 2640.81958
124.607887 1017.329224
124.609207 2815.611328
124.610519 3809.738281
124.611839 3774.179932
124.613159 2788.084229
124.614479 1111.959961
127.033966 442.622711
127.035324 2037.17981
127.036682 4211.470703
127.03804 5620.688965
127.039398 5415.099609
127.040756 3688.924072
127.042114 1635.225464
127.043472 318.543091
129.059006 1276.138184
129.06041 11643.454102
129.061798 51422.8125
129.063187 118497.359375
129.064575 184118.21875
129.065964 198647.59375
129.067352 144655.078125
129.068741 73134.429688
129.070129 23903.556641
129.071518 5430.164062
136.085861 1621.984863
136.087357 5591.411621
136.088867 9935.210938
136.090378 12492.120117
136.091873 11754.921875
136.093384 8176.507324
136.094894 2958.168213
139.522995 2706.506592
139.524567 7517.918457
139.526123 10444.785156
139.527695 9992.869141
139.529251 6440.205078
139.530807 2187.322754
140.139175 1950.615723
140.140747 5235.147949
140.142319 7641.170898
140.14389 7679.098633
140.145462 5304.946289
140.147034 1593.344482
141.060776 1765.611938
141.062363 4533.89209
141.06395 6985.084961
141.065552 7998.140137
141.067139 6820.150391
141.068726 4167.266602
141.070312 1210.418457
147.024338 3119.764404
147.026016 7350.73877
147.02771 9920.022461
147.029404 9990.719727
147.031097 7515.159668
147.032791 2655.495117
152.101624 2483.552002
152.103409 5885.620117
152.105179 8070.933105
152.106964 7770.586914
152.108734 5260.711914
152.110519 1893.617432
152.112305 263.455627
156.069412 741.845398
156.071259 5099.845215
156.073105 13152.392578
156.074951 20698.714844
156.076813 22719.513672
156.078659 17774.9375
156.080505 9258.548828
156.082352 2058.325928
156.123047 607.306091
156.124893 1443.858521
156.12674 1873.440308
156.128586 1689.35083
156.130432 1074.421997
156.132294 291.331055
157.102417 557.363403
157.104294 1564.128052
157.106155 2448.813232
157.108017 2669.838623
157.109894 2110.496826
157.111755 1183.598511
157.113617 285.347687
158.085388 2130.030029
158.08728 6979.673828
158.089157 12973.932617
158.091049 21135.125
158.092926 18465.566406
158.094818 12650.914062
158.096695 6538.939453
158.098587 1316.197388
159.558121 1033.85437
159.560043 9507.56543
159.561951 19338.294922
159.563858 23700.330078
159.565765 24933.167969
159.567688 21384.529297
159.569595 14035.268555
159.571503 9394.979492
159.57341 5267.236816
159.575333 1198.803223
159.611649 1375.213013
159.613556 5982.031738
159.615479 18166.914062
159.617386 33897.21875
159.619293 44801.394531
159.621216 46619.035156
159.623123 40272.441406
159.625031 30518.828125
159.626953 24659.177734
159.62886 20716.03125
159.630768 16862.671875
159.63269 10623.564453
159.634598 2648.835693
159.672852 1614.192871
159.674759 3575.922852
159.676682 4478.229004
159.678589 8957.057617
159.680511 17277.089844
159.682419 26847.205078
159.684326 32398.552734
159.686249 29184.833984
159.688156 19492.380859
159.690079 7860.19873
159.691986 1350.955566
161.101929 700.836792
161.103867 1923.259155
161.10582 2928.462891
161.107758 2992.29126
161.109695 2066.775146
161.111633 548.99408
168.131378 1148.743896
168.133438 3216.54541
168.135513 5300.624512
168.137573 6137.660156
168.139648 5194.325195
168.141708 3102.888184
168.143784 565.188293
170.33786 3379.840088
170.339966 6880.520508
170.342072 8971.463867
170.344193 8659.291016
170.346298 5915.841797
170.348404 1254.59668
175.113647 2604.732178
175.115845 5425.561035
175.118042 6916.699219
175.120239 6097.270508
175.122437 3713.960205
175.124634 1416.31958
175.126831 153.809891
177.047729 1304.532959
177.049973 3463.00415
177.0522 5483.915527
177.054428 6139.858887
177.056671 4980.129395
177.058899 2810.462402
177.061142 436.915985
179.752151 789.945312
179.75444 1459.818726
179.756714 1797.576538
179.759003 1652.554199
179.761292 1093.424072
179.76358 162.56633
180.079376 1429.985229
180.081665 5873.630371
180.083954 16909.654297
180.086243 30452.707031
180.088531 32339.828125
180.090836 23097.160156
180.093124 10511.719727
180.095413 1996.680664
180.097702 142.836105
180.136673 1233.407959
180.138962 2071.653809
180.141251 2338.689453
180.143555 1932.692627
180.145844 1069.890015
180.148132 188.822342
183.144897 1776.32666
183.147247 3354.342773
183.149597 4021.553467
183.151947 3262.484863
183.154297 1551.592041
183.156647 144.925308
185.147034 343.659241
185.149429 3067.40332
185.15181 8684.864258
185.154205 30198.347656
185.156586 127869.015625
185.158981 417914.28125
185.161362 757769.125
185.163757 1035086.6875
185.166153 876040.0
185.168533 539060.375
185.170929 212277.984375
185.173309 57462.128906
185.175705 12278.996094
185.178085 3383.098877
185.180481 232.173645
186.159241 907.023926
186.161652 8550.050781
186.164047 21768.669922
186.166458 32210.455078
186.168869 31884.753906
186.17128 20914.40625
186.173691 6741.794922
186.176102 1946.360962
186.178497 110.140434
188.16954 2009.456055
188.171982 3763.488281
188.174423 4759.500977
188.17688 4423.979492
188.179321 2892.921143
188.181778 468.514587
190.996063 1996.122925
190.998566 3413.731934
191.001068 4106.09668
191.003571 3343.47876
191.006073 1557.5448
195.888611 8443.831055
195.891205 14633.704102
195.893814 16477.560547
195.896408 13151.578125
195.899017 7192.026855
195.901611 735.965637
195.987442 4576.324707
195.990036 8917.047852
195.992645 11196.922852
195.995239 9717.510742
195.997849 5562.946777
196.000443 414.021637
198.127747 1259.258057
198.130386 2025.223267
198.133026 2402.181885
198.135666 2138.18335
198.138321 1353.156006
198.140961 58.277065
199.141769 977.085754
199.144424 2258.385986
199.147095 3062.389404
199.14975 2837.70874
199.15242 1833.78894
199.15509 443.3237
212.52301 271.188049
212.52594 5398.333984
212.528885 8526.698242
212.531815 9771.675781
212.53476 8326.036133
212.537689 5134.639648
213.144226 471.773376
213.147171 8109.839355
213.150131 46933.492188
213.153076 124533.429688
213.156021 215100.578125
213.158981 255916.765625
213.161926 196157.421875
213.164886 105737.953125
213.167831 38894.101562
213.170776 8552.77832
214.153961 44.868629
214.156937 991.2854
214.159897 5544.066895
214.162872 9985.672852
214.165848 11083.791016
214.168823 8264.400391
214.171783 3636.219727
214.174759 66.527939
214.329391 76.768425
214.332367 2541.919434
214.335342 3768.69458
214.338318 4347.539551
214.341293 4057.793213
214.344269 3002.487061
218.424591 99.527336
218.427658 1346.865234
218.430725 1918.505127
218.433777 1994.852051
218.436844 1500.759644
218.439896 735.292847
223.405716 209.357239
223.408875 2680.314209
223.412048 4622.701172
223.415222 5355.034668
223.418381 4380.343262
223.421555 2364.803711
223.941772 384.091797
223.944946 4451.944336
223.948135 8238.083984
223.951309 9892.724609
223.954483 8401.228516
223.957657 4802.583984
236.468155 316.258942
236.471603 2256.457031
236.475052 4097.799805
236.4785 4964.990234
236.481949 4301.828125
236.485382 2454.216797
242.587311 274.489044
242.590881 1377.44458
242.594467 1867.173828
242.598053 1906.957764
242.601639 1465.633667
242.605225 724.460815
253.125671 250.092529
253.129486 1173.297729
253.133316 2220.509766
253.137131 2912.714355
253.140945 2839.485352
253.144775 2051.111816
253.14859 921.879211
264.929321 426.822388
264.933411 4844.577637
264.9375 16431.287109
264.941589 33100.179688
264.945679 49192.925781
264.949768 43094.542969
264.953857 24463.585938
264.957947 8454.265625
264.962036 1072.802612
270.963348 474.716217
270.96759 1653.301392
270.971832 2530.989746
270.976044 2513.0625
270.980286 1609.444824
270.984497 458.114014
275.628479 3438.275146
275.632812 17287.21875
275.637146 47724.554688
275.641479 92034.140625
275.645813 123075.5
275.650146 112271.148438
275.65451 71072.273438
275.658844 32125.603516
275.663177 8045.51123
275.667511 301.956055
276.132477 579.144348
276.136841 2419.646484
276.141174 4982.279785
276.145538 6770.665527
276.149872 6551.910645
276.154236 4662.124512
276.1586 2144.104004
279.137146 1895.21106
279.141571 6320.620117
279.145996 9372.805664
279.150421 10216.311523
279.154846 8701.630859
279.159271 4275.263672
281.62561 391.788483
281.630096 6351.336914
281.634583 24970.228516
281.639069 55342.417969
281.643555 83531.3125
281.648041 91082.390625
281.652527 66685.546875
281.656982 33868.464844
281.661469 9066.46875
281.665955 1513.469604
282.128204 1848.189087
282.13269 8253.976562
282.137207 17917.017578
282.141693 28590.472656
282.146179 32982.554688
282.150665 26746.027344
282.155182 12411.510742
282.159668 4094.844727
282.164154 911.579224
283.28656 749.250183
283.291077 2679.191406
283.295593 4520.873047
283.30014 5375.109863
283.304657 4713.583984
283.309174 2965.672852
283.31369 1060.928955
290.135681 146.66095
290.14035 2422.770508
290.14505 22974.154297
290.14975 74291.492188
290.154419 139786.296875
290.159119 182684.515625
290.163788 155131.265625
290.168488 92919.9375
290.173157 37234.324219
290.177856 8768.454102
290.182556 1587.934082
290.642426 673.771545
290.647125 3536.7146
290.651825 8504.158203
290.656525 16022.125977
290.661224 19538.646484
290.665924 14887.470703
290.670624 7975.162598
290.675323 3148.157471
290.680023 718.872803
294.879089 2251.96582
294.883881 6883.419434
294.888702 10046.283203
294.893494 9672.182617
294.898285 6355.678711
294.903107 2136.770264
295.133728 1705.627686
295.138519 14479.803711
295.143341 36369.351562
295.148163 53372.199219
295.152954 55214.679688
295.157776 40477.785156
295.162567 19092.828125
295.167389 3657.880859
295.629547 3137.873779
295.634369 8989.989258
295.639191 12582.193359
295.643982 11900.634766
295.648804 7460.471191
295.653625 2322.738281
304.137421 4948.632812
304.142456 28075.525391
304.147461 70499.125
304.152496 121344.242188
304.157532 146833.609375
304.162567 120582.429688
304.167603 70563.109375
304.172607 27926.427734
304.177643 5291.538086
304.182678 122.293068
304.640961 1952.401611
304.645996 10958.947266
304.651062 24482.470703
304.656097 35449.09375
304.661133 36245.976562
304.666168 26631.669922
304.671234 12559.294922
304.67627 2585.002441
308.658264 3353.723389
308.663391 7800.741699
308.668549 9760.473633
308.673676 9134.100586
308.678833 6350.523438
308.68396 2094.027832
309.673706 671.125366
309.678864 1492.269897
309.684021 1924.946655
309.689209 2012.500488
309.694366 1619.917725
309.699524 599.13739
310.149628 2459.084229
310.154816 13893.358398
310.160004 34623.695312
310.165161 53525.871094
310.170349 56311.835938
310.175537 40933.320312
310.180695 19173.480469
310.185883 4862.885254
310.191071 509.395782
311.641418 1365.580688
311.646637 5919.486328
311.651855 14580.082031
311.657074 25446.734375
311.662292 32604.738281
311.667511 26213.332031
311.672729 13827.133789
311.677917 4283.62793
311.683136 461.386261
312.158508 4311.504883
312.163727 13250.014648
312.168945 22455.818359
312.174194 26676.566406
312.179413 23329.587891
312.184631 14963.267578
312.18988 5577.054199
312.195099 712.184143
316.683624 1038.156494
316.688965 3103.766846
316.694305 4987.321777
316.699646 5646.788574
316.704987 4629.928711
316.710327 2629.892822
316.715698 732.20929
317.15976 952.76593
317.1651 8401.132812
317.170471 26956.666016
317.175812 56162.683594
317.181183 88662.695312
317.186523 93449.585938
317.191895 61373.890625
317.197235 27338.123047
317.202606 7285.208008
317.207947 366.6633
317.669159 3369.951172
317.67453 10656.796875
317.679901 18438.96875
317.685272 22170.162109
317.690643 19748.931641
317.696014 13166.095703
317.701355 4041.270264
318.659302 2393.546631
318.664703 5892.477539
318.670074 8211.049805
318.675476 8347.294922
318.680878 6549.797363
318.686279 3585.084473
318.69165 1701.24585
318.697052 501.222412
321.674072 2032.281128
321.679535 5284.193359
321.684998 10521.371094
321.690491 15203.863281
321.695953 11403.191406
321.701416 5960.380371
321.706909 2517.875
321.712372 922.616455
321.717834 85.850868
322.161499 658.083313
322.166992 1790.275024
322.172455 2577.151367
322.177948 2477.906006
322.183441 1629.164917
322.188904 464.064911
324.172119 6727.840332
324.177673 33251.078125
324.183197 76585.851562
324.188751 115861.664062
324.194275 121417.617188
324.199799 87375.898438
324.205353 43049.058594
324.210876 12146.875977
324.2164 1236.437012
325.148376 3497.69873
325.153931 9682.856445
325.159485 45259.734375
325.16507 183077.4375
325.170624 419351.46875
325.176178 690115.1875
325.181732 769433.0625
325.187286 575750.125
325.192871 313216.90625
325.198425 118441.703125
325.203979 34452.730469
325.209534 15639.857422
325.215088 8223.40625
325.220673 3578.188232
325.226227 1079.674316
325.654877 369.467896
325.660431 7835.526855
325.666016 36862.539062
325.6716 93179.101562
325.677155 164076.578125
325.682739 202818.578125
325.688324 169044.375
325.693878 98551.921875
325.699463 38595.855469
325.705017 7306.324707
325.710602 840.130432
331.15097 1464.075439
331.156677 12307.367188
331.162384 57943.765625
331.168091 171913.8125
331.173828 322653.75
331.179535 429278.65625
331.185242 371687.25
331.190979 231297.140625
331.196686 96566.28125
331.202393 23247.005859
331.208099 3383.85083
331.213837 45.40506
331.660095 1623.225464
331.665833 18568.527344
331.671539 45126.574219
331.677277 69444.507812
331.683014 71129.960938
331.688721 51224.632812
331.694458 25708.080078
331.700195 6864.252441
331.705933 824.054077
334.524963 3974.688721
334.530762 9086.06543
334.53656 11817.630859
334.542358 10750.783203
334.548157 6832.185059
334.553955 1806.841431
335.187317 2776.052246
335.193115 5141.868164
335.198944 6088.599121
335.204773 5693.806641
335.210602 3954.412354
335.2164 1057.403564
338.174744 672.417969
338.180634 1833.72644
338.186523 2589.553467
338.192413 2318.234375
338.198303 1309.301025
338.204224 301.423004
339.647827 1533.862915
339.653748 8094.705078
339.659698 34418.078125
339.665619 56807.820312
339.67157 174286.359375
339.67749 628264.3125
339.683441 1403423.375
339.689362 2299977.25
339.695312 2579768.0
339.701233 1942322.0
339.707184 1068495.0
339.713135 404340.96875
339.719055 117313.078125
339.725006 49676.375
339.730927 27499.820312
339.736877 19306.603516
339.742798 7600.199219
339.748749 611.305176
340.164795 3872.055664
340.170746 26169.833984
340.176697 118638.046875
340.182648 328879.3125
340.188599 589489.625
340.19455 756086.625
340.20047 634093.4375
340.206421 386381.03125
340.212372 156041.46875
340.218323 43536.519531
340.224274 11299.301758
340.230225 1835.283447
344.173737 995.709106
344.17981 5458.842285
344.185852 17159.212891
344.191925 32863.351562
344.197968 52807.480469
344.20401 55150.878906
344.210083 34846.648438
344.216125 15667.966797
344.222198 2748.315674
344.664673 8302.428711
344.670746 35413.683594
344.676819 77747.734375
344.682892 120870.476562
344.688965 128461.429688
344.695007 94304.085938
344.70108 44045.429688
344.707153 14374.1875
344.713226 1939.458618
344.719299 384.000549
345.168823 2109.719727
345.174896 5628.127441
345.180969 12093.400391
345.187073 15437.943359
345.193146 10363.180664
345.199219 5891.939453
345.205322 2901.192871
345.643616 278.945221
345.649689 6557.920898
345.655792 49525.382812
345.661896 151981.09375
345.667969 265675.40625
345.674072 343595.71875
345.680176 284045.09375
345.686249 167751.109375
345.692352 71370.757812
345.698456 22463.875
345.704529 5693.670898
345.710632 1277.177979
346.156006 4446.234863
346.162109 22201.373047
346.168213 53682.945312
346.174316 84655.898438
346.18042 88045.648438
346.186523 62039.894531
346.192657 26732.599609
346.198761 7775.728516
346.204865 1247.318481
349.681885 2019.92627
349.68808 3958.94751
349.694275 4992.713379
349.7005 4497.413086
349.706696 2669.453857
349.712891 509.086334
351.199677 2113.789551
351.205933 4992.790039
351.212158 7273.59668
351.218414 7422.695801
351.22464 5232.073242
351.230896 2505.233154
351.237122 428.69809
351.655701 1398.13855
351.661957 3291.319824
351.668213 4586.003418
351.674469 4356.810547
351.680725 2813.025146
351.686981 542.320923
352.689697 3123.293945
352.695984 6075.713867
352.702271 7304.131348
352.708527 6624.999023
352.714813 4773.905762
352.7211 1001.436523
353.318573 1436.647339
353.32489 3425.614014
353.331177 4647.020996
353.337494 4335.520508
353.343781 2772.572754
353.350067 676.145874
353.671509 6635.33252
353.677795 21288.859375
353.684113 37289.390625
353.69043 47839.726562
353.696716 40608.117188
353.703033 25546.626953
353.709351 10262.859375
353.715637 1028.69812
354.176575 1170.606567
354.182892 2276.14624
354.189209 2669.379395
354.195526 2251.415283
354.201843 1339.310669
354.208191 271.970947
358.18573 4133.032715
358.192139 8951.578125
358.198578 12012.105469
358.205017 11795.706055
358.211426 8429.15918
358.217865 1794.397949
358.687622 894.327271
358.694061 1798.744263
358.7005 2202.937012
358.70694 1869.369263
358.713379 1048.082886
358.719818 198.827637
359.642853 76.36937
359.649323 6192.327148
359.655792 19938.025391
359.662262 49326.824219
359.668701 83110.875
359.675171 100238.554688
359.681641 81367.0625
359.68811 48176.695312
359.69458 19661.927734
359.70105 5318.895996
359.70752 350.384308
364.707733 944.882202
364.714325 1827.73645
364.720947 2189.273438
364.727539 1845.540527
364.734161 997.730957
364.740753 181.658005
365.183716 2436.927734
365.190308 16447.916016
365.19693 48869.875
365.203552 91895.148438
365.210175 126009.851562
365.216797 121803.96875
365.223419 84486.867188
365.230042 41793.410156
365.236633 11322.405273
365.243256 479.655243
365.700378 3316.789551
365.707031 7992.482422
365.713654 10708.175781
365.720276 9446.887695
365.726929 5446.191895
365.733551 1009.88092
366.171661 1678.502563
366.178314 4102.841309
366.184937 5801.448242
366.191589 5327.822754
366.198242 3039.816406
366.204895 471.888184
366.683777 1288.864746
366.69043 3761.276123
366.697113 6952.420898
366.703766 9654.446289
366.710419 15434.896484
366.717072 12253.831055
366.723724 5826.010742
366.730408 2177.022461
366.737061 297.686127
367.163635 2264.861328
367.170288 4614.63623
367.176971 5659.147461
367.183655 4787.150879
367.190308 2753.700928
367.196991 424.438141
367.664459 2508.380127
367.671143 10577.162109
367.677826 25711.28125
367.684509 42486.367188
367.691193 49081.015625
367.697906 37074.941406
367.70459 21655.806641
367.711273 8063.771484
367.717957 1098.618652
368.173035 2017.865479
368.179718 4935.88623
368.186432 7044.824219
368.193115 6678.756836
368.199829 4204.41748
368.206512 1551.630493
368.213226 352.114807
369.536621 4734.638184
369.543335 8433.827148
369.550079 10022.609375
369.556824 9337.716797
369.563568 6718.229004
369.570282 1417.716675
372.668335 999.981995
372.67514 8318.924805
372.681976 29905.433594
372.688782 66068.65625
372.695618 101467.710938
372.702423 103983.195312
372.709259 68919.273438
372.716064 33747.71875
372.7229 10407.070312
372.729736 792.384277
373.180481 2473.228271
373.187317 7241.849121
373.194153 12070.671875
373.200989 13913.525391
373.207825 11689.730469
373.214661 7288.607422
373.221497 1155.969238
373.679962 2794.109131
373.686829 6781.573242
373.693665 22565.523438
373.700531 83746.21875
373.707367 310745.78125
373.714233 659860.625
373.721069 1038216.3125
373.727936 1075931.625
373.734772 745648.4375
373.741638 380075.46875
373.748474 125204.078125
373.755341 32442.71875
373.762177 15086.513672
373.769043 2613.483643
373.775879 313.562531
374.166748 2220.921143
374.173615 7944.845215
374.180481 15557.878906
374.187347 17853.496094
374.194214 14614.104492
374.20108 23899.736328
374.207947 84353.414062
374.214813 198488.6875
374.22168 329812.71875
374.228516 368751.40625
374.235382 264368.125
374.242249 137356.28125
374.249115 42995.160156
374.255981 9146.605469
374.262848 1021.755676
378.179169 2541.215576
378.186127 5366.599121
378.193115 7053.010742
378.200073 6371.064453
378.207062 3952.280029
378.21402 489.511139
378.702728 1670.436523
378.709717 3558.904541
378.716705 4851.429688
378.723694 4697.026367
378.730682 3180.612549
378.737671 1427.742065
378.744659 191.170135
379.192352 2034.626587
379.199341 10228.879883
379.20636 17252.876953
379.213348 19485.501953
379.220367 16395.275391
379.227356 10275.93457
379.234375 1493.187988
379.69696 1489.267456
379.703979 2852.973145
379.710999 3255.76001
379.718018 2477.031494
379.725037 1169.971191
379.732056 155.731918
381.697235 1680.472778
381.704315 7273.863281
381.711365 14923.217773
381.718445 21449.851562
381.725525 21734.535156
381.732605 14324.732422
381.739655 7138.365723
381.746735 873.038635
382.199768 887.853943
382.206848 4709.375488
382.213959 12868.05957
382.221039 19768.466797
382.228119 19344.429688
382.235199 12840.779297
382.242279 5451.72998
382.249359 1695.36792
382.25647 153.677673
386.184082 1682.279053
386.191284 3937.998047
386.198486 5940.51709
386.205658 6626.692871
386.21286 5484.255859
386.220062 3096.268555
386.227264 298.841034
386.673889 7492.530762
386.681091 23407.972656
386.688293 40997.675781
386.695496 53310.515625
386.702728 46280.351562
386.70993 26867.744141
386.717133 8728.477539
386.724335 2526.008057
386.731567 223.94342
387.670746 2205.305908
387.677979 17140.224609
387.685211 33466.417969
387.692474 135869.34375
387.699707 512739.5625
387.70694 1593220.375
387.714172 2847562.0
387.721405 3828153.5
387.728668 3206693.75
387.735901 1979167.25
387.743134 777903.9375
387.750366 229084.109375
387.757599 69787.742188
387.764862 38343.636719
387.772095 8937.55957
387.779327 547.855835
388.170624 2369.150635
388.177887 7121.061523
388.18512 8729.807617
388.192383 28300.320312
388.199646 127959.546875
388.206879 452838.84375
388.214142 876437.375
388.221405 1280529.5
388.228638 1185765.75
388.235901 765120.0625
388.243164 343470.0
388.250397 102921.882812
388.25766 30188.251953
388.264923 12370.734375
388.272156 5185.266602
388.279419 1011.473328
388.286682 64.040001
392.691254 879.393799
392.698639 5739.458984
392.706024 11981.832031
392.713409 16169.701172
392.720764 14834.614258
392.728149 9083.345703
392.735535 2983.04541
392.74292 285.712708
395.14505 518.863159
395.152496 10401.970703
395.159943 20384.419922
395.167389 51548.820312
395.174835 69833.0625
395.182281 220662.65625
395.189728 807045.375
395.197205 1802717.875
395.204651 2910679.0
395.212097 3163796.5
395.219543 2214195.5
395.22699 1170358.0
395.234436 383986.5
395.241882 114846.507812
395.249329 62447.28125
395.256805 38875.898438
395.264252 35296.75
395.271698 6400.853516
395.279144 150.87561
395.674377 5248.54248
395.681854 43452.5625
395.689301 188007.625
395.696777 505812.53125
395.704254 860547.375
395.7117 1053976.375
395.719177 802340.25
395.726624 460542.8125
395.7341 159852.90625
395.741577 43906.242188
395.749023 13710.954102
395.7565 4891.159668
395.763947 7457.333008
395.771423 1168.495239
395.7789 102.760727
396.189819 1288.386353
396.197327 6077.69873
396.204803 20310.517578
396.21228 73653.234375
396.219757 231648.5
396.227234 425740.8125
396.234711 583435.3125
396.242188 506944.5
396.249664 320527.9375
396.257141 129157.1875
396.264618 36046.660156
396.272095 7740.878906
396.279572 235.10318
396.668823 1990.766479
396.676331 3608.093994
396.683807 5247.875977
396.691315 6184.84082
396.698792 1213.771729
396.706299 3636.616699
396.713776 25867.650391
396.721283 90907.789062
396.72876 162070.515625
396.736267 205883.984375
396.743744 165064.0
396.751251 98228.546875
396.758728 36764.6875
396.766235 8113.328613
396.773712 679.284729
400.182861 2985.341064
400.19046 7128.81543
400.198029 10975.612305
400.205627 11516.862305
400.213226 8215.483398
400.220825 3699.911377
400.228394 908.691162
401.201965 3190.94043
401.209595 20777.101562
401.217224 44436.996094
401.224823 76556.132812
401.232452 81095.84375
401.240082 51241.636719
401.247711 23896.189453
401.25531 5184.678711
401.262939 173.425491
401.682465 151.635101
401.690094 13580.581055
401.697723 60672.769531
401.705353 170024.90625
401.712982 291699.0625
401.720642 363960.84375
401.728271 277610.21875
401.735901 158291.59375
401.74353 50826.3125
401.75116 11278.166992
401.75882 646.770752
402.102631 1136.185181
402.110291 2079.227295
402.11792 2606.937744
402.12558 2366.878662
402.133209 1517.59436
402.140869 142.1241
402.186737 672.531433
402.194397 10337.902344
402.202057 37792.234375
402.209686 84658.6875
402.217346 127733.820312
402.225006 128551.9375
402.232635 88335.601562
402.240295 40122.570312
402.247955 10673.359375
402.255585 488.319153
408.673157 56.789246
408.681 1923.605225
408.688812 17556.478516
408.696655 69563.03125
408.704498 137690.625
408.712311 200624.890625
408.720154 183610.953125
408.727997 113247.992188
408.73584 48852.429688
408.743652 13032.037109
408.751495 2165.067383
408.759338 133.192947
409.143585 1398.773315
409.151428 13779.936523
409.159271 13603.422852
409.167114 15389.549805
409.174957 37000.738281
409.182831 150122.5
409.190674 476392.4375
409.198517 855630.4375
409.20636 1169180.375
409.214203 992267.9375
409.222076 608907.75
409.229919 241072.390625
409.237762 64056.617188
409.245605 12191.858398
409.253448 789.961609
409.669861 681.692749
409.677704 13338.600586
409.685577 64443.589844
409.693451 172567.59375
409.701294 293810.84375
409.709167 360222.53125
409.717041 279610.84375
409.724884 160521.421875
409.732758 58116.414062
409.740631 11883.123047
409.748474 252.757568
410.18927 16.405405
410.197144 7542.010742
410.205017 32256.867188
410.212891 127397.523438
410.220764 286428.96875
410.228638 456266.5625
410.236542 477076.75
410.244415 318807.0625
410.252289 159948.578125
410.260162 45929.949219
410.268036 10681.719727
410.27594 822.573059
410.701782 3975.421387
410.709656 25921.669922
410.71756 70259.804688
410.725433 129184.320312
410.733337 162113.828125
410.741241 121208.648438
410.749115 71741.882812
410.757019 25505.660156
410.764923 3461.17334
410.772797 38.296555
415.205414 3155.131836
415.21344 9117.635742
415.221466 15469.03125
415.229462 18439.386719
415.237488 15432.682617
415.245514 8377.492188
415.25354 4474.212891
415.261566 315.407715
415.711273 2813.468506
415.719299 4975.04541
415.727356 6073.48584
415.735382 5202.27832
415.743439 3018.64624
415.751465 117.721611
416.185852 11443.858398
416.193909 53010.421875
416.201965 110245.398438
416.210022 169449.109375
416.218079 173248.375
416.226105 118198.6875
416.234161 56334.421875
416.242218 14331.998047
416.250275 438.93219
416.693512 1907.686035
416.701599 9670.535156
416.709656 17268.884766
416.717712 20397.917969
416.725769 16722.972656
416.733856 8879.416016
416.741913 297.7677
423.353729 6055.428711
423.361969 12667.714844
423.370239 17091.898438
423.37851 18349.861328
423.386749 17495.767578
423.39502 19247.964844
423.40329 21338.121094
423.41153 26656.119141
423.4198 24461.052734
423.42807 16868.697266
423.43631 7657.595703
423.44458 392.888336
424.189178 366.707367
424.197449 10984.149414
424.20575 50087.625
424.21402 149407.859375
424.222321 257880.9375
424.230591 327552.09375
424.238892 256495.859375
424.247162 144411.171875
424.255463 50044.667969
424.263733 9853.293945
424.272034 2459.088379
424.694946 12.614563
424.703247 4116.459473
424.711548 36464.921875
424.719849 80319.609375
424.728149 120634.460938
424.73645 118297.820312
424.744751 78893.804688
424.753052 37105.402344
424.761353 9368.793945
424.769653 870.020203
428.731842 1339.231445
428.740265 2418.845459
428.748688 3024.296875
428.757111 2759.553955
428.765533 1781.835083
428.773956 711.17511
429.203613 2041.69043
429.212067 18071.169922
429.22049 68925.429688
429.228912 141125.046875
429.237366 222430.390625
429.245789 216212.21875
429.254211 135252.453125
429.262634 62569.234375
429.271088 15949.154297
429.27951 1621.4021
429.709961 31.941814
429.718414 11483.210938
429.726837 31764.824219
429.735291 53343.8125
429.743744 74512.265625
429.752197 47003.398438
429.760651 23126.769531
429.769073 6813.580566
429.777527 106.694649
437.179565 97.29274
437.188232 2916.782715
437.196899 5154.35498
437.205566 6200.100586
437.214233 5315.631348
437.2229 3423.601074
442.70932 184.181488
442.71817 7235.305664
442.72699 21805.746094
442.73584 39366.144531
442.744659 48841.871094
442.75351 40374.007812
442.762329 23509.230469
442.771149 7809.568359
442.779999 1237.705322
443.195526 1221.033936
443.204376 9827.324219
443.213196 34075.773438
443.222046 87159.867188
443.230896 149142.28125
443.239746 192736.40625
443.248596 168291.359375
443.257446 108351.671875
443.266296 45378.222656
443.275146 7851.26123
443.700226 92.932274
443.709076 1966.077026
443.717957 8275.208008
443.726807 29369.435547
443.735687 45385.691406
443.744537 48149.691406
443.753387 34558.21875
443.762268 17050.767578
443.771118 4457.876953
444.19693 143.208939
444.205811 3620.544922
444.214661 6574.768555
444.223541 7557.059082
444.232422 5724.504395
444.241302 2705.161133
451.67572 7.00102
451.684814 536.9422
451.693939 12009.274414
451.703033 48504.722656
451.712128 85403.164062
451.721252 286398.96875
451.730347 939520.0
451.739441 1827197.125
451.748566 2686691.75
451.75766 2520340.75
451.766754 1583589.625
451.775879 722271.4375
451.784973 202470.046875
451.794067 67400.171875
451.803192 41230.152344
451.812286 21881.376953
451.821381 13436.677734
451.830505 275.381287
451.8396 16.261625
452.185883 16.457211
452.195007 1011.628052
452.204102 9466.678711
452.213226 28931.226562
452.222351 111010.84375
452.231476 366442.46875
452.240601 717688.1875
452.249695 1053218.375
452.25882 990731.9375
452.267944 621843.875
452.277069 285273.96875
452.286194 80296.851562
452.295319 23700.970703
452.304443 11256.820312
452.313538 3606.536377
452.322662 139.116516
456.696075 3604.619385
456.705322 16206.966797
456.714569 65001.359375
456.723816 202977.921875
456.733093 372814.8125
456.74234 513431.09375
456.751587 444413.65625
456.760864 269334.3125
456.770111 106908.125
456.779358 25547.535156
456.788635 2053.275391
456.797882 168.07692
457.196198 87.192154
457.205475 6228.752441
457.214752 29372.357422
457.22403 91368.851562
457.233276 170604.1875
457.242554 234660.375
457.251831 201320.3125
457.261108 121381.554688
457.270386 44470.359375
457.279633 9871.821289
465.21637 405.869019
465.225891 6862.424316
465.235413 16574.710938
465.244934 29422.376953
465.254425 34895.515625
465.263947 28364.625
465.273468 15869.728516
465.28299 4505.220215
465.663879 238.073547
465.673401 5332.596191
465.682953 49717.992188
465.692474 282151.625
465.701996 420461.78125
465.711517 1273135.25
465.721069 4415439.5
465.730591 12219250.0
465.740112 20404580.0
465.749634 25633286.0
465.759186 19817910.0
465.768707 11446852.0
465.778229 3918703.25
465.787781 1091057.25
465.797302 368233.125
465.806824 258115.0
465.816376 23593.761719
465.825897 1745.06604
466.15976 1281.839478
466.169281 15630.414062
466.178833 54207.628906
466.188385 122812.117188
466.197906 219604.8125
466.207458 315269.21875
466.21701 998686.875
466.226562 3181147.25
466.236115 6539191.0
466.245636 9835780.0
466.255188 9929332.0
466.26474 6491551.5
466.274292 3215910.25
466.283844 942334.0625
466.293396 300046.125
466.302917 205646.796875
466.312469 131213.1875
466.322021 42879.457031
466.331573 9361.832031
466.704193 179.5522
466.713745 2399.067139
466.723328 11557.266602
466.73288 31012.910156
466.742432 51365.734375
466.752014 60579.917969
466.761566 47082.46875
466.771118 26186.310547
466.780701 5453.056152
466.790253 197.022354
486.225128 135.017654
486.235291 2261.742188
486.245483 11309.106445
486.255646 18509.935547
486.265808 21121.943359
486.27597 16636.175781
486.286133 8095.901367
489.186798 425.035675
489.197052 3079.482422
489.207336 6411.396973
489.21759 9233.077148
489.227844 9862.81543
489.238098 8124.728027
489.248352 5118.544922
489.258636 2173.058105
493.212585 400.638977
493.222961 3289.10376
493.233368 10060.962891
493.243744 19098.933594
493.25415 25294.355469
493.264526 20834.699219
493.274902 11630.734375
493.285309 4080.981934
498.468079 842.778564
498.478607 6114.435059
498.489166 10622.854492
498.499725 12810.994141
498.510284 10806.020508
498.520844 5648.940918
498.763672 178.555496
498.774231 1245.64502
498.78479 1885.413818
498.795349 2110.907715
498.805939 1804.341064
498.816498 1083.653931
516.202271 1780.81958
516.213379 10753.68457
516.224487 17984.023438
516.235657 20137.201172
516.246765 15983.361328
516.257874 8060.115723
533.214783 556.381226
533.226501 5962.234863
533.238159 21761.859375
533.249817 36121.554688
533.261536 43118.273438
533.273193 34828.367188
533.284851 19179.722656
533.29657 5598.007812
533.308228 30.370653
535.05249 458.546906
535.06427 2591.629639
535.075989 4419.767578
535.087708 5444.813965
535.099487 4906.907715
535.111206 2796.615967
535.240356 914.191284
535.252075 3894.490967
535.263794 5533.487793
535.275574 6042.26709
535.287292 4750.782715
535.299072 2173.86084
543.422913 272.747314
543.434937 1341.504883
543.44696 2289.310547
543.458984 2759.047607
543.471008 2439.87915
543.482971 1578.794678
543.494995 639.018921
545.217102 778.488403
545.229187 5330.564941
545.241272 14706.118164
545.253357 20902.707031
545.265442 20908.220703
545.277466 14587.424805
545.289551 6062.759766
547.238647 1339.49231
547.250793 6741.020508
547.262939 11214.515625
547.275085 12766.463867
547.287231 10505.945312
547.299377 5572.330078
550.224792 936.194092
550.237 10654.863281
550.249268 50073.472656
550.261475 140006.90625
550.273743 251670.859375
550.28595 332415.03125
550.298218 280188.84375
550.310425 160562.109375
550.322693 60157.183594
550.334961 10366.832031
550.347168 697.356201
551.241943 787.677124
551.254211 6271.328613
551.266479 19857.398438
551.278748 34123.640625
551.291016 40526.953125
551.303284 33063.914062
551.315613 19369.439453
551.327881 6665.742188
552.951721 347.103058
552.96405 2762.27832
552.976379 8382.354492
552.988708 13772.950195
553.001038 15747.037109
553.013367 14610.867188
553.025696 15846.414062
553.038025 14835.71875
553.050354 12288.082031
553.062683 8830.351562
553.075012 3931.698242
557.741699 278.114685
557.75415 1208.806763
557.766663 1926.477539
557.779175 2164.76001
557.791626 1803.199585
557.804138 1079.49939
557.81665 282.672272
562.227417 2392.356934
562.240051 21921.433594
562.252686 69753.992188
562.26532 168654.890625
562.277954 275909.5
562.290588 334899.40625
562.303284 259612.265625
562.315918 145835.8125
562.328552 43749.027344
562.341187 4559.09668
563.240051 1103.330444
563.252686 10259.875977
563.265381 32312.623047
563.278076 50893.890625
563.29071 58499.835938
563.303406 47267.542969
563.316101 25791.947266
563.328735 7401.199707
570.237732 1162.394897
570.25061 5191.17627
570.26355 11340.276367
570.276428 14891.411133
570.289368 11464.31543
570.302307 7601.094238
570.315186 3311.240967
570.328125 714.785156
573.935486 370.874146
573.948486 1366.345093
573.961548 1911.619629
573.974609 2008.202271
573.98761 1596.365112
574.000671 764.273621
579.25238 1124.56665
579.265564 12470.855469
579.278809 51292.917969
579.292053 114177.578125
579.305237 166242.390625
579.318481 163606.28125
579.331665 110099.03125
579.34491 51201.332031
579.358154 11690.768555
579.371338 2090.277832
580.271606 1217.043823
580.284851 5528.905273
580.298096 11772.652344
580.31134 16210.5625
580.324585 13370.027344
580.337891 6052.954102
580.351135 2110.891846
590.246155 1099.959961
590.259766 3620.320557
590.273376 5326.297363
590.286987 5678.383301
590.300537 4228.501465
590.314148 1694.098755
599.226379 1096.614868
599.240295 3700.51123
599.254211 5655.511719
599.268127 5832.404297
599.282043 4031.095215
599.295959 1472.977417
607.020996 923.697205
607.035217 3140.831787
607.049377 4598.27002
607.063599 4994.17334
607.077759 3975.986572
607.091919 1800.63562
607.262146 773.818115
607.276367 3533.561035
607.290527 7096.293457
607.304749 8604.861328
607.318909 7305.258301
607.33313 3887.209473
607.34729 858.720337
628.25238 1308.926025
628.267334 7931.19873
628.282288 17518.453125
628.29718 22516.798828
628.312134 22328.625
628.327087 16684.990234
628.34198 6794.898438
635.268738 877.842407
635.283936 2854.825439
635.299072 4706.41748
635.31427 5414.864258
635.329468 4535.145508
635.344666 1918.170166
638.438477 995.437805
638.453796 4944.859863
638.469055 14053.84082
638.484375 28751.732422
638.499695 42108.71875
638.514954 43835.507812
638.530273 34534.121094
638.545593 20758.806641
638.560852 8544.392578
638.576172 2916.741211
644.290955 2736.048584
644.306458 8360.959961
644.32196 12469.813477
644.337463 12792.610352
644.352966 8853.77832
644.368469 3346.923828
645.268982 1357.351562
645.284546 5380.954102
645.30011 10947.65625
645.315613 17885.830078
645.331177 17930.042969
645.346741 10752.962891
645.362244 4964.755859
645.377808 1260.537964
649.281982 3181.08374
649.297668 16165.966797
649.313354 51141.464844
649.329041 112583.101562
649.344727 173407.375
649.360413 185658.734375
649.376099 129792.09375
649.391785 63542.257812
649.407532 16927.710938
649.423218 933.184753
650.302856 1565.892334
650.318604 9724.441406
650.334351 22057.337891
650.350037 29838.742188
650.365784 30015.642578
650.381531 22758.496094
650.397217 11686.233398
650.412964 2920.791992
655.252747 1853.945068
655.268616 6128.206543
655.284546 10745.345703
655.300415 13561.754883
655.316345 12766.765625
655.332275 8763.142578
655.348145 3073.145996
656.239929 1690.353394
656.255859 6739.024414
656.27179 14272.133789
656.28772 20120.443359
656.30365 16573.115234
656.319641 8703.125
656.335571 3795.54834
656.351501 751.793823
657.277283 903.103882
657.293213 2535.976807
657.309204 3492.974609
657.325195 3322.381836
657.341187 2205.353271
657.357178 728.368713
661.273987 601.67981
661.2901 6168.032227
661.306213 35188.058594
661.322327 92516.15625
661.33844 158808.109375
661.354614 189974.984375
661.370728 154256.96875
661.386841 87938.539062
661.402954 34388.871094
661.419067 7210.644531
661.435242 537.834839
662.307129 8643.745117
662.323242 25902.421875
662.339417 41099.875
662.355591 48416.863281
662.371765 43605.65625
662.387939 29712.953125
662.404114 11522.026367
662.420227 964.706238
672.293579 1944.588257
672.31012 5485.282715
672.326599 8023.170898
672.34314 7961.643066
672.35968 5412.534668
672.376221 1826.829834
673.236694 1561.028809
673.253296 16833.083984
673.269836 70739.921875
673.286377 165653.359375
673.302979 276376.96875
673.319519 318561.8125
673.336121 246713.25
673.352661 134459.375
673.369202 49824.199219
673.385803 10588.844727
673.402344 896.665222
674.264832 4786.166992
674.281433 19022.326172
674.298035 43263.4375
674.314636 65556.984375
674.331238 64096.359375
674.347839 40636.089844
674.364441 17814.423828
674.381042 4963.351562
678.300415 2728.665527
678.3172 15526.989258
678.333923 61391.261719
678.350708 151862.546875
678.367432 252342.515625
678.384216 290753.0
678.40094 223390.59375
678.417725 118301.382812
678.434448 39119.15625
678.451233 5694.623047
679.323364 2410.842773
679.340149 14108.038086
679.356995 31902.408203
679.373779 45220.144531
679.390564 44549.460938
679.407349 30698.736328
679.424133 13378.976562
679.440918 2534.206299
688.309631 4430.546875
688.326721 13629.966797
688.343872 23473.226562
688.360962 27668.160156
688.378113 21030.4375
688.395203 8788.567383
688.412354 1424.027832
689.303833 1674.409546
689.320984 4594.963379
689.338135 7310.705566
689.355286 8747.59668
689.372437 7888.930664
689.389648 5231.720703
689.406799 1719.119873
690.214172 750.25
690.231384 3684.013916
690.248596 10548.423828
690.265808 31119.814453
690.282959 118742.335938
690.300171 398130.75
690.317383 821385.3125
690.334595 1215423.375
690.351746 1227776.375
690.368958 858206.25
690.386169 421991.71875
690.403381 135963.78125
690.420593 31344.785156
690.437805 4990.57959
691.212524 2107.003906
691.229797 4115.477539
691.247009 4251.432617
691.264221 6111.487305
691.281494 20941.833984
691.298706 83537.773438
691.315918 199314.859375
691.333191 330521.8125
691.350403 381718.71875
691.367676 296121.625
691.384888 159151.171875
691.4021 55258.582031
691.419373 7224.165039
691.436584 876.218994
700.260742 1074.499146
700.27832 3757.915771
700.295898 8456.570312
700.313477 13082.019531
700.331055 14744.0625
700.348633 12475.15332
700.366211 7548.216309
700.383789 3122.370605
700.401367 825.127441
701.228149 720.866882
701.245789 7791.402344
701.263367 48778.496094
701.281006 117637.976562
701.298584 188602.09375
701.316223 210706.703125
701.333801 157889.296875
701.35144 85151.515625
701.369019 28372.283203
701.386658 3846.889648
701.404236 571.468262
702.250488 1934.366333
702.268127 12266.495117
702.285767 29108.476562
702.303406 47090.480469
702.321106 52890.640625
702.338745 42169.550781
702.356384 25086.363281
702.374023 11000.424805
702.391663 2715.964844
717.274536 891.694092
717.292725 12029.598633
717.310974 38334.984375
717.329163 77588.6875
717.347412 118402.84375
717.365601 109439.859375
717.38385 67127.671875
717.402039 31499.595703
717.420288 6978.541016
718.222656 2666.787354
718.240906 11336.44043
718.259155 43669.617188
718.277405 164067.4375
718.295654 490239.90625
718.313904 951936.8125
718.332153 1330435.0
718.350464 1263070.375
718.368713 842651.125
718.386963 393163.78125
718.405212 116868.90625
718.423462 26441.542969
718.441711 3638.074463
719.24585 1476.329102
719.264099 12997.167969
719.28241 60088.910156
719.30072 170344.578125
719.31897 322142.09375
719.33728 432704.4375
719.355591 393738.96875
719.37384 248025.1875
719.392151 107048.320312
719.410461 25851.103516
719.428772 3521.268066
720.362854 3218.208984
720.381165 7895.22168
720.399475 10425.826172
720.417847 9758.223633
720.436157 6542.293457
720.454468 2162.880859
727.305786 1801.722412
727.324402 4292.278809
727.342957 6100.519531
727.361572 6651.80957
727.380188 5711.020508
727.398804 3772.557373
727.417358 1264.619873
734.292969 4556.400391
734.311829 17686.728516
734.330688 51376.347656
734.349609 97785.367188
734.368469 126919.5
734.387329 110569.414062
734.406189 66553.75
734.425049 24650.722656
734.443909 3239.188232
735.312866 891.819946
735.331787 3109.238281
735.350708 5713.30127
735.369568 7112.102051
735.388489 6499.178223
735.40741 4493.464355
735.426331 1296.42334
744.337891 1840.722534
744.357178 5759.744141
744.376404 9798.923828
744.395691 11523.174805
744.414917 9953.300781
744.434204 6273.238281
744.45343 1684.234131
747.331543 2516.411621
747.350891 5264.82959
747.370239 6490.389648
747.389648 5827.405762
747.408997 3829.210205
747.428406 1024.234131
748.320496 1471.579956
748.339905 9296.679688
748.359314 21521.261719
748.378723 31335.482422
748.398132 30085.404297
748.417542 18195.980469
748.436951 6397.500488
748.45636 929.4729
749.350281 625.002197
749.369751 1532.68811
749.389221 2132.888916
749.40863 2087.940186
749.428101 1439.26709
749.447571 413.656494
754.315247 1009.461365
754.3349 2151.577881
754.354553 2745.579346
754.374207 2669.744141
754.39386 1914.089966
754.413513 841.880127
755.298401 948.5802
755.318115 3289.353027
755.337769 5973.69873
755.357483 7227.047852
755.377136 6318.131348
755.396851 4126.526367
755.416504 1079.61377
761.377441 1903.658447
761.397339 3825.097412
761.417236 4756.31543
761.437195 4356.857422
761.457092 2691.897949
761.477051 648.184692
762.374451 1400.779541
762.394409 3437.919434
762.414368 5034.602051
762.434326 5626.503906
762.454285 5140.54248
762.474243 3847.716064
762.494202 1060.496582
771.334778 1099.924927
771.355042 3503.530029
771.375366 6258.879395
771.395691 7673.680176
771.416016 6651.15332
771.43634 3892.830078
771.456665 651.586304
772.310669 7493.80127
772.331055 35649.832031
772.351379 80067.210938
772.371765 127744.664062
772.39209 139174.53125
772.412476 102543.164062
772.4328 52677.8125
772.453186 18139.589844
772.473511 2800.77832
773.329285 2865.741211
773.34967 17351.017578
773.370056 37381.515625
773.390442 47032.394531
773.410828 40198.570312
773.431213 26476.019531
773.451599 10283.242188
773.472046 1773.640625
774.390686 3703.880859
774.411133 7863.425781
774.43158 9885.894531
774.452026 8769.944336
774.472473 5349.927734
774.49292 1285.561157
786.316895 1108.073486
786.337769 7197.592773
786.358704 17047.107422
786.379578 29636.857422
786.400513 34988.253906
786.421448 27192.107422
786.442322 15750.933594
786.463257 3731.769043
787.342346 1266.664917
787.363281 8716.774414
787.384216 23335.958984
787.405212 41416.523438
787.426147 50787.074219
787.447083 41291.953125
787.468079 24683.185547
787.489014 8701.298828
787.509949 1125.099243
788.369812 1027.855835
788.390808 3596.508789
788.411804 6672.30127
788.4328 8086.431641
788.453796 6623.259766
788.474792 3506.651123
788.495789 877.27533
789.252136 664.584778
789.273132 14230.632812
789.294189 32855.1875
789.315186 64523.644531
789.336243 197000.75
789.357239 642985.3125
789.378296 1335648.125
789.399292 2051379.125
789.420349 2139423.75
789.441345 1539108.5
789.462402 783505.8125
789.483459 268797.4375
789.504456 69226.539062
789.525513 26813.535156
789.546509 14019.021484
789.567566 4949.448242
789.588623 1150.550049
789.609619 96.867661
790.283325 2163.73584
790.304382 5365.335449
790.325439 24530.828125
790.346497 108254.859375
790.367615 313830.0
790.388672 570602.8125
790.409729 749869.875
790.430786 646535.5
790.451904 406551.59375
790.472961 170649.625
790.494019 47739.085938
790.515076 9949.566406
790.536194 1259.583862
791.401001 3211.240723
791.422119 13444.178711
791.443237 23166.333984
791.464355 26382.328125
791.485413 21525.529297
791.506531 12232.546875
791.527649 2728.512207
797.622803 1686.036011
797.644165 4152.740234
797.665527 6354.057617
797.68689 6923.976562
797.708252 5374.76123
797.729614 2799.95166
797.750977 626.099243
799.312927 1373.178101
799.334351 4187.449219
799.355774 11784.019531
799.377197 22082.294922
799.398682 28054.027344
799.420105 22846.726562
799.441528 13246.582031
799.462952 4694.825684
799.484375 602.908997
800.320984 9837.342773
800.342468 29085.609375
800.363953 48926.441406
800.385376 58806.011719
800.40686 49871.347656
800.428345 30321.339844
800.449829 10826.144531
800.471313 1768.128052
803.313477 595.190735
803.335083 9225.632812
803.356628 46594.707031
803.378235 146429.78125
803.399841 281549.34375
803.421448 389911.5
803.442993 359219.78125
803.4646 233745.03125
803.486206 101702.8125
803.507812 26196.330078
803.529419 2904.009766
804.350769 6618.398438
804.372375 22412.048828
804.393982 50455.203125
804.415649 81498.21875
804.437256 87563.351562
804.458923 62928.398438
804.48053 29641.560547
804.502197 9490.987305
804.523804 1547.366089
814.349915 1591.695068
814.371948 3169.905273
814.393982 3851.494141
814.416016 3336.167725
814.438049 1954.869263
814.460083 536.616943
817.244202 5585.216797
817.266357 20008.707031
817.288513 33515.640625
817.310669 84948.546875
817.332825 294505.8125
817.35498 905967.8125
817.377136 1716596.5
817.399353 2400893.5
817.421509 2214919.5
817.443665 1460273.625
817.46582 651385.0625
817.487976 192008.234375
817.510132 45118.089844
817.532288 12788.792969
817.554443 2390.193115
818.286438 9563.744141
818.308594 23359.466797
818.330811 73951.007812
818.353027 244582.28125
818.375183 504562.8125
818.3974 768104.0625
818.419617 783728.6875
818.441833 551508.8125
818.463989 270334.8125
818.486206 86730.734375
818.508423 19439.664062
818.53064 2579.487793
819.397339 1561.640625
819.419556 3869.491699
819.441772 5916.115723
819.46405 6401.149414
819.486267 4840.928223
819.508545 1306.264771
831.22229 339.714661
831.245056 3946.71875
831.267761 9825.606445
831.290466 19981.619141
831.313232 33868.460938
831.335938 93743.171875
831.358643 319442.09375
831.381409 715752.625
831.404114 1178765.25
831.42688 1331886.5
831.449585 1005478.5625
831.472351 548602.875
831.495056 198917.140625
831.517822 48898.511719
831.540527 16632.410156
831.563293 7020.584961
831.585999 1006.139465
832.314148 2197.154785
832.336914 17429.876953
832.35968 78700.195312
832.382446 198988.703125
832.405212 348158.03125
832.427979 410670.40625
832.450745 316721.1875
832.473511 175279.3125
832.496277 62343.597656
832.519104 14706.714844
832.54187 1419.318237
847.336792 2514.908691
847.360168 11468.321289
847.383545 59469.773438
847.406921 156075.140625
847.430298 268131.8125
847.453735 319127.3125
847.477112 241563.15625
847.500488 134802.640625
847.523926 46998.207031
847.547302 11137.500977
847.570679 1316.235352
848.36676 2227.378906
848.390198 23491.611328
848.413635 60284.488281
848.437073 104124.882812
848.46051 120224.265625
848.483948 89305.515625
848.507385 45632.371094
848.530823 14269.50293
848.55426 1708.981445
894.522278 5505.719727
894.547668 10220.197266
894.572998 12281.827148
894.598389 10695.337891
894.623779 6678.174805
894.649109 1046.722168
END IONS
