BEGIN IONS
PEPMASS=933.201
CHARGE=1
MSLEVEL=2
SOURCE_INSTRUMENT=LC-ESI-qTof
FILENAME=f.negarg/Vinayak/CoASynthesis/Lauren_CoA_RA4_01_4540.mzXML;
SEQ=*..*
IONMODE=Positive
ORGANISM=GNPS-LIBRARY
NAME=salinamidoyl CoA M+H
PI=Bradley S Moore
DATACOLLECTOR=Neha Garg
SMILES=O=C(SCCNC(CCNC(C(C(C)(C)COP(OP(OCC1C(OP(O)(O)=O)C(O)C(N2C(N=CN=C3N)=C3N=C2)O1)(O)=O)(O)=O)O)=O)=O)CNC(/C=C/C(C)=C/C)=O
INCHI=InChI=1S/C30H47N8O18P3S/c1-5-17(2)6-7-19(39)34-12-21(41)60-11-10-32-20(40)8-9-33-28(44)25(43)30(3,4)14-53-59(50,51)56-58(48,49)52-13-18-24(55-57(45,46)47)23(42)29(54-18)38-16-37-22-26(31)35-15-36-27(22)38/h5-7,15-16,18,23-25,29,42-43H,8-14H2,1-4H3,(H,32,40)(H,33,44)(H,34,39)(H,48,49)(H,50,51)(H2,31,35,36)(H2,45,46,47)/b7-6+,17-5+
INCHIAUX=
PUBMED=
SUBMITUSER=negarg
TAGS=
LIBRARYQUALITY=3
SPECTRUMID=CCMSLIB00000478642
SCANS=1062
98.060028 420.0
99.053764 416.0
109.064651 7912.0
110.069504 812.0
114.037552 6328.0
115.039131 660.0
116.032539 636.0
130.087662 356.0
132.047897 660.0
136.062195 17100.0
137.064316 1028.0
138.091248 1940.0
142.086731 912.0
143.08345 2236.0
149.071472 392.0
157.034454 428.0
158.039017 468.0
159.058975 57948.0
160.061691 4988.0
161.055618 2104.0
162.055618 456.0
166.086487 27676.0
167.089569 3012.0
174.056381 380.0
175.049591 352.0
180.100922 388.0
182.064774 1208.0
184.096069 5328.0
185.099884 744.0
187.107666 508.0
216.078186 1920.0
225.106628 1740.0
227.137619 716.0
228.055573 416.0
243.115723 1888.0
255.077866 1312.0
256.086609 424.0
261.126892 18904.0
262.129547 2888.0
263.124298 744.0
264.061951 996.0
296.143402 1208.0
297.148895 356.0
300.141937 468.0
306.123169 524.0
312.045959 1584.0
314.150665 1380.0
315.150299 344.0
318.147034 5580.0
319.147552 596.0
320.146729 416.0
324.137848 63472.0
325.138916 11244.0
326.13501 2596.0
327.141327 672.0
328.15213 420.0
330.060425 12304.0
331.060608 2000.0
341.092621 14268.0
342.094604 1848.0
343.092957 844.0
348.068787 716.0
357.146301 1388.0
394.173187 356.0
398.114288 356.0
408.196167 3244.0
409.196289 1036.0
410.025513 1648.0
410.209045 1344.0
416.132385 468.0
422.427826 520.0
424.363953 488.0
425.098511 420.0
426.065033 604.0
426.20755 401268.0
426.333954 472.0
426.553406 416.0
426.631378 360.0
426.681732 724.0
426.740265 380.0
426.884979 1432.0
426.943604 524.0
427.209564 78692.0
428.036865 43360.0
428.206696 25912.0
429.040558 8192.0
429.207703 3900.0
429.747437 388.0
429.852417 684.0
429.904663 400.0
429.99173 512.0
430.039001 2072.0
430.204651 560.0
430.973694 380.0
437.110504 1636.0
438.113281 424.0
506.171661 9580.0
507.173523 2880.0
508.00174 2600.0
508.169464 876.0
508.999786 772.0
512.083252 376.0
522.228882 1504.0
523.237305 716.0
524.18103 3108.0
525.18988 1260.0
535.091492 392.0
592.055725 1944.0
593.072632 504.0
602.205078 512.0
604.152954 460.0
768.121704 836.0
798.132935 944.0
799.1297 408.0
825.132019 356.0
915.165649 380.0
933.202393 26388.0
934.206116 8600.0
935.205505 3640.0
936.198181 756.0
937.21405 608.0
END IONS
