BEGIN IONS
PEPMASS=795.478
CHARGE=1
MSLEVEL=2
SOURCE_INSTRUMENT=LC-ESI-qTof
FILENAME=f.MSV000081750/peak/data_mzxml/Samples/G79635_1x_RH8_01_18958.mzXML;
SEQ=*..*
IONMODE=Positive
ORGANISM=GNPS-LIBRARY
NAME=Dereplicator Identification - Citrusin_VI_Citrusin_VI M+H
PI=Dorrestein
DATACOLLECTOR=gauglitz
SMILES=CC(C)CC1C(=O)NC(CC(C)C)C(=O)NC(CC(C)C)C(=O)N2CCCC2C(=O)N2CCCC2C(=O)NC(Cc2ccccc2)C(=O)NCC(=O)NCC(=O)N1
INCHI=
INCHIAUX=
PUBMED=
SUBMITUSER=Francesca90
TAGS=
LIBRARYQUALITY=3
SPECTRUMID=CCMSLIB00004678627
SCANS=1349
70.066086 444.0
86.096992 482.0
98.06057 409.0
115.085945 240.0
120.080681 2382.0
121.084396 146.0
126.054703 1943.0
127.061539 140.0
135.119431 81.0
138.12767 2459.0
139.132507 270.0
143.109695 84.0
144.103043 118.0
151.122131 91.0
154.158829 239.0
155.08226 168.0
167.118622 1356.0
167.153397 77.0
168.122437 132.0
171.114273 314.0
183.148972 1569.0
183.184814 384.0
184.154938 85.0
195.112595 2003.0
196.116302 170.0
199.182404 443.0
200.141449 267.0
203.034897 193.0
205.096054 160.0
211.143097 1988.0
212.10849 297.0
212.14035 1697.0
213.103729 82.0
213.139618 197.0
217.133972 1651.0
218.137115 291.0
219.185806 247.0
227.176361 1130.0
228.135422 1304.0
228.176926 152.0
229.141281 164.0
239.178864 124.0
245.128784 1409.0
246.129318 221.0
251.21228 935.0
252.140549 184.0
252.218475 136.0
255.11171 101.0
256.204224 88.0
261.110687 76.0
262.119812 1249.0
263.123413 104.0
267.171356 83.0
267.239319 104.0
268.16333 180.0
273.122009 77.0
279.207397 626.0
280.208588 102.0
284.196869 1232.0
285.198395 331.0
295.239777 252.0
296.193909 201.0
296.235901 80.0
297.201019 111.0
302.149414 2070.0
303.157104 275.0
307.20108 1715.0
308.198914 616.0
309.156586 220.0
309.203949 272.0
313.224396 805.0
314.186768 1663.0
315.188385 401.0
319.179169 107.0
323.230469 311.0
324.229248 513.0
325.18927 534.0
325.229309 207.0
330.143768 139.0
330.181366 463.0
331.123047 80.0
331.178864 611.0
337.138824 80.0
340.259186 156.0
341.217438 3175.0
342.181854 11028.0
343.185303 2618.0
344.184113 316.0
347.209076 1207.0
348.208923 434.0
352.22583 219.0
353.255707 120.0
357.101135 163.0
357.190033 161.0
358.212921 206.0
359.17218 4976.0
360.176636 1358.0
361.193085 117.0
369.167175 85.0
369.224518 83.0
371.211151 404.0
373.127167 1183.0
374.131195 675.0
375.132812 592.0
375.203491 1390.0
376.199463 572.0
377.202057 111.0
381.251221 227.0
382.253967 226.0
383.261719 81.0
385.192169 214.0
386.186859 99.0
387.167145 445.0
388.170319 119.0
392.282288 86.0
395.113068 453.0
397.282257 438.0
399.142487 154.0
399.203217 6607.0
400.204437 1651.0
401.208832 232.0
409.27887 149.0
409.319092 153.0
410.246094 241.0
410.314301 92.0
411.249023 89.0
412.2164 88.0
415.23526 179.0
415.271423 193.0
416.231049 489.0
416.270752 92.0
417.213928 745.0
417.718445 268.0
418.226013 85.0
419.209229 327.0
419.717224 86.0
420.283813 188.0
421.271301 167.0
422.239227 102.0
422.286774 85.0
425.200287 171.0
426.210449 120.0
426.305237 836.0
427.267822 505.0
428.229492 1507.0
429.234436 300.0
430.237152 101.0
437.311859 159.0
438.220093 97.0
438.279236 428.0
439.221802 76.0
439.276611 139.0
440.225647 173.0
441.230255 109.0
443.264038 1153.0
444.261993 6395.0
445.266724 1508.0
446.27243 317.0
454.205566 96.0
454.254852 169.0
454.302063 1697.0
455.265778 622.0
455.306183 440.0
456.22464 10164.0
457.226288 2613.0
458.235748 437.0
460.29306 640.0
461.293488 178.0
462.300629 89.0
466.339813 163.0
467.269012 206.0
470.277283 130.0
471.270721 165.0
472.255615 8715.0
473.25473 4772.0
474.258301 1107.0
475.258911 102.0
482.241241 119.0
484.292053 170.0
488.289978 790.0
489.292877 218.0
494.33548 381.0
495.337982 147.0
498.267487 241.0
499.269531 89.0
500.247467 122.0
512.288452 574.0
516.286194 100.0
523.328308 239.0
524.268005 148.0
525.303162 152.0
535.31897 157.0
539.299438 88.0
540.318176 244.0
541.169189 159.0
541.312866 19073.0
542.317017 6562.0
543.318542 1464.0
544.323669 187.0
551.297363 298.0
551.355957 449.0
552.303101 142.0
552.353638 177.0
553.312073 518.0
554.315186 137.0
556.350708 266.0
557.345215 3763.0
558.346008 1523.0
559.34668 226.0
567.322571 149.0
568.327087 909.0
569.308411 31929.0
570.124084 99.0
570.310547 10939.0
571.214844 130.0
571.312744 2278.0
572.32019 302.0
573.370544 228.0
578.161316 131.0
579.301514 138.0
580.281738 80.0
580.348938 158.0
584.350098 216.0
585.193481 134.0
585.340149 7085.0
586.34137 2242.0
587.347107 765.0
601.37915 137.0
609.37323 135.0
610.369873 80.0
611.352356 104.0
613.351135 90.0
625.37677 199.0
626.376587 105.0
636.399536 91.0
637.37262 418.0
638.396973 627.0
639.408264 171.0
640.402771 107.0
648.397705 181.0
649.413025 122.0
653.409973 155.0
654.214722 120.0
654.397461 19376.0
655.247742 77.0
655.400574 7372.0
656.4021 1496.0
657.411011 244.0
664.379822 603.0
665.386841 189.0
666.399475 822.0
667.400269 270.0
668.40625 82.0
670.428345 1652.0
671.430237 778.0
672.438904 177.0
680.413818 208.0
681.309082 99.0
681.40802 2145.0
682.392944 57543.0
682.922913 97.0
683.174133 100.0
683.395752 24465.0
684.279907 157.0
684.397461 5431.0
685.400024 1040.0
692.378967 116.0
698.323303 105.0
698.42218 3639.0
699.430481 1544.0
700.431091 383.0
722.470642 130.0
733.479675 87.0
738.462891 91.0
749.462646 143.0
750.460388 384.0
751.488525 1374.0
752.489746 615.0
753.483215 149.0
767.30603 209.0
767.481689 26269.0
767.844116 91.0
768.348145 318.0
768.485107 12738.0
768.901062 94.0
769.382324 183.0
769.485779 3057.0
770.487732 532.0
777.465881 970.0
778.468445 696.0
779.465698 191.0
792.340088 77.0
792.427551 87.0
792.765625 100.0
793.35907 90.0
794.214722 88.0
794.454773 144.0
794.647766 76.0
794.797424 84.0
795.123413 102.0
795.22998 395.0
795.476135 124149.0
795.644653 137.0
795.706787 184.0
795.813354 113.0
795.90564 137.0
795.981201 86.0
796.066956 81.0
796.111816 169.0
796.202148 174.0
796.47937 67599.0
796.804626 113.0
796.91449 82.0
797.188354 125.0
797.250793 79.0
797.325317 303.0
797.482422 15880.0
797.629089 93.0
797.932861 95.0
798.356323 99.0
798.485352 2444.0
798.654175 83.0
799.482727 192.0
800.361511 93.0
800.467957 90.0
800.758911 85.0
839.452393 88.0
849.403076 110.0
850.408447 88.0
END IONS
