BEGIN IONS
PEPMASS=637.262
CHARGE=1
MSLEVEL=2
SOURCE_INSTRUMENT=LC-ESI-Hybrid FT
FILENAME=f.lfnothias/140221_LF_015_AcOEt_ASE-cpd-8.mzXML;
SEQ=*..*
IONMODE=Positive
ORGANISM=GNPS-LIBRARY
NAME=5,6,7-triacetoxy-3-benzoyloxy-14,15-dihydroxy-9-oxojatropha-6(17),11E-diene (8) M+Na
PI=Louis-Felix NOTHIAS-SCAGLIA
DATACOLLECTOR=Louis-Felix NOTHIAS-SCAGLIA
SMILES=C=C([C@@H]1OC(C)=O)[C@H](OC(C)=O)[C@@H](OC(C)=O)C(C(C)(C)/C=C/[C@@H](C)[C@H](O)[C@]2(O)[C@]1([H])[C@@H](OC(C3=CC=CC=C3)=O)[C@@H](C)C2)=O
INCHI=InChI=1S/C33H42O11/c1-17-14-15-32(7,8)30(38)28(43-22(6)36)27(42-21(5)35)19(3)26(41-20(4)34)24-25(18(2)16-33(24,40)29(17)37)44-31(39)23-12-10-9-11-13-23/h9-15,17-18,24-29,37,40H,3,16H2,1-2,4-8H3/b15-14+/t17-,18+,24-,25?,26?,27?,28?,29+,33-/m1/s1
INCHIAUX=
PUBMED=24926807
SUBMITUSER=lfnothias
TAGS=
LIBRARYQUALITY=3
SPECTRUMID=CCMSLIB00000424725
SCANS=1
166.437042 1099.439209
166.438675 2282.383057
166.440292 3197.125488
166.44191 3096.896973
166.443542 2021.17334
174.236496 1230.611328
174.238235 2318.474121
174.239975 2701.502197
174.241714 2250.255615
174.243454 1260.390137
186.958847 1535.728027
186.960785 2305.512939
186.962708 2632.722656
186.964645 2211.675293
186.966583 1135.814941
189.086411 1551.60498
189.088364 3975.727539
189.090332 5280.933594
189.0923 4476.279785
189.094269 2200.148193
189.096237 381.349976
199.116257 1060.159668
199.118378 2313.337402
199.120499 2833.462891
199.12262 2806.0354
199.124756 2211.697998
200.587311 1653.701904
200.589462 3308.978027
200.591599 3618.341309
200.59375 2478.857666
200.595901 933.929199
201.922867 1990.671143
201.925034 2593.661621
201.9272 2911.595215
201.929367 2322.301758
201.931534 797.07373
202.983002 2160.027588
202.985184 2438.665039
202.987381 2725.721436
202.989563 2755.299072
202.991745 2281.478027
202.993927 1467.252197
209.202286 887.471924
209.204575 2360.205566
209.206863 3134.519043
209.209152 2894.953613
209.211441 2015.635498
211.108566 2493.256348
211.110886 5091.67041
211.113205 5142.515137
211.115524 2711.841064
211.117844 172.550659
213.120941 1490.150146
213.123291 3083.716797
213.125641 3941.138184
213.128006 3162.520508
213.130356 1143.922607
217.080627 1546.813232
217.083054 5046.268066
217.085464 6864.89502
217.087891 5309.464844
217.090302 1574.089844
225.121262 1518.484375
225.123825 4100.099609
225.126373 6215.553223
225.128922 5904.080078
225.131485 3398.819824
225.134033 739.078125
225.159561 1996.45459
225.162109 4270.995605
225.164673 4913.264648
225.167221 3390.279785
225.169769 1345.305908
225.231064 1386.065674
225.233627 2381.692627
225.236176 2850.876465
225.238739 2710.664795
225.241287 2012.461426
227.135895 670.619263
227.138489 2616.739502
227.141068 4790.364258
227.143661 5393.084473
227.14624 3783.628418
227.148834 1057.351318
239.173126 1599.9104
239.175919 4348.855957
239.178711 6262.22168
239.181503 5488.30957
239.184296 2820.145508
239.187103 691.862183
249.155014 2045.037598
249.15799 5289.591797
249.160965 9900.923828
249.163925 11787.330078
249.166901 8927.050781
249.169876 3527.623535
251.140244 2273.786377
251.14325 3320.942383
251.146255 3357.59082
251.149261 2688.038574
251.152267 1877.833252
253.152328 1886.241211
253.15538 4471.918945
253.158417 5814.285156
253.161469 4836.096191
253.164505 2558.82251
253.167557 685.113647
255.12709 2106.819824
255.130173 2681.234375
255.133255 3909.209473
255.136337 4965.90625
255.13942 4331.17627
255.142487 2012.685791
257.109467 595.629272
257.11261 4138.916016
257.115723 7201.12793
257.118835 7337.107422
257.121948 4511.652832
257.125061 1036.454834
257.184265 1835.000732
257.187378 3847.29834
257.190491 4233.362793
257.193634 2640.210449
257.196747 376.50354
267.165375 5824.854492
267.168671 18768.828125
267.171997 30765.59375
267.175293 32406.175781
267.178589 22138.765625
267.181885 8158.402344
271.126038 1012.068848
271.129425 2539.546143
271.132812 3304.231445
271.136169 2358.935303
271.139557 453.444092
276.11615 1744.723877
276.119598 2907.26709
276.123077 3034.072754
276.126556 2699.010986
276.130005 2562.872314
276.133484 2243.766357
277.148804 671.843872
277.152283 4286.356445
277.155792 8845.868164
277.159271 10556.913086
277.16275 7998.05957
277.16626 3444.510254
277.169739 29.004639
285.174683 4038.164062
285.178314 14760.397461
285.181946 26258.628906
285.185577 29647.714844
285.18924 21713.1875
285.192871 8618.75
291.719482 2102.820557
291.723267 2428.011963
291.72702 2329.407715
291.730774 2498.918457
291.734558 2390.41626
291.738312 1561.93457
295.157166 2008.103027
295.161011 15900.514648
295.164825 35720.222656
295.168671 47258.640625
295.172485 40831.082031
295.176331 22323.230469
295.180176 6356.787598
295.18399 1337.958252
303.188477 2576.466064
303.192474 5219.711426
303.196442 5546.585938
303.200439 3305.324707
303.204437 444.733765
312.6521 1627.438721
312.656281 2404.276123
312.660461 2604.191406
312.664642 2448.638916
312.668823 2407.477539
312.673004 2252.115723
313.162415 331.554565
313.166595 5196.603516
313.170807 20941.113281
313.174988 42945.421875
313.179169 55836.585938
313.18335 48659.386719
313.187531 27517.511719
313.191742 8316.435547
317.140839 1338.782227
317.145081 3677.319824
317.149353 5395.835449
317.153625 4821.099121
317.157898 2145.902344
320.912964 1339.293457
320.917297 2386.808838
320.921631 2871.448975
320.925995 2633.277832
320.930328 2216.783936
325.129028 258.828857
325.133453 2628.172363
325.137909 5052.588379
325.142334 5963.468262
325.146759 4695.946289
325.151184 2151.89624
331.106964 2096.817871
331.111542 3542.11377
331.116089 3937.544922
331.120636 3192.412598
331.125183 2129.787842
331.175293 621.647095
331.17984 5067.598145
331.184387 13744.676758
331.188934 20381.324219
331.193512 19107.460938
331.198059 10841.696289
331.202606 2242.766846
335.145691 871.007935
335.15033 8346.981445
335.154968 21534.015625
335.159607 32461.625
335.164246 32178.441406
335.168884 20965.140625
335.173523 8079.25293
335.178162 1103.789062
345.627625 2300.58252
345.632477 3826.3125
345.637329 4275.114258
345.642181 3886.799316
345.647034 2685.734619
345.651917 1110.029541
349.185028 524.795898
349.189972 2676.918701
349.194916 4033.195801
349.199829 3862.112305
349.204773 2099.171143
353.158508 1340.167725
353.163513 10116.709961
353.168518 19524.648438
353.173553 22182.035156
353.178558 15908.557617
353.183563 6152.452637
355.178284 695.633057
355.18335 3461.172852
355.188416 6406.057617
355.193481 6865.019043
355.198517 4577.039062
355.203583 1683.403564
357.123657 1623.978271
357.128754 3585.850098
357.13385 4301.187988
357.138947 3355.367676
357.144043 1799.131104
367.174133 1214.639404
367.179443 3983.780273
367.184753 6858.980957
367.190094 7713.59082
367.195404 6169.444824
367.200714 3794.641602
367.206024 2107.40918
372.533051 1826.208252
372.538483 2414.499756
372.543915 2686.706055
372.549347 2605.244873
372.554779 1898.144775
373.191406 2668.332764
373.196838 6052.607422
373.202301 7061.114258
373.207733 4954.88916
373.213196 1584.341309
377.156281 1275.266113
377.161804 5515.226562
377.167328 10881.833008
377.172882 12966.879883
377.178406 9686.970703
377.18396 3759.708496
385.043732 1963.580566
385.049469 2477.112793
385.055176 2655.787109
385.060883 2462.965332
385.066589 1708.57959
395.162445 13776.27832
395.168365 81073.953125
395.174316 196805.234375
395.180237 288276.625
395.186188 279995.875
395.192108 179061.546875
395.198059 66813.664062
395.203979 8659.628906
395.20993 1217.825684
413.172607 2825.364502
413.178955 18470.84375
413.185303 41954.308594
413.19165 57276.453125
413.197998 51691.902344
413.204346 30187.207031
413.210693 9607.648438
413.217041 634.828003
417.193817 1969.188965
417.200256 3363.367676
417.206696 3723.927246
417.213135 2902.599854
417.219574 1498.276855
431.682587 1158.156494
431.689392 2837.974854
431.696167 3325.206055
431.702942 2626.215576
431.709717 1839.276367
435.201385 334.956909
435.208252 2921.504639
435.215118 5161.855469
435.221954 4575.806641
435.228821 1934.73584
437.177185 1806.796143
437.184082 8696.033203
437.19101 14070.610352
437.197906 13501.5625
437.204834 7680.174805
437.211731 1498.806396
447.196655 1178.300049
447.203796 4963.532715
447.210938 6930.290527
447.218079 6528.285645
447.22522 4499.977539
447.232391 2193.658203
449.154053 2426.557373
449.161255 3143.598633
449.168457 3060.115234
449.175659 2548.130371
449.182831 1781.4729
453.129517 3364.678223
453.13681 17765.132812
453.144104 35915.421875
453.151398 45148.996094
453.158691 37798.941406
453.165985 19933.875
453.173279 4581.397461
453.180542 559.253784
453.209717 1307.210693
453.21701 5843.067383
453.224304 8280.271484
453.231598 7004.249512
453.238892 3899.240234
453.246185 1265.080078
455.104065 2066.568604
455.111389 3401.338867
455.118744 3003.464844
455.126068 4160.27002
455.133423 3496.855957
455.140747 5093.10791
455.148071 2801.416504
455.155426 3536.630371
455.16275 828.537842
455.170105 5954.269531
455.177429 23349.167969
455.184784 212004.765625
455.192108 575767.875
455.199463 904220.25
455.206787 933170.1875
455.214142 637480.5625
455.221466 260468.078125
455.228821 40047.207031
455.236145 9314.643555
455.2435 777.014893
455.250824 3729.588867
455.258179 5043.045898
455.265503 2738.456299
455.272858 4415.612305
455.280212 1985.641846
457.172791 1685.630859
457.180176 3585.120117
457.187561 6801.487305
457.194946 9544.927734
457.202332 9771.180664
457.209717 7169.369141
457.217102 3496.627441
457.224487 1151.770508
473.190613 1937.279297
473.198395 12661.087891
473.206177 26246.785156
473.213928 31316.351562
473.22171 22479.875
473.229492 7755.064453
473.237274 3248.92041
473.245056 2725.220947
473.252838 314.525635
475.18042 119.177368
475.188232 7685.213867
475.196075 23054.953125
475.203888 37522.511719
475.211731 39566.699219
475.219574 27654.179688
475.227386 11821.088867
475.235229 2201.337402
479.7612 1625.201172
479.769165 2933.290283
479.7771 3419.84375
479.785034 2720.61792
479.792969 1417.600342
489.205536 1044.103516
489.213715 4984.336914
489.221893 7787.318359
489.230072 7029.341309
489.238251 3464.098633
489.246429 281.071533
491.215057 1236.419678
491.223297 5056.074707
491.231506 9449.65918
491.239746 11158.234375
491.247955 8459.962891
491.256195 3434.240723
491.264435 64.972656
493.203857 1483.556152
493.212128 2632.733643
493.220428 3023.602539
493.228699 2503.164795
493.236969 1395.354736
495.229767 1424.756104
495.238098 2815.033691
495.246429 3090.30127
495.25473 2465.875244
495.263062 1699.373535
497.192749 2037.269043
497.201141 8277.973633
497.209503 13587.267578
497.217896 13892.96875
497.226257 9165.892578
497.23465 3563.648438
497.243011 814.47168
507.210907 959.404541
507.219543 4994.51416
507.22818 10032.206055
507.236816 11631.268555
507.245453 8587.826172
507.254059 3606.838379
507.262695 533.839478
515.185181 513.633667
515.194031 6353.001465
515.20282 56597.4375
515.21167 149805.328125
515.22052 229635.625
515.22937 230854.4375
515.23822 152537.859375
515.247009 59069.257812
515.255859 7505.862305
515.264709 1037.919922
517.17926 219.270264
517.18811 9316.367188
517.197021 74853.265625
517.205872 195466.359375
517.214783 298731.875
517.223694 300271.8125
517.232544 198548.65625
517.241455 76763.898438
517.250366 9582.161133
517.259216 2417.910156
535.190674 1817.828613
535.200012 19584.902344
535.209351 99233.0625
535.21875 216095.609375
535.228088 289397.46875
535.237427 257171.984375
535.246826 147665.53125
535.256165 46348.933594
535.265503 4868.213379
535.274902 921.351807
549.214539 9549.15918
549.224243 45641.253906
549.233948 98095.421875
549.243713 130767.15625
549.253418 116084.609375
549.263184 66659.015625
549.272888 20647.722656
549.282593 645.174805
559.211853 1350.928955
559.221863 4081.540527
559.231812 5634.248047
559.241821 4558.531738
559.251831 2340.692627
564.161255 1512.823486
564.171387 4111.838867
564.181519 6398.718262
564.19165 6008.54541
564.201782 3723.114258
564.211914 2066.51123
574.009766 1174.719971
574.020142 2602.38208
574.030518 4736.067871
574.040955 4119.671387
574.051331 615.671509
576.501709 1817.212646
576.512146 3074.834961
576.522644 3045.15332
576.533081 2618.425781
576.543579 2936.223633
576.554016 3127.320312
576.564453 3275.988281
576.574951 3165.680664
576.585388 3678.608887
576.595886 3093.748535
576.606323 3984.166992
576.616821 2714.534668
576.627258 3204.412109
576.637695 4262.229492
576.648193 4025.119629
576.65863 4444.000977
576.669128 5700.59375
576.679565 2248.666748
576.690063 3731.900391
576.7005 4088.286621
576.710999 4305.135254
576.721436 4669.992676
576.731934 5838.473145
576.742371 3085.095703
576.752869 4124.98877
576.763306 5404.657227
576.773804 6761.142578
576.784241 2902.037109
576.794739 3540.753906
576.805176 7072.874023
576.815674 7829.068359
576.826111 3850.986328
576.836609 5083.400879
576.847046 6406.978516
576.857544 7567.375
576.867981 4785.981445
576.878479 5837.98877
576.888916 7167.700195
576.899414 7704.180664
576.909912 7291.384766
576.920349 8985.838867
576.930847 6284.690918
576.941284 8089.756836
576.951782 7862.890625
576.962219 9034.526367
576.972717 8782.78418
576.983215 10531.443359
576.993652 8324.366211
577.00415 9231.632812
577.014648 12714.854492
577.025085 15082.839844
577.035583 8288.828125
577.046021 11124.049805
577.056519 14213.941406
577.067017 16766.878906
577.077454 11454.820312
577.087952 15057.457031
577.09845 14967.030273
577.108887 16151.854492
577.119385 19361.460938
577.129883 20375.40625
577.14032 21292.222656
577.150818 26050.230469
577.161316 12655.061523
577.171753 10843.980469
577.182251 12112.753906
577.192749 19679.875
577.203186 129759.5625
577.213684 952602.0625
577.224182 2489371.5
577.234619 3830281.75
577.245117 3888534.25
577.255615 2612227.25
577.266113 1045360.125
577.27655 155182.078125
577.287048 33580.121094
577.297546 2016.743408
577.307983 20746.675781
577.318481 26233.472656
577.328979 13756.150391
577.339478 17920.117188
577.349976 18954.621094
577.360413 18427.832031
577.370911 17627.398438
577.381409 17110.117188
577.391907 17209.386719
577.402344 20060.308594
577.412842 8235.330078
577.42334 9708.956055
577.433838 15234.049805
577.444336 15529.790039
577.454773 8504.071289
577.465271 9993.121094
577.475769 10611.235352
577.486267 10894.145508
577.496765 8690.456055
577.507202 8933.229492
577.5177 9790.232422
577.528198 10871.036133
577.538696 6281.710938
577.549194 8322.239258
577.559692 7221.376953
577.57019 7314.242188
577.580627 7137.365234
577.591125 7307.753906
577.601624 6702.861328
577.612122 7699.915039
577.62262 5548.446777
577.633118 6877.313965
577.643616 4646.230469
577.654114 5155.790039
577.664551 6626.507324
577.675049 7068.958984
577.685547 4093.994141
577.696045 5633.112305
577.706543 3411.142578
577.717041 3451.949707
577.727539 6160.719238
577.738037 6435.848633
577.748535 3847.469727
577.759033 4501.337402
577.769531 4050.430176
577.780029 4458.563965
577.790527 4505.496582
577.801025 5811.026855
577.811523 2154.764893
577.822021 3338.858398
577.83252 3615.736816
577.843018 4113.405273
577.853516 1987.418457
577.895508 2377.862061
577.906006 3527.061035
577.916504 3574.969727
577.927002 3580.401367
577.9375 2677.424561
577.947998 3540.254883
577.958496 1817.777588
578.242065 391.939087
578.252625 3399.336914
578.263123 2669.625977
578.273621 3156.841797
578.284119 3521.71875
578.294617 1961.887207
580.455078 1474.987061
580.465637 4816.804688
580.476257 5605.271484
580.486816 2693.712646
580.497375 592.631958
595.198181 582.356812
595.209167 7741.00293
595.220154 95903.859375
595.23114 298076.5625
595.242065 514088.90625
595.253052 576891.6875
595.264038 431963.84375
595.275024 201068.9375
595.286011 42805.457031
595.296936 3372.654297
616.574036 1786.214355
616.585571 2664.968262
616.597168 3190.709473
616.608704 2983.4375
616.6203 2260.39624
END IONS
