BEGIN IONS
PEPMASS=713.278
CHARGE=1
MSLEVEL=2
SOURCE_INSTRUMENT=LC-ESI-Hybrid FT
FILENAME=f.lfnothias/140221_LF_015_AcOEt_ASE-cpd-6.mzXML;
SEQ=*..*
IONMODE=Positive
ORGANISM=GNPS-LIBRARY
NAME=2,3,5,7,15-pentaacetoxy-8-tigloyloxy-9,14-dioxojatropha-6(17),11E-diene  M+Na
PI=Louis-Felix NOTHIAS-SCAGLIA
DATACOLLECTOR=Louis-Felix NOTHIAS-SCAGLIA
SMILES=C=C(C1OC(C)=O)[C@H](OC(C)=O)[C@@H](OC(/C(C)=C/C)=O)C(C(C)(C)/C=C/[C@@H](C)C([C@]2(OC(C)=O)[C@]1([H])[C@@H](OC(C)=O)[C@](C)(OC(C)=O)C2)=O)=O
INCHI=InChI=1S/C35H46O14/c1-13-17(2)32(43)47-28-27(45-21(6)37)19(4)26(44-20(5)36)25-31(46-22(7)38)34(12,48-23(8)39)16-35(25,49-24(9)40)29(41)18(3)14-15-33(10,11)30(28)42/h13-15,18,25-28,31H,4,16H2,1-3,5-12H3/b15-14+,17-13+/t18-,25+,26+,27?,28-,31?,34?,35?/m1/s1
INCHIAUX=
PUBMED=24926807
SUBMITUSER=lfnothias
TAGS=
LIBRARYQUALITY=3
SPECTRUMID=CCMSLIB00000424722
SCANS=1
187.572754 1127.949341
187.574692 2200.85498
187.57663 2603.569336
187.578583 2407.756836
187.580521 1832.785278
196.243057 1155.761108
196.245132 2011.161987
196.247208 2405.455078
196.249283 2231.062988
196.251358 1473.077026
200.60878 204.143921
200.610931 2322.430176
200.613083 3975.833008
200.615219 4147.168457
200.617371 2764.641602
200.619522 883.59668
204.62764 1212.180786
204.629852 2007.7323
204.632065 2331.427246
204.634277 2236.179199
204.63649 1883.320435
240.483856 1907.852173
240.486679 2504.797852
240.489502 2713.31543
240.49231 2507.79541
240.495132 1917.745728
263.135956 1510.436157
263.139191 4555.994629
263.142426 6124.296875
263.14566 4684.727539
263.148865 1435.179077
265.339966 1936.403198
265.343231 2999.55957
265.346497 3267.854004
265.349762 2456.716797
265.353027 895.943604
281.141937 755.669678
281.145508 6883.563477
281.149048 16872.541016
281.152618 23606.152344
281.156189 21632.378906
281.15976 12793.080078
281.1633 3996.076172
281.16687 287.265259
285.101898 2373.131348
285.10553 7089.720703
285.109161 11430.025391
285.112823 11952.797852
285.116455 8084.978516
285.120087 2884.257812
291.132996 1536.939331
291.136749 3599.069824
291.140503 3734.375977
291.144257 2308.131348
291.14801 958.564209
295.617554 1448.830688
295.621399 2145.870117
295.625244 2528.227051
295.629089 2319.133301
295.632935 1401.256714
299.151947 412.151123
299.155853 4450.695312
299.15976 10122.041992
299.163666 13537.873047
299.167572 11845.780273
299.171509 6484.661133
299.175415 1618.972046
309.135132 1403.201782
309.139252 9853.998047
309.143372 22935.257812
309.147461 31319.453125
309.151581 28248.292969
309.15567 16345.080078
309.15979 4580.314941
309.16391 373.009155
311.884827 1834.210083
311.888977 3024.902344
311.893127 3589.325195
311.897308 3440.810547
311.901459 2925.800293
311.90564 2187.638184
311.90979 1425.7948
322.194031 1636.620972
322.198395 2535.563965
322.202789 2774.979492
322.207153 2563.890137
322.211517 2481.974609
322.215881 2236.191406
322.220276 1409.011108
325.133453 2088.940918
325.137909 2947.652344
325.142334 2997.165039
325.146759 2368.506348
325.151184 1589.532593
327.145294 1731.121216
327.14978 10848.769531
327.154236 22725.96875
327.158722 28783.925781
327.163177 24142.265625
327.167664 13200.532227
327.172119 4241.07373
327.176605 748.976196
341.160339 905.686157
341.1651 2661.535156
341.169861 5996.083008
341.174622 7690.294922
341.179382 5870.613281
341.184143 1867.293579
345.588776 1813.871704
345.593628 2766.773926
345.59848 3384.134766
345.603333 3573.209961
345.608215 3321.489258
345.613068 2276.67627
345.61792 705.252197
351.150909 1563.250854
351.155884 2983.071777
351.160858 3496.164551
351.165833 2725.705078
351.170807 1264.364624
354.546814 1902.636108
354.55188 2394.385742
354.556915 2497.939453
354.561951 2433.081543
354.567017 2140.399902
369.154694 1518.898804
369.160034 8266.917969
369.165405 15456.871094
369.170746 17281.3125
369.176117 12244.025391
369.181488 4969.791016
369.186829 793.682251
373.120575 2087.809082
373.126038 2803.288086
373.13147 2844.99707
373.136932 2210.279785
373.142365 1156.829956
381.190277 387.380371
381.195923 2727.413574
381.201538 5389.945801
381.207153 6328.227051
381.212799 4782.850586
381.218414 1873.02063
383.972565 1674.112427
383.978241 2331.560547
383.983917 2501.762695
383.989624 2216.938965
383.9953 1776.688843
385.043732 1175.556274
385.049469 2248.49707
385.055176 2766.339355
385.060883 2443.993652
385.066589 1571.914917
387.130524 543.932739
387.136292 2556.432129
387.142059 3775.361816
387.147797 3391.299316
387.153564 1796.30603
391.174011 516.427368
391.179871 2830.845703
391.185699 4604.315918
391.191559 4735.369629
391.197418 3397.07959
391.203247 1644.583618
409.178009 303.746948
409.184265 5942.376465
409.190521 17315.570312
409.196777 28246.404297
409.203033 29965.4375
409.20929 20773.607422
409.215546 8051.058594
409.221802 57.967407
423.20166 1251.174194
423.208252 2830.112305
423.214813 3764.456543
423.221405 3297.244141
423.227997 1575.881958
424.414825 1792.069214
424.421448 2634.60791
424.42804 2591.452148
424.434662 2226.062988
424.441254 1967.319946
427.183624 676.472412
427.190308 2437.620117
427.196991 4483.753418
427.203644 6356.181152
427.210327 6844.015137
427.21701 5308.679199
427.223663 2689.537598
427.230347 917.21167
441.211395 1524.543335
441.218384 3136.982422
441.225403 4785.265137
441.232391 5154.121094
441.23941 3906.041016
441.246399 1919.909058
443.186005 302.355469
443.193054 2532.847656
443.200104 5642.35498
443.207153 7352.595703
443.214203 6216.958984
443.221252 3208.495117
443.228302 588.347534
446.718201 1787.024048
446.725342 2188.810547
446.732483 2430.430664
446.739624 2239.249023
446.746765 1702.693481
451.196777 1690.57312
451.204041 3380.043945
451.211273 4564.339844
451.218506 3912.818848
451.225769 1871.515259
453.056641 1732.642456
453.063934 2344.10791
453.071228 2750.890137
453.078522 2633.496582
453.085785 2049.20752
469.194519 1264.896118
469.202209 14870.022461
469.2099 40498.695312
469.21756 62842.128906
469.22525 63807.515625
469.232941 42656.859375
469.240601 16937.025391
469.248291 2707.655273
473.175049 492.773926
473.182831 2799.613281
473.190613 4303.486816
473.198395 3661.965332
473.206177 1498.253052
487.216461 1677.900757
487.224609 3141.020996
487.232727 4080.855469
487.240845 3490.18457
487.248993 1451.948608
491.182159 5724.006836
491.190369 16811.927734
491.198608 26754.341797
491.206818 27584.427734
491.215057 18489.808594
491.223297 6942.527344
491.231506 1077.679077
497.569977 2071.028809
497.578369 2358.9375
497.586761 2378.48584
497.595123 2297.012695
497.603516 2076.407227
498.636902 1763.873657
498.645325 2562.655273
498.653717 2724.025391
498.66214 2242.873535
498.670563 1536.127563
511.196564 64.935181
511.205292 3410.772461
511.21402 14578.838867
511.222748 28903.376953
511.231476 36222.683594
511.240234 30528.355469
511.248962 16757.763672
511.25769 4923.916504
516.327026 1574.672485
516.335876 2707.368652
516.344727 2919.891113
516.353638 2185.119629
516.362488 1093.801636
529.215515 1603.301636
529.224731 7141.041016
529.233948 13561.287109
529.243164 16021.5625
529.252319 12242.430664
529.261536 5214.599609
529.270752 318.18457
533.175354 1268.678833
533.184631 4344.451172
533.19397 14872.214844
533.203247 30180.029297
533.212585 39179.378906
533.221863 34038.535156
533.231201 19109.820312
533.240479 5684.578125
564.120728 847.213501
564.130859 3143.11084
564.140991 5050.503906
564.151123 5076.508301
564.161255 2905.245117
571.224304 1316.067505
571.234619 6455.48291
571.244934 12357.794922
571.255249 14224.516602
571.265564 10202.083008
571.275879 3697.897949
593.184204 170.938965
593.195129 11284.329102
593.205994 111258.34375
593.216919 317731.34375
593.227844 518233.65625
593.23877 553420.375
593.249695 392144.34375
593.26062 168189.578125
593.271545 28303.150391
593.282471 4302.557617
631.234985 353.496826
631.246948 10940.223633
631.258911 27622.261719
631.270935 38754.714844
631.282898 35302.824219
631.294922 20426.115234
631.306885 5641.340332
636.480957 1304.742554
636.493042 2213.142578
636.505188 2641.34375
636.517334 2666.903809
636.52948 2625.837402
636.541626 2224.88623
636.553772 1361.362915
639.745544 2036.177612
639.757812 2373.291016
639.77002 2318.048828
639.782227 2754.493652
639.794495 3121.047852
639.806702 2488.953613
639.818909 1139.872925
652.37793 1423.188354
652.390564 3451.386719
652.403137 2391.464844
652.41571 3263.796875
652.428345 2505.647461
652.440918 3832.685059
652.453491 2057.700195
652.629883 1978.851929
652.642456 4800.056152
652.65509 2326.242676
652.667664 5392.193848
652.680298 1985.765259
652.692871 4238.858398
652.705505 4598.80127
652.718079 8490.581055
652.730652 601.651489
652.743286 4367.745117
652.755859 4746.612793
652.768494 7101.887695
652.781067 2808.064941
652.793701 6524.73291
652.806274 3356.295898
652.818909 6589.630859
652.831482 5004.753418
652.844116 9493.621094
652.85675 2372.882812
652.869324 7608.857422
652.881958 4099.677246
652.894531 8108.568359
652.907166 5914.172852
652.919739 11512.678711
652.932373 2952.742188
652.944946 8464.254883
652.957581 6822.322754
652.970215 12380.216797
652.982788 5177.647949
652.995422 12338.59082
653.007996 5807.811035
653.02063 12748.694336
653.033264 7815.851562
653.045837 14491.248047
653.058472 9388.625977
653.071106 18043.210938
653.083679 7374.558594
653.096313 16226.646484
653.108887 13693.105469
653.121521 23657.978516
653.134155 9841.113281
653.146729 22753.03125
653.159363 8594.319336
653.171997 13792.913086
653.184631 10789.774414
653.197205 9258.851562
653.209839 68835.953125
653.222473 679918.875
653.235046 1953428.25
653.247681 3205033.0
653.260315 3443631.25
653.272888 2458552.0
653.285522 1068166.625
653.298157 188619.203125
653.310791 29626.800781
653.323364 5014.858398
653.335999 11267.043945
653.348633 22523.515625
653.361267 10820.517578
653.373901 23036.822266
653.386475 8933.920898
653.399109 18676.410156
653.411743 9614.792969
653.424377 16672.373047
653.437012 10385.125977
653.449585 16964.837891
653.462219 8237.616211
653.474854 15064.78125
653.487488 6868.743652
653.500122 12847.535156
653.512756 7735.943359
653.52533 13758.776367
653.537964 4407.783691
653.550598 10701.648438
653.563232 4859.405273
653.575867 9720.521484
653.588501 5089.932129
653.601135 9801.460938
653.613708 4099.998047
653.626343 8412.051758
653.638977 4090.838867
653.651611 7862.629883
653.664246 4667.242188
653.67688 9014.243164
653.689514 1947.213013
653.702148 6131.03125
653.714783 3626.12207
653.727417 6624.694824
653.740051 3706.853027
653.752686 7154.704102
653.76532 2179.19873
653.790588 1710.60437
653.803223 4301.506836
653.815857 3401.734863
653.828491 5631.088379
653.841125 2785.146973
653.85376 6069.185547
653.866394 835.764404
653.879028 3635.882324
653.891663 2572.337891
653.904297 4175.703613
653.916931 3317.03418
653.929565 6238.915039
653.9422 404.985474
653.992737 1826.485229
654.005371 3170.833008
654.018005 2295.398926
654.030701 4111.859863
654.043335 1222.698608
654.055969 3172.336914
654.068604 2322.550293
654.081238 3915.100098
654.093872 1221.992065
654.106506 2552.65918
654.119141 2554.192871
654.131775 4695.479492
654.14447 549.375977
654.195007 1653.875366
654.207642 3047.02002
654.220337 2374.608887
654.232971 3768.080078
654.245605 1142.065063
654.25824 2393.621582
654.270874 2383.964355
654.283569 3652.499512
654.296204 542.493164
657.125793 1696.74939
657.13855 3079.458984
657.151245 4366.775391
657.164001 2543.876465
657.176697 200.875244
END IONS
