BEGIN IONS
PEPMASS=706.286
CHARGE=1
MSLEVEL=2
SOURCE_INSTRUMENT=LC-ESI-qTof
FILENAME=f.jgauglitz/Siderophore_samples/standards/qtof/mzXML/12min_SEED_protocol/6_12min_GB6_01_43558.mzXML;
SEQ=*..*
IONMODE=Positive
ORGANISM=GNPS-LIBRARY
NAME=Vibriobactin M+H
PI=Pieter Dorrestein
DATACOLLECTOR=Julia Gauglitz
SMILES=CC1C(N=C(O1)C2=C(C(=CC=C2)O)O)C(=O)NCCCN(CCCNC(=O)C3=C(C(=CC=C3)O)O)C(=O)C4C(OC(=N4)C5=C(C(=CC=C5)O)O)C
INCHI=InChI=1S/C35H39N5O11/c1-18-26(38-33(50-18)21-9-4-12-24(42)29(21)45)32(48)37-15-7-17-40(16-6-14-36-31(47)20-8-3-11-23(41)28(20)44)35(49)27-19(2)51-34(39-27)22-10-5-13-25(43)30(22)46/h3-5,8-13,18-19,26-27,41-46H,6-7,14-17H2,1-2H3,(H,36,47)(H,37,48)/t18-,19+,26+,27-/m0/s1
INCHIAUX=
PUBMED=
SUBMITUSER=jgauglitz
TAGS=
LIBRARYQUALITY=1
SPECTRUMID=CCMSLIB00005435753
SCANS=1111
70.06514 83.0
72.080025 130.0
74.058228 125.0
84.0438 90.0
84.079155 109.0
98.096458 137.0
100.750374 74.0
113.068977 166.0
115.084656 167.0
115.121872 207.0
127.122589 303.0
132.149109 150.0
137.022797 6411.0
138.02623 304.0
139.126083 105.0
140.119125 141.0
141.101776 6282.0
141.137604 853.0
142.105606 473.0
142.140259 268.0
148.038071 223.0
155.118286 83.0
158.128448 1773.0
158.163315 148.0
159.111038 151.0
159.129959 97.0
164.069382 258.0
166.048553 334.0
168.117859 100.0
168.14711 86.0
170.164169 126.0
171.165024 78.0
176.033707 392.0
176.071579 89.0
181.136948 127.0
184.106964 525.0
184.143372 576.0
185.109314 111.0
185.145401 86.0
192.065201 6781.0
193.068085 782.0
193.097244 250.0
194.028259 206.0
194.080582 30875.0
195.083267 3419.0
196.090134 270.0
197.172195 89.0
198.160583 511.0
199.15802 85.0
206.082047 78.0
210.075485 531.0
215.186142 301.0
220.060333 5837.0
221.063797 644.0
221.093979 153.0
222.067551 194.0
223.106628 236.0
224.140732 175.0
233.092178 4952.0
234.094116 583.0
235.085876 85.0
237.084869 217.0
237.123352 1026.0
238.070877 231.0
239.10878 93.0
241.164764 675.0
241.202179 81.0
242.170105 118.0
249.087494 614.0
249.123352 1006.0
250.089981 120.0
250.12262 358.0
251.103058 531.0
251.138977 608.0
252.105209 148.0
252.141571 101.0
255.183975 235.0
259.107269 317.0
260.116302 104.0
263.103058 192.0
268.166443 837.0
269.170502 192.0
275.103577 96.0
276.133575 1101.0
276.169739 177.0
277.04425 197.0
277.118317 31895.0
278.121674 4773.0
279.123749 532.0
280.168365 103.0
281.199677 80.0
288.135895 489.0
289.13443 156.0
289.166595 560.0
290.148651 868.0
291.15509 198.0
294.145416 2595.0
294.179443 823.0
295.151459 388.0
296.149841 102.0
298.158325 108.0
298.220062 132.0
302.148132 117.0
304.128387 288.0
306.143799 973.0
307.176758 2033.0
308.175232 507.0
316.167328 283.0
317.160797 184.0
320.160583 3644.0
321.164093 602.0
322.169067 82.0
332.1604 2122.0
333.190674 1575.0
334.176636 3888.0
335.180908 986.0
344.158081 169.0
346.191193 146.0
347.179016 81.0
349.956787 102.0
351.109375 77.0
351.203003 9368.0
352.205536 1727.0
353.204865 263.0
359.173737 244.0
359.208771 151.0
360.156219 602.0
360.203247 205.0
361.185211 1158.0
362.185333 389.0
372.202118 107.0
373.188171 311.0
374.167389 111.0
377.182526 4595.0
377.21759 3146.0
378.185791 866.0
378.22168 621.0
379.185577 161.0
389.180359 555.0
389.220764 240.0
390.212921 2321.0
391.202515 1045.0
392.186432 577.0
393.184052 115.0
406.250641 105.0
416.227936 1197.0
417.214966 2374.0
418.21698 607.0
419.226288 138.0
425.183929 674.0
426.186737 146.0
430.166046 286.0
434.240875 5426.0
435.24234 1204.0
436.244019 176.0
443.194336 4606.0
444.197968 1240.0
445.197052 158.0
451.197113 89.0
456.176941 136.0
460.222382 88.0
464.198334 167.0
469.207855 2636.0
470.194183 5512.0
471.196075 1504.0
472.195007 331.0
482.20224 1149.0
483.188721 429.0
484.195404 83.0
485.214966 87.0
486.872986 98.0
487.118958 252.0
487.218994 25971.0
488.146332 147.0
488.223633 7915.0
489.225616 1149.0
490.22287 206.0
495.184692 180.0
495.238434 102.0
496.185364 83.0
497.20401 3660.0
498.208405 928.0
499.208984 294.0
508.218079 1898.0
509.212921 822.0
510.218597 158.0
513.105103 73.0
513.202026 4260.0
513.231262 4884.0
514.234619 1543.0
515.224548 195.0
516.136169 83.0
516.209961 78.0
516.241638 87.0
525.202515 217.0
526.104065 87.0
526.229797 13674.0
527.230652 5021.0
528.231201 1289.0
529.225952 201.0
535.222168 140.0
542.261169 396.0
543.268066 117.0
552.245789 4644.0
553.231995 5485.0
554.234497 1512.0
555.234497 272.0
556.244873 109.0
556.29126 84.0
570.256653 54707.0
570.402771 87.0
571.039246 78.0
571.25946 17427.0
572.262817 3682.0
573.262573 491.0
574.451416 82.0
596.232849 845.0
597.236206 639.0
598.231689 83.0
644.012878 145.0
662.246399 7157.0
663.248901 2654.0
664.252563 726.0
665.263123 162.0
678.277649 90.0
688.264526 2400.0
689.208008 85.0
689.26825 961.0
690.27356 235.0
691.273499 96.0
703.871338 78.0
704.330505 141.0
704.371338 95.0
704.742493 75.0
704.936035 81.0
705.087158 93.0
705.184204 99.0
705.296997 131.0
705.505737 92.0
705.580017 74.0
705.819641 86.0
705.891785 116.0
705.955505 183.0
706.035645 305.0
706.272583 185687.0
706.610352 116.0
706.654053 82.0
706.900757 102.0
706.960693 101.0
707.039795 291.0
707.275818 74578.0
707.415955 148.0
707.587341 108.0
707.732239 89.0
707.789246 80.0
707.856018 80.0
707.980957 85.0
708.024597 119.0
708.1073 127.0
708.278259 18529.0
708.386475 89.0
709.281677 2884.0
710.080688 96.0
710.170532 77.0
710.286011 382.0
710.497864 80.0
710.635803 77.0
710.684814 75.0
710.801636 73.0
710.92627 99.0
711.177917 76.0
711.371155 128.0
END IONS
