BEGIN IONS
PEPMASS=1380.83
CHARGE=0
MSLEVEL=2
SOURCE_INSTRUMENT=LC-ESI-qTof
FILENAME=f.t3hdon/Network_20140411_round-2/mzXMLs_for_round_2/P3-E-08_P1-E-8_01_3510.mzXML;
SEQ=*..*
IONMODE=Positive
ORGANISM=GNPS-LIBRARY
NAME=Spectra matches to compound Putisolvin M+H
PI=Pieter Dorrestein
DATACOLLECTOR=Don Nguyen, Alexey Melnik
SMILES=O=C(NC(C(CC)C)C(NC(CCC(N)=O)C(NC(CO)C(NC(C(C)C)C(NC(C(CC)C)C(NC(COC(C(CO)NC1=O)=O)C(NC(CC(C)C)C(NC1C(C)C)=O)=O)=O)=O)=O)=O)=O)C(CC(C)C)NC(C(CCC(O)=O)NC(C(CC(C)C)NC(CCCCC)=O)=O)=O
INCHI=InChI=1S/C65H113N13O19/c1-16-19-20-21-48(82)67-41(26-32(4)5)56(87)68-40(23-25-49(83)84)54(85)70-43(28-34(8)9)58(89)77-52(37(14)17-2)63(94)69-39(22-24-47(66)81)55(86)72-44(29-79)59(90)76-51(36(12)13)62(93)78-53(38(15)18-3)64(95)74-46-31-97-65(96)45(30-80)73-61(92)50(35(10)11)75-57(88)42(27-33(6)7)71-60(46)91/h32-46,50-53,79-80H,16-31H2,1-15H3,(H2,66,81)(H,67,82)(H,68,87)(H,69,94)(H,70,85)(H,71,91)(H,72,86)(H,73,92)(H,74,95)(H,75,88)(H,76,90)(H,77,89)(H,78,93)(H,83,84)
INCHIAUX=
PUBMED=
SUBMITUSER=t3hdon
TAGS=
LIBRARYQUALITY=3
SPECTRUMID=CCMSLIB00000081202
SCANS=668
184.169571 1520.0
187.108185 980.0
198.087982 1792.0
199.183838 1312.0
205.117981 668.0
212.16684 12364.0
213.167908 2588.0
215.139618 1960.0
216.09964 1780.0
225.126144 620.0
227.174423 4444.0
228.17308 344.0
242.151947 7436.0
243.137726 5716.0
244.136154 576.0
260.162201 348.0
265.161499 568.0
268.199982 332.0
269.163147 1336.0
270.147278 924.0
271.148132 440.0
280.131653 1164.0
282.181854 4552.0
283.18454 1188.0
284.168488 344.0
287.170837 1848.0
288.163696 660.0
294.144653 516.0
296.196381 3380.0
297.158691 9072.0
298.148102 1656.0
299.153351 536.0
300.192352 4276.0
301.192993 984.0
310.208954 1584.0
311.172302 5564.0
312.165009 1132.0
313.217499 1268.0
315.167847 6952.0
316.162476 1284.0
318.200806 1200.0
319.207947 340.0
323.200714 1188.0
324.198578 340.0
325.152527 488.0
326.25885 336.0
327.242432 1076.0
328.2229 840.0
329.183746 4868.0
330.184326 1380.0
338.207428 6392.0
339.207153 1320.0
340.965485 412.0
341.208771 176116.0
342.21048 29068.0
343.212128 3532.0
344.218384 428.0
351.199677 1172.0
352.207458 432.0
355.233826 27392.0
356.224396 9460.0
357.220917 1132.0
358.222717 348.0
359.22818 812.0
365.221405 1284.0
366.192444 512.0
367.269958 1248.0
369.214203 7980.0
370.212494 1236.0
371.199677 348.0
373.243256 2840.0
374.245178 656.0
379.220398 392.0
380.197571 552.0
381.253143 500.0
382.242401 2072.0
383.233032 3152.0
384.208923 444.0
387.222687 4356.0
388.231659 1132.0
392.230164 352.0
393.211334 2568.0
394.211823 380.0
395.263947 6024.0
396.26535 1488.0
397.247742 868.0
398.225067 556.0
400.253021 2864.0
401.243195 1012.0
405.227112 420.0
407.227722 1536.0
408.283417 6588.0
409.284088 2464.0
410.240845 11856.0
411.226746 9316.0
412.234924 1912.0
413.272186 1976.0
414.271271 1200.0
415.22168 1104.0
416.223358 336.0
423.264374 420.0
424.254578 7956.0
425.247864 2232.0
426.295197 23248.0
427.175201 500.0
427.296844 5952.0
428.250793 10724.0
429.245087 3232.0
430.257111 580.0
436.279236 10016.0
437.27887 3760.0
438.270386 1824.0
442.262787 4804.0
443.265015 1560.0
450.266998 664.0
451.274384 712.0
452.249725 528.0
454.084167 400.0
454.291107 247500.0
455.29187 48816.0
456.292511 6392.0
457.290863 980.0
458.221832 340.0
462.249237 460.0
463.242767 336.0
464.285034 1496.0
465.287079 428.0
466.265137 8852.0
467.265594 1792.0
468.290466 728.0
469.281921 656.0
470.261993 704.0
472.31015 1528.0
473.313507 764.0
474.255371 1664.0
476.255524 360.0
478.296722 1108.0
479.263092 4320.0
480.24704 4428.0
481.248444 1244.0
482.293396 6592.0
483.299927 1532.0
484.273895 9716.0
485.282074 2892.0
486.291565 1324.0
493.282623 636.0
494.314026 684.0
495.331055 1964.0
496.314728 1720.0
497.270142 9304.0
498.271576 2516.0
499.278625 560.0
500.306274 10496.0
501.31012 2876.0
506.293365 1744.0
507.28421 708.0
508.347046 848.0
509.335938 356.0
510.289032 552.0
511.290375 552.0
513.336365 2240.0
514.335754 1176.0
515.288696 332.0
518.267761 776.0
521.367798 552.0
522.25708 680.0
523.32196 6936.0
523.467712 524.0
524.309814 6164.0
525.309753 2332.0
526.321838 584.0
528.304321 536.0
535.287354 3108.0
536.283142 2184.0
537.301758 472.0
538.31665 1340.0
539.366333 1156.0
540.276611 736.0
541.33136 5876.0
542.321838 3260.0
543.328003 856.0
544.335144 400.0
549.362061 7244.0
550.367249 2780.0
551.335449 504.0
552.320618 612.0
553.296631 7068.0
554.297058 3568.0
555.311401 736.0
557.296875 1044.0
559.340454 1296.0
564.344482 952.0
564.499023 428.0
565.335754 820.0
566.342712 496.0
567.374512 159688.0
567.863831 340.0
568.004761 468.0
568.37616 55644.0
569.377991 10832.0
570.382629 1984.0
571.31073 4224.0
572.318359 1560.0
573.316467 668.0
574.336731 468.0
575.322571 708.0
577.371033 444.0
578.338074 392.0
581.363098 3192.0
582.365356 2332.0
583.354187 1100.0
584.398193 2772.0
585.288635 900.0
585.397461 864.0
586.285095 424.0
587.342224 2456.0
588.337402 1164.0
589.330811 588.0
592.346863 3336.0
593.3302 2908.0
594.332581 920.0
595.364563 800.0
596.344055 484.0
597.353149 688.0
599.374268 5788.0
600.37677 2076.0
601.376038 388.0
602.313965 388.0
603.319519 348.0
606.360901 572.0
607.350464 1064.0
608.343079 672.0
609.393738 744.0
610.353516 5160.0
611.353516 1624.0
612.360596 412.0
617.336304 676.0
619.388306 680.0
620.369812 448.0
623.378601 528.0
624.370728 1892.0
625.361816 900.0
626.414917 636.0
627.372803 668.0
628.367737 632.0
634.353271 5144.0
635.351013 1640.0
636.387634 816.0
637.389832 1340.0
638.387939 636.0
639.382935 396.0
640.394531 656.0
641.399353 604.0
642.375427 2252.0
643.383484 760.0
644.38739 468.0
650.387146 648.0
651.377319 360.0
652.361389 6176.0
653.362854 2316.0
654.40979 3732.0
655.409851 1508.0
656.41156 556.0
658.412109 2840.0
659.414429 892.0
660.414185 388.0
664.408691 488.0
665.408264 364.0
666.379578 644.0
667.426697 592.0
668.402222 1808.0
669.402222 600.0
670.374084 6716.0
671.379272 1564.0
672.392944 364.0
677.417358 1644.0
678.418579 1640.0
681.427063 360.0
684.361328 344.0
686.405884 27384.0
687.40918 10368.0
688.407654 2364.0
689.40802 756.0
691.417908 620.0
692.39978 760.0
695.433105 45456.0
696.435547 14756.0
697.438477 4380.0
698.383179 1636.0
699.39209 440.0
701.382996 372.0
705.427063 788.0
706.41394 1644.0
707.42041 508.0
709.426086 1508.0
710.414124 664.0
712.427979 396.0
715.393738 1124.0
716.399353 464.0
721.395203 504.0
723.43927 4440.0
724.440063 1664.0
725.435791 464.0
729.414246 336.0
737.464355 440.0
739.410645 620.0
741.461914 592.0
742.449036 336.0
746.441223 716.0
747.436523 1232.0
748.428406 1008.0
752.438171 416.0
754.471558 1108.0
755.469543 1132.0
756.469299 504.0
764.452942 16288.0
765.453918 9220.0
766.450378 3292.0
767.449585 1108.0
768.450684 548.0
769.445801 932.0
770.446045 576.0
778.441223 624.0
779.433533 940.0
782.462952 31912.0
783.466431 17512.0
784.467651 4124.0
785.477173 612.0
786.472778 1684.0
787.474854 660.0
791.500916 404.0
796.455444 6716.0
797.448059 5032.0
798.445679 1764.0
799.449646 656.0
800.494751 364.0
808.529297 736.0
810.479492 428.0
811.469238 384.0
814.467041 48956.0
815.470154 19708.0
816.473938 4992.0
817.474731 1332.0
818.487915 476.0
819.497131 444.0
822.508301 524.0
823.509216 432.0
828.482666 1144.0
829.48822 516.0
834.463013 1004.0
835.509216 1120.0
836.521362 1960.0
837.522278 1184.0
838.511475 556.0
845.511536 2028.0
846.503113 1712.0
847.506226 776.0
852.478943 2716.0
853.509277 1608.0
854.51825 712.0
863.526184 63128.0
864.528076 27400.0
865.529663 7872.0
866.531433 1592.0
881.533081 18216.0
882.538208 8512.0
883.539001 2892.0
884.543884 704.0
892.519775 492.0
899.556396 644.0
900.560486 448.0
909.532959 1088.0
910.52887 1412.0
911.523987 496.0
912.539429 340.0
913.565063 508.0
919.536499 416.0
927.551453 22900.0
928.552673 10584.0
929.557739 2916.0
930.561401 748.0
935.586853 628.0
936.588135 532.0
937.573303 496.0
940.51001 600.0
941.567627 776.0
947.567566 636.0
957.530457 364.0
965.566101 1364.0
966.569092 532.0
976.608704 1048.0
977.60791 864.0
978.609619 492.0
994.618469 18180.0
995.619141 10552.0
996.622192 2488.0
997.622009 1200.0
1012.640015 400.0
1013.641418 452.0
1022.618286 1224.0
1023.604309 1376.0
1024.605835 800.0
1040.636353 46512.0
1041.637817 22844.0
1042.639893 6100.0
1043.639038 1928.0
1044.639282 392.0
1045.63501 412.0
1046.617676 628.0
1056.600464 352.0
1063.635864 3964.0
1064.637939 2704.0
1065.646973 940.0
1070.616943 556.0
1081.648682 384.0
1082.642578 536.0
1133.652466 616.0
1134.640381 396.0
1142.695679 404.0
1148.719238 392.0
1151.668823 6012.0
1152.661621 3564.0
1153.66333 1640.0
1154.677124 404.0
1159.723267 424.0
1168.677124 1456.0
1169.681396 126828.0
1170.682861 67536.0
1171.68396 26368.0
1172.684692 5268.0
1173.687378 964.0
1176.728638 3552.0
1177.725098 2844.0
1178.720581 1316.0
1179.728882 340.0
1184.674561 444.0
1253.771362 424.0
1267.74292 528.0
1275.796631 832.0
1276.802124 500.0
1281.769531 784.0
1282.762207 1024.0
1283.76001 424.0
1293.806396 804.0
1294.801758 492.0
1345.781006 352.0
1352.835083 752.0
1353.847046 480.0
1362.828125 3520.0
1363.825562 3700.0
1364.828979 1416.0
1380.839966 77504.0
1381.841064 54536.0
1382.845215 17540.0
1383.843384 5444.0
1384.841553 1156.0
1394.827271 488.0
1402.810059 720.0
1403.828125 588.0
END IONS
