BEGIN IONS
PEPMASS=1471.84
CHARGE=1
MSLEVEL=2
SOURCE_INSTRUMENT=LC-ESI-Ion Trap
FILENAME=f.arihiro1013/purec_ompounds_0223/201909_minnamideA.mzXML;
SEQ=*..*
IONMODE=Positive
ORGANISM=GNPS-LIBRARY
NAME=Minnamide A M+Na
PI=Gerwick
DATACOLLECTOR=Arihiro Iwasaki
SMILES=O=C(N[C@H](CO)C(N[C@@H](C(N(C)[C@H](C(N[C@H](C(N(C)[C@H](C(N(C)[C@H](C(N[C@H](CO)CC1=CC=C(OC)C=C1)=O)CCC(N)=O)=O)C(C)C)=O)CO)=O)C(C)C)=O)CC(C)C)=O)[C@]([C@@H](C)CC)([H])N(C)C([C@@H](NC(C[C@@H](O)C[C@H](C[C@@H](C[C@H](C[C@@H](C[C@H](C[C@@H](CCC)O)C)O)C)O)C)=O)CC(C)C)=O
INCHI=InChI=1S/C74H132N10O18/c1-20-22-52(88)31-46(11)32-53(89)33-47(12)34-54(90)35-48(13)36-55(91)38-63(93)77-57(29-42(3)4)71(98)84(18)66(49(14)21-2)70(97)79-59(40-86)67(94)78-58(30-43(5)6)72(99)82(16)64(44(7)8)69(96)80-60(41-87)73(100)83(17)65(45(9)10)74(101)81(15)61(27-28-62(75)92)68(95)76-51(39-85)37-50-23-25-56(102-19)26-24-50/h23-26,42-49,51-55,57-61,64-66,85-91H,20-22,27-41H2,1-19H3,(H2,75,92)(H,76,95)(H,77,93)(H,78,94)(H,79,97)(H,80,96)/t46-,47-,48-,49-,51-,52+,53+,54+,55-,57-,58+,59+,60-,61-,64-,65-,66+/m0/s1
INCHIAUX=
PUBMED=30730753
SUBMITUSER=arihiro1013
TAGS=
LIBRARYQUALITY=3
SPECTRUMID=CCMSLIB00004753001
SCANS=589
459.482727 1244219.0
528.147705 185363.0
536.807129 888703.0
556.119141 357215.0
557.30835 426054.0
609.386475 154248.0
629.497559 1164045.0
636.255859 134720.0
640.285767 162492.0
658.67041 104890.0
659.452148 310746.0
660.493164 106681.0
678.335449 316963.0
742.232788 989481.0
772.414795 9228784.0
773.554932 1575151.0
774.250244 11.0
777.074219 246006.0
782.835083 286296.0
808.00708 426301.0
808.609253 33335.0
829.482666 1033351.0
830.635742 690529.0
836.431152 506664.0
839.93811 527088.0
841.291748 1126439.0
853.296387 1655945.0
853.906982 53.0
854.926636 262607.0
859.396484 1157840.0
860.359009 739045.0
869.51355 8424872.0
870.604248 1333152.0
918.448242 264035.0
930.63208 217144.0
936.343994 354617.0
938.639648 315635.0
948.362915 440537.0
962.453857 677234.0
966.76355 776110.0
967.536743 277973.0
968.963867 912891.0
973.661255 331741.0
986.626587 3602402.0
987.904053 646706.0
989.966553 461191.0
991.69043 2102664.0
992.550537 152560.0
997.258667 166802.0
1005.73999 227956.0
1006.697632 232070.0
1007.573975 3060818.0
1008.827759 2845133.0
1009.627441 90.0
1017.357544 3509883.0
1018.505371 768064.0
1035.51416 7220947.0
1036.515381 1189619.0
1047.923828 390473.0
1053.791016 463531.0
1055.233398 114026.0
1063.54834 521959.0
1087.052734 241017.0
1099.507568 468592.0
1100.560547 2050645.0
1101.405273 19.0
1118.663574 965662.0
1123.356934 310932.0
1124.48584 1142880.0
1141.685547 34264504.0
1142.711426 15230078.0
1143.657471 85.0
1148.835938 513960.0
1149.851074 1089902.0
1150.492188 97.0
1290.789551 282176.0
1291.483398 172523.0
1297.87793 308410.0
1309.990234 689071.0
1326.695312 917974.0
1327.54126 57.0
1345.151611 914706.0
1345.947266 9.0
1394.041504 96026.0
1412.004395 144409.0
1412.821045 911759.0
1423.844482 1304007.0
1425.168945 772397.0
1435.637207 2109847.0
1436.661377 3946309.0
1437.302734 87.0
1441.880859 41150384.0
1442.883301 33810528.0
1443.804932 59.0
1453.786621 19972912.0
1454.888428 10481876.0
1455.707031 31.0
1471.898193 42086320.0
1472.827637 34929608.0
1473.815186 452.0
END IONS
