BEGIN IONS
PEPMASS=1234.84
CHARGE=1
MSLEVEL=2
SOURCE_INSTRUMENT=LC-ESI-Orbitrap
FILENAME=f.lfnothias/1901_fungal_symbiont_annotation_confirmation/Pure_compounds/Pure_compounds_mzML/LeucinostatinAandB_1uL_sensitive.mzML;
SEQ=*..*
IONMODE=Positive
ORGANISM=GNPS-LIBRARY
NAME=Leucinostatin_K;_Paecilotoxin_K observed in Leucino A/B standard, annotate with dereplicator M+H
PI=Dorrestein
DATACOLLECTOR=lfnothias
SMILES=N1([C@H](C(=O)N[C@@H](C(=O)N[C@H](C(=O)NC(C(=O)N[C@H](C(=O)N[C@@H](C(=O)NC(C(=O)NC(C(=O)NCCC(=O)N[C@H](C[N+]([O-])(C)C)C)(C)C)(C)C)CC(C)C)CC(C)C)(C)C)[C@@H](C(C)C)O)C[C@@H](CC(CC(=O)CC)O)C)C[C@@H](C1)C)C(=O)/C=C/[C@@H](CC)C
INCHI=
INCHIAUX=
PUBMED=
SUBMITUSER=lfnothias
TAGS=
LIBRARYQUALITY=3
SPECTRUMID=CCMSLIB00005435726
SCANS=1041
74.64138 2362.420166
81.069923 7839.601074
83.085648 6080.649902
84.080818 633121.1875
86.096214 11753.509766
91.781242 2600.420898
93.069824 8675.699219
95.085297 8239.260742
96.9282 2821.984375
100.07563 22341.722656
102.091179 9931.484375
103.086319 4106.157227
111.080322 522611.34375
112.075691 37355.246094
112.08316 5332.410645
112.767738 1998.772705
123.116501 23963.644531
124.111794 2802.178223
129.101929 19699.896484
132.348694 2303.561768
143.117355 12680.1875
151.111481 2579.328613
155.117554 22002.460938
156.101669 22241.681641
169.121536 4977.706055
171.148987 6401.259766
172.144196 39902.855469
173.12851 5734.015137
187.143707 27902.775391
190.154312 12919.477539
194.153717 1620226.0
195.156677 21199.443359
197.127899 4303.09082
199.143845 13122.40625
199.180023 4467.660645
202.581116 2474.306396
214.155273 5538.830078
215.139114 28764.107422
222.148727 929857.5
223.153168 12950.541992
227.174393 3319.366455
239.175568 12960.944336
241.506699 2385.444824
257.196503 5346.555664
270.177277 2604.000977
275.207306 20152.146484
312.226959 8514.385742
325.211304 4621.30127
328.224182 16146.688477
333.215759 3273.040283
360.262421 11671.972656
417.274048 20034.152344
435.284027 41906.269531
473.343475 3378.389404
474.293304 4203.313965
492.306519 29729.296875
518.360291 3074.432373
528.338867 12294.628906
530.421753 3128.059082
546.353455 106027.507812
564.363708 51240.597656
577.353821 2841.82959
603.412476 7229.932129
613.389526 2816.581787
631.405396 79221.007812
640.495728 2641.973877
649.416504 19391.859375
697.512146 2409.51416
744.476135 3968.875244
762.498779 10306.551758
875.583679 6720.161621
940.155762 3564.80835
960.628845 4536.784668
1128.404907 2445.579102
1234.831177 18922.617188
END IONS
