BEGIN IONS
PEPMASS=1667.0
CHARGE=1
MSLEVEL=2
SOURCE_INSTRUMENT=DI-ESI-Hybrid FT
FILENAME=Didemnin_X_FT_1667mz.mzXML
SEQ=*..*
IONMODE=Positive
ORGANISM=GNPS-LIBRARY
NAME=Didemnin X M+H
PI=Dorrestein/Moore
DATACOLLECTOR=Roland Kersten
SMILES=O=C(N)CCC(NC(=O)C(CCC(N)=O)NC(=O)C[C@H](O)CCCCCCC)C(=O)NC(CCC(N)=O)C(=O)OC(C)C(=O)N1CCCC1C(=O)N(C)[C@H](CC(C)C)C(=O)N[C@@H]3C(=O)N[C@H]([C@@H](O)CC(=O)O[C@@H](C(C)C)C(=O)[C@H](C)C(=O)N[C@@H](CC(C)C)C(=O)N4CCC[C@H]4C(=O)N(C)[C@@H](Cc2ccc(OC)cc2)C(=O)O[C@@H]3C)[C@@H](C)CC
INCHI="InChI=1S/C82H131N13O23/c1-16-18-19-20-21-24-52(96)42-66(101)86-54(31-34-63(83)98)73(105)87-55(32-35-64(84)99)74(106)88-56(33-36-65(85)100)81(113)117-50(12)77(109)94-37-22-25-58(94)79(111)92(13)60(40-45(5)6)75(107)91-69-49(11)116-82(114)61(41-51-27-29-53(115-15)30-28-51)93(14)80(112)59-26-23-38-95(59)78(110)57(39-44(3)4)89-72(104)48(10)70(103)71(46(7)8)118-67(102)43-62(97)68(47(9)17-2)90-76(69)108/h27-30,44-50,52,54-62,68-69,71,96-97H,16-26,31-43H2,1-15H3,(H2,83,98)(H2,84,99)(H2,85,100)(H,86,101)(H,87,105)(H,88,106)(H,89,104)(H,90,108)(H,91,107)/t47-,48-,49+,50?,52+,54?,55?,56?,57-,58?,59-,60+,61-,62-,68-,69-,71-/m0/s1"
INCHIAUX=N/A
PUBMED=22458477
SUBMITUSER=mcruesemann
TAGS=
LIBRARYQUALITY=3
SPECTRUMID=CCMSLIB00000075334
SCANS=37
455.021637 529.868042
457.557098 532.416931
460.297058 516.297852
460.955841 518.403992
463.158234 666.043579
463.526672 633.727539
465.60849 504.217377
467.590088 602.502686
468.500366 649.370239
468.862823 595.03833
469.836487 634.123474
470.207703 579.899231
470.249878 519.076233
471.107849 573.184326
472.76474 641.027832
473.808624 483.360382
473.872559 667.369324
475.387268 556.218506
476.786621 586.951782
477.205566 517.493347
478.442535 591.276672
479.549347 550.297974
483.466095 569.751709
486.204895 733.339661
487.67215 569.785339
488.237091 624.199524
488.475189 627.665283
489.615509 524.324829
489.826996 570.272034
490.156769 577.468811
492.043213 534.094238
492.422424 523.343018
493.833527 597.403992
495.489471 520.17627
495.870087 569.677246
497.046295 680.933594
499.640076 747.5401
499.7341 509.16214
502.615997 554.437317
502.894012 599.706238
504.67099 506.096741
505.742035 471.621155
505.765594 576.505859
506.656464 756.637146
507.022949 617.437805
508.039154 677.673767
511.127075 696.141968
513.199158 539.904358
514.108032 563.994873
515.211609 482.726562
516.53717 610.08728
519.240295 504.366608
520.079285 571.752625
523.762085 588.483398
524.682617 542.05249
525.106506 575.248474
525.34314 585.38623
526.112 550.271606
527.543701 553.213257
528.058533 537.203613
530.976318 651.964722
531.006653 577.862
532.780212 636.739136
532.99585 682.288818
534.202454 540.186035
534.362122 678.366516
534.790405 495.981995
535.268921 653.287415
535.286255 726.006958
536.270386 3020.899658
536.307251 699.613892
537.272461 917.507812
537.55835 558.333679
540.953796 558.436951
546.857605 550.400085
547.589172 540.749512
549.106506 501.054535
550.680725 731.830627
553.296753 1131.211426
556.133118 499.412567
556.694519 557.639954
557.784729 520.042908
561.995972 594.83252
563.317627 695.032654
564.835632 593.340515
567.585815 658.565979
567.845825 536.506165
569.000488 681.722717
569.852966 640.939087
571.306885 1929.936646
571.866272 754.707642
573.197937 744.417542
573.247925 609.08252
574.083862 656.41864
574.343079 629.566772
574.366028 595.945007
575.273376 655.8927
575.726685 518.941589
575.734802 575.270447
576.332336 758.661377
577.140198 678.416748
579.807373 571.232117
579.891113 718.286194
580.092529 695.447815
580.310364 472.543549
582.168518 790.308838
582.306824 529.651917
583.068054 627.446594
583.41687 531.547302
583.64502 574.515869
584.330322 610.534302
584.379822 668.842468
584.463928 522.906982
588.915894 703.447998
589.054382 570.998352
589.349487 540.106567
589.707214 636.225647
591.132263 479.310974
591.569946 472.107361
592.022644 688.869385
592.158691 685.908325
592.644592 541.518311
593.118225 620.285889
593.572571 652.329773
593.619324 585.587097
593.762329 711.286255
593.775146 501.023346
593.783325 615.034058
594.507935 536.911011
595.663757 652.739563
596.891357 561.770264
596.914612 644.405212
596.931824 1200.606567
596.974731 731.983154
596.984863 742.128967
597.003662 565.163879
597.051636 762.994507
597.065186 1448.788086
597.089111 639.588013
597.786804 492.719635
597.794067 459.972198
597.848877 504.257812
599.9599 634.504028
604.287354 518.992493
604.294739 558.64679
604.385681 904.305603
604.451111 731.265076
604.456787 708.964111
605.710022 497.164581
606.936035 707.07074
607.448792 633.93866
608.68396 680.138977
609.251099 645.051392
609.436584 525.036743
611.96637 554.48468
612.609863 485.163879
613.99646 607.254089
616.773804 637.460999
617.097717 532.845154
617.235413 646.20459
617.338562 755.035156
617.362793 782.270813
617.531006 570.19397
618.80719 578.687744
618.859985 561.285278
618.879272 617.697998
618.952637 777.390076
618.974976 564.724365
619.038574 583.083435
619.055298 918.183777
619.254578 596.165222
619.34552 626.55127
620.1073 689.71814
621.13031 548.179565
621.800293 608.895813
622.404968 975.232544
622.450867 801.512695
622.463013 1154.24353
622.545349 696.593567
622.627319 737.401123
623.818359 625.907532
623.974976 917.425232
626.356262 645.20874
626.442627 741.556213
626.788391 566.970032
629.154907 620.058594
629.180908 1084.485352
629.200256 992.594177
629.229492 1761.452759
629.25769 2031.580078
629.272522 1908.694458
629.318726 764.353088
629.330811 1600.894409
629.353271 923.586975
629.413818 1115.138062
629.425537 945.583313
629.445862 1308.491577
629.454163 807.932922
630.358948 575.319153
630.427063 511.368042
630.79657 1039.317505
630.811096 916.750977
630.899109 1217.754395
630.974854 778.330139
631.026062 855.784668
631.044006 639.205261
631.119446 725.278137
631.170715 612.50592
631.209045 1051.813477
631.243042 590.075745
632.695007 576.556519
634.304382 718.832214
634.520203 601.675842
635.004395 551.801453
637.507141 635.626343
637.708374 662.778381
639.245056 618.777039
639.967712 555.18689
640.095093 565.227783
641.804077 573.451355
641.809387 533.509827
641.834656 1853.564087
641.849243 1300.444946
641.861938 812.651367
641.923218 955.762207
641.947937 669.250488
642.024353 1031.238892
642.04425 1063.191528
642.812256 640.96167
642.915649 875.222534
643.129089 642.821167
646.78302 937.467285
647.251526 612.625671
647.353516 521.804749
648.358459 608.042175
650.667603 587.370361
651.054504 683.669678
651.099792 653.691772
651.118774 499.078064
651.13678 529.915405
651.626221 585.180237
652.00708 531.949219
652.21344 454.759827
653.350342 525.177795
654.847107 542.246826
654.950073 1136.515015
655.015686 587.312622
655.026917 620.91272
655.046631 551.292175
655.055908 613.84906
655.080627 712.623962
655.099304 523.81665
655.110718 553.531372
656.186829 629.417175
656.508606 621.798096
656.707214 542.971863
659.279297 626.08197
659.326477 849.909058
659.469971 650.70874
659.511902 883.291504
659.601135 520.894714
659.662964 773.777893
660.301453 553.77179
663.411987 512.239441
664.3255 671.240967
665.169739 620.964539
668.528259 846.147949
668.672058 898.813904
668.688721 659.742249
668.753723 876.982971
668.783875 938.862305
672.083008 813.012146
673.144836 718.161438
673.173218 1166.332397
673.22937 985.901184
673.258362 2365.459229
676.015747 696.0849
681.91748 604.000793
682.274902 917.362305
682.293823 835.404968
682.429749 820.533203
682.449829 1289.947021
682.465942 1353.247925
682.566528 772.507507
682.58075 619.45105
683.685852 541.592957
683.971191 627.665161
686.052185 700.490784
686.677917 594.399414
686.927856 726.446655
688.874939 600.060486
696.090576 594.045776
696.340332 646.672363
696.736206 842.01239
696.787964 745.953918
696.883484 1460.609131
696.896973 980.00592
696.935547 703.192749
696.993225 740.304565
697.771912 563.19043
698.571716 533.975464
698.751221 686.609558
700.421814 2758.388428
700.993225 693.689758
701.42572 1046.139893
705.322815 602.087891
705.937561 715.860291
706.101013 1454.285278
706.119507 938.683289
706.223938 865.156799
707.359863 1152.053345
710.648254 1173.005737
711.180847 843.788513
711.213318 837.951538
711.292114 960.541626
711.305786 667.850464
717.662048 568.80481
721.017151 647.238708
721.181091 536.594849
721.801575 568.835022
722.077087 745.570496
724.385193 1830.777344
725.388733 817.303345
725.714539 702.758423
727.074402 597.16272
730.773315 485.26709
732.401611 682.280518
734.637207 564.073975
734.807556 627.839966
736.938477 593.213379
737.140747 955.806885
737.166016 635.702026
737.22229 582.54657
737.263672 605.169312
737.322998 983.065308
737.354492 614.702209
737.428223 1291.549316
737.450562 1316.434326
737.46637 620.97644
737.663574 573.560486
741.994934 609.741821
742.580017 714.812439
743.017151 558.311768
745.006897 804.982178
745.858704 642.88562
748.96283 666.11322
750.11261 668.079834
751.926758 599.601562
753.583069 1183.19873
753.598022 836.032837
753.613647 1172.381348
753.663818 2000.856567
753.705994 894.84198
753.75946 1143.87854
753.797729 936.409851
753.883667 1418.305542
753.915771 1421.570068
754.229919 590.138672
761.427917 658.513733
763.452759 583.06543
764.081299 723.17749
764.098816 727.06134
764.296082 686.976196
764.461426 542.518921
765.291565 877.07251
765.385681 899.240601
765.432678 685.703918
765.582947 922.843201
766.104675 719.756165
769.030029 563.871094
771.907776 1041.494263
771.934448 617.832275
772.016541 1196.681641
772.55365 672.35321
776.416626 798.263611
777.175476 587.007568
781.849121 652.256348
782.61908 654.160461
783.862305 590.040649
787.147705 560.736328
787.997925 626.208313
790.841858 571.944275
792.245422 575.641663
793.444702 699.503723
794.427795 751.386108
796.140381 505.899017
796.332214 674.067383
797.741882 571.085754
798.462402 2899.066895
798.705261 562.986145
799.464478 912.551697
801.603699 593.809753
801.832886 735.155151
802.295105 927.485291
802.426575 605.85907
802.439941 485.349976
804.77179 704.931519
805.619751 609.266052
806.05249 599.150146
806.489136 1736.605225
809.040833 618.880127
809.573364 624.669556
813.524963 628.051331
816.472046 1776.563232
816.774963 540.840088
817.43103 738.663086
817.475769 991.818237
822.160156 877.207275
822.222717 955.072205
822.49115 833.643921
826.038391 581.490173
830.429504 556.908264
830.982971 663.913757
833.473999 2752.700195
834.430542 753.18219
834.457886 3801.986328
835.462158 1041.173218
839.759583 631.316833
841.455322 588.597046
847.541321 682.567627
850.348877 661.632935
851.088806 633.89563
851.454895 2657.330078
851.484497 11757.183594
852.457886 837.971252
852.488098 4968.539551
854.580017 530.490967
855.435364 683.322388
857.543762 570.099548
862.086121 637.235352
864.811218 742.596741
865.000427 602.805359
865.042419 727.573181
866.071838 733.630859
867.259399 615.46344
871.333618 680.168884
871.473572 1496.388428
872.037048 863.5979
872.063171 715.705872
873.202698 719.927063
875.877686 820.220154
878.629761 617.234558
879.011292 856.563171
879.093872 615.964417
879.225952 656.836182
879.390747 622.066162
882.39917 576.511902
883.877197 637.584595
887.190613 627.762024
889.523254 731.707092
892.539734 644.075562
892.638367 561.380615
893.388245 699.658325
913.894226 733.291382
916.535706 2601.224365
917.484192 1094.883911
917.520264 3204.251953
918.522339 1209.611816
919.143738 824.088379
920.96637 680.105957
922.633423 759.940247
927.787415 536.598389
927.801819 586.430481
928.188904 567.157654
928.521606 696.489929
929.103699 554.053101
931.320923 787.340332
934.507935 1444.150024
934.545105 4589.660645
935.549316 1966.177734
937.183105 666.382507
939.413452 698.620178
943.481323 767.686707
945.971252 720.251404
946.65979 815.885986
949.194885 564.138489
951.680481 581.649536
952.50293 600.700378
953.712463 1102.181885
954.872314 1184.374512
954.899719 1409.052734
954.985413 1453.800171
955.104797 1721.200928
955.136597 903.180359
955.161987 1357.653442
955.957275 849.415955
956.28772 634.277893
956.961975 676.986755
962.043884 552.84375
964.283875 615.948608
965.536194 626.903015
966.287842 696.43042
967.171387 585.150757
969.547119 653.208252
970.822998 672.219055
971.766235 652.308838
973.174927 665.260742
973.272705 669.818176
973.948425 575.420166
977.646118 667.087585
982.688293 643.316284
984.274963 734.102112
985.453186 764.289734
987.879211 641.322632
998.27655 691.773315
1003.426697 923.180969
1003.972717 681.164001
1005.819824 600.211426
1012.980347 562.191284
1016.597778 1269.292114
1017.535156 937.241638
1017.583252 3598.764893
1018.187866 592.403137
1018.537842 644.64447
1018.587646 2167.364258
1022.834778 688.372375
1023.004272 1494.5271
1026.02063 631.868835
1026.570068 512.04541
1026.917603 539.544312
1027.567505 1552.102905
1028.513916 630.803162
1028.574951 697.557495
1031.237305 920.27124
1031.846436 656.217224
1032.538818 629.598389
1034.610962 1820.63623
1036.680664 583.536743
1039.973267 770.051758
1040.627319 914.034485
1042.394409 730.94812
1044.204956 715.939392
1044.549561 1407.206909
1044.593262 6331.601562
1045.531738 3837.395752
1045.577026 14106.654297
1046.532349 1812.763916
1046.580566 7527.860352
1047.582886 1019.433044
1051.972534 728.664856
1052.725464 710.467285
1054.769165 702.43927
1055.12439 589.039368
1056.356567 1226.532349
1056.528931 1276.508423
1056.585083 890.515991
1059.597656 670.878418
1061.890137 639.218201
1062.561401 3245.327393
1062.604248 10846.749023
1062.956787 656.773682
1063.040039 839.216064
1063.563599 1451.516968
1063.608276 5929.972656
1069.046509 686.836731
1073.621216 2605.053467
1074.600708 1221.864746
1074.629517 853.600037
1075.919312 876.043518
1076.159302 724.732056
1076.221313 609.30603
1078.88916 659.10553
1080.615356 2173.174561
1081.088379 639.737854
1081.622803 1298.060791
1085.550293 671.519165
1085.650146 976.644287
1091.580566 3364.802979
1091.630981 12398.109375
1092.583496 1730.645264
1092.634399 7266.35791
1093.779175 569.308899
1094.06958 621.246704
1094.634888 809.433472
1103.223999 606.935669
1103.790649 693.459717
1108.285767 677.935852
1109.591431 1121.79187
1109.641846 4659.866211
1110.603638 606.840637
1110.644897 2472.357666
1112.593506 2422.241455
1112.645508 6704.504883
1112.710938 537.717834
1112.973022 598.579224
1113.319092 1068.151611
1113.371338 571.585083
1113.472778 565.100098
1113.592773 1357.120361
1113.648193 5749.460938
1114.721069 585.91864
1114.752686 698.950806
1115.250977 771.670349
1121.133179 609.526611
1123.932129 656.779663
1127.618774 705.661377
1128.095581 638.731018
1129.247437 535.758545
1129.873413 696.994324
1130.750122 633.850647
1130.844238 732.198547
1131.572876 703.56366
1135.173462 560.683472
1136.203125 527.828369
1136.46582 714.976685
1137.463013 599.797668
1137.672607 648.817749
1137.766602 598.135315
1147.801392 606.735962
1149.248535 566.730713
1152.776978 670.338806
1153.85376 545.452759
1154.731812 578.761902
1155.105835 725.833008
1155.988159 676.465149
1157.464355 853.671448
1159.654785 973.84729
1160.670776 866.958923
1162.121094 533.829895
1164.721069 873.969299
1165.994019 631.29895
1169.109131 613.196716
1171.193604 712.238586
1172.079834 554.857544
1172.588745 674.677124
1180.428589 748.688416
1181.23291 608.053467
1186.212402 689.524353
1193.061035 670.938721
1193.167114 1455.717529
1193.228027 918.887085
1194.088257 633.495239
1195.460938 675.286499
1199.802246 708.005615
1200.184692 656.95459
1203.424683 766.269165
1204.034058 620.5625
1204.675781 888.619568
1205.662354 1390.697388
1207.091064 659.610229
1209.235229 549.244751
1213.71167 678.77417
1222.632568 923.480957
1222.69165 6081.923828
1223.608765 1063.894897
1223.670898 8277.382812
1224.022095 606.4245
1224.620605 1041.595581
1224.67749 6828.54248
1225.674316 1082.954956
1229.69751 2381.868652
1230.699951 1789.524292
1236.095093 612.675842
1237.26001 556.044617
1238.75 937.351746
1239.251831 854.328186
1240.637085 4157.435059
1240.703491 27185.507812
1241.639282 4901.408203
1241.705811 25392.505859
1242.709595 3605.623047
1243.838013 663.545044
1244.970825 600.963989
1245.085327 614.818665
1247.705933 2041.832031
1248.713135 1479.992065
1249.210693 679.794617
1258.684082 2467.701172
1259.611572 922.889282
1259.692139 1471.785034
1261.535278 675.958801
1262.705322 620.220825
1265.736694 1246.422974
1277.895874 677.279419
1277.954346 726.918457
1282.327393 744.2901
1283.170044 567.127136
1285.025513 602.845276
1286.301636 553.818054
1286.595215 596.8974
1288.724487 771.636414
1302.731445 571.038574
1311.086792 664.338562
1314.704102 534.687073
1314.784912 4064.90625
1315.7948 1994.057617
1316.768555 2284.750488
1318.745605 1112.342041
1319.749146 1056.627686
1323.735229 894.790833
1324.776489 1048.853394
1325.602783 691.404968
1325.751465 2648.159424
1326.755371 2353.071289
1332.723022 3318.844482
1332.795898 22879.324219
1333.718018 4343.996582
1333.799805 17515.779297
1334.216675 917.843262
1334.725586 2645.018066
1334.803467 4295.392578
1340.763184 1597.88562
1341.77063 793.631775
1342.704468 4285.763672
1342.779907 27389.742188
1343.710693 3319.097656
1343.787231 17904.851562
1344.68396 1044.595093
1344.763916 10425.289062
1345.77063 1959.141968
1350.675171 1428.450684
1350.749146 12432.691406
1351.650513 2583.900635
1351.72876 20427.833984
1352.656738 3505.154297
1352.734009 21221.806641
1353.032104 669.111572
1353.093384 754.707336
1353.739136 4194.190918
1358.773193 1245.624146
1359.776001 971.714417
1360.713379 16930.923828
1360.789795 98945.585938
1361.649048 576.730591
1361.716553 12115.935547
1361.793457 73030.453125
1362.723145 2680.998535
1362.796875 14221.738281
1368.682251 8049.628906
1368.759033 46623.164062
1369.686157 9757.804688
1369.762207 52783.230469
1370.685059 1592.232788
1370.766235 9407.082031
1373.716919 626.074951
1378.79541 902.030396
1379.770752 1275.927612
1380.774292 992.301392
1381.93335 630.532715
1386.76355 974.040161
1389.290894 651.534912
1395.465454 704.645325
1397.78418 9144.226562
1398.787964 7777.826172
1399.793579 1225.611328
1411.712646 642.25238
1411.831299 754.403015
1411.972168 850.273499
1412.194214 1206.449951
1412.261841 787.149536
1412.374634 1566.656494
1412.556519 876.710999
1413.775757 601.082825
1413.88623 790.37323
1415.713135 1835.089233
1415.794189 14502.71582
1416.716064 1167.571899
1416.796875 10820.25293
1417.800781 1921.615967
1432.876099 571.217773
1436.22876 633.166809
1438.157227 831.01947
1438.392944 619.518555
1439.829224 3750.7146
1440.632202 633.765198
1440.761963 863.330811
1440.831055 3417.839111
1441.816162 921.761108
1450.530396 736.565369
1452.112793 646.191589
1452.302612 803.160645
1456.773682 814.560059
1457.201538 681.951294
1457.755005 887.555908
1457.838867 4931.508789
1458.524536 854.439697
1458.846802 4138.418945
1466.263794 1702.951782
1468.413452 855.369629
1468.960815 666.910034
1471.807983 1885.878906
1472.809937 1548.134155
1475.864868 1160.053955
1476.858398 987.858948
1478.711426 679.941345
1478.805908 910.881958
1479.678955 632.596985
1480.077881 716.330017
1491.165405 680.082153
1493.157349 616.997742
1498.063843 708.333618
1501.270142 626.141235
1503.248413 709.072327
1503.525635 543.984497
1505.877197 539.44458
1506.606812 635.244507
1509.319702 678.764038
1509.829712 1079.50293
1510.826416 1292.178833
1511.804932 851.816101
1511.880615 747.166565
1512.658936 728.80835
1514.730469 715.372131
1517.362427 641.255432
1517.94873 762.395386
1519.641724 598.801331
1520.542725 1922.072144
1520.646851 936.610107
1520.699097 1096.977417
1520.789307 762.99823
1520.917969 2960.719727
1521.133789 2229.688477
1527.172485 706.18573
1534.382568 723.504333
1541.043335 595.127625
1541.603394 588.823303
1546.781982 743.221008
1547.331909 568.859802
1547.45459 589.40387
1548.376831 655.700745
1551.685181 609.412415
1552.875488 2535.085449
1553.864014 4030.274658
1554.758057 793.538391
1554.863892 4272.090332
1555.869507 998.489685
1558.292969 646.411011
1560.455444 688.682922
1560.979614 693.384399
1561.691895 859.229309
1569.789673 856.085083
1569.89209 5009.491211
1570.895142 4380.93457
1574.202759 787.837158
1579.366699 714.542786
1583.432861 669.203247
1586.733521 661.982971
1587.864014 560.535034
1591.336914 1088.38501
1592.093384 696.239563
1592.463501 1906.038818
1595.96875 762.648193
1596.225342 589.241638
1597.913086 745.490723
1604.399414 2439.008789
1604.546875 2284.744873
1604.768311 2946.685547
1604.917114 1824.627808
1606.63623 729.628235
1607.735962 716.921753
1610.611206 522.384644
1610.661987 566.554565
1613.890991 1188.608887
1614.890259 1275.085571
1615.876099 732.121887
1618.510986 846.739807
1618.964478 556.566589
1620.140869 649.25116
1620.852905 804.971313
1621.80127 759.910156
1621.923706 4218.706543
1622.919922 4930.740234
1623.96228 4266.761719
1624.193115 687.431091
1624.964844 676.172791
1629.564087 661.038269
1630.921387 8176.808105
1631.80603 1777.626343
1631.919312 11000.145508
1632.814087 1020.168274
1632.906616 7521.224121
1633.898071 3133.78833
1634.894775 659.68042
1636.917603 757.418152
1637.070068 548.128296
1637.934814 1145.685303
1638.84375 21393.724609
1638.947021 111366.84375
1639.847412 22824.726562
1639.950317 122560.609375
1640.852539 6914.677246
1640.953491 36884.914062
1648.272461 761.490784
1648.929932 6880.695312
1649.318848 613.4552
1649.924927 4259.1875
1650.92627 2075.368164
1662.635254 766.485168
1663.222412 676.836548
1666.942627 856.483093
1668.597412 681.276123
1669.538208 688.949097
1670.098022 655.478882
1670.896729 742.235291
1671.404541 877.867859
1671.533936 769.655884
1672.155518 554.031067
1673.061035 914.27887
1674.264282 873.79126
1678.479004 616.487793
1681.413208 700.5
1686.57251 684.435059
1689.215454 742.635925
1692.047485 674.902039
1698.159546 723.809448
1699.325684 713.446167
1702.251221 1394.647949
1717.156494 967.210999
1717.686768 844.628052
1726.914551 668.921692
1729.638916 580.559448
1730.561279 661.88446
1736.986572 649.360779
1742.359497 819.354126
1750.763794 795.86554
1751.02356 589.754028
1754.871704 548.388794
1757.899292 706.097534
1758.128662 567.827881
1758.493774 975.103943
1765.452759 762.29541
1766.275879 746.538757
1771.29895 596.13623
1773.995972 687.437622
1781.481079 705.256592
1781.952515 775.639771
1782.503662 801.270813
1782.821045 724.905823
1786.731445 663.862061
1795.577881 1205.104736
1799.485718 1789.327637
1804.601807 620.162048
1804.800537 684.347839
1812.090454 654.649292
1812.539673 598.138489
1812.641968 630.122314
1823.14624 1615.112061
1823.354126 697.449097
1824.01355 642.649353
1827.116699 778.800293
1827.206055 2058.356689
1834.176147 883.877991
1836.286987 547.674622
1838.515625 771.031921
1841.595947 1022.888794
1850.225952 586.707031
1854.170532 705.941345
1854.281494 665.387451
1854.939575 1144.849854
1861.118286 754.6604
1861.615967 1000.737122
1862.202271 654.078125
1866.276855 657.439758
1869.915649 626.056763
1874.896484 543.662842
1875.639404 794.790344
1879.885376 703.133057
1885.515137 720.692078
1888.698486 520.384705
1893.389771 655.110046
1898.923218 597.294556
1909.275024 644.620605
1911.07373 694.415894
1915.931519 651.521667
1921.294922 623.460571
1926.93457 577.745605
1927.498047 1086.356934
1943.533569 900.608337
1944.821411 898.133606
1951.331421 576.511963
1953.21582 718.777954
1954.095947 611.084656
1959.194946 638.940491
1960.299927 603.878845
1962.407349 606.337097
1968.606201 666.166016
1969.13501 660.245178
1971.154663 654.881409
1973.38623 874.326172
1976.389648 724.262573
1977.914062 664.440491
1979.250977 781.598694
1982.188843 735.759949
1983.562378 685.334778
1994.643921 824.437622
END IONS
