BEGIN IONS
PEPMASS=512.12
CHARGE=1
MSLEVEL=2
SOURCE_INSTRUMENT=LC-ESI-qTof
FILENAME=f.negarg/Lung_project/final/Complete_Data_Lung/D3_GB1_01_25248.mzXML;
SEQ=*..*
IONMODE=Positive
ORGANISM=GNPS-LIBRARY
NAME=desethyl piperacillin M+Na
PI=Pieter C Dorrestein
DATACOLLECTOR=Neha Garg
SMILES=O=C1N(C(N[C@@H](C(N[C@H]2[C@@H]3N([C@@H](C(O)=O)C(C)(C)S3)C2=O)=O)c4ccccc4)=O)CCNC1=O
INCHI=
INCHIAUX=
PUBMED=17194717
SUBMITUSER=negarg
TAGS=
LIBRARYQUALITY=3
SPECTRUMID=CCMSLIB00000424811
SCANS=10208
95.008911 244.0
114.034813 152.0
126.988228 240.0
130.064972 172.0
132.042389 232.0
137.03273 760.0
143.031769 236.0
148.755219 248.0
151.612991 236.0
152.99231 184.0
157.519897 240.0
160.042862 236.0
161.054413 248.0
165.527435 192.0
166.022736 232.0
171.009613 332.0
174.050919 152.0
175.188217 232.0
182.024445 1712.0
183.019073 156.0
184.015152 528.0
188.029907 304.0
199.058594 244.0
213.538681 244.0
239.043716 252.0
240.050568 200.0
242.057068 248.0
250.549438 236.0
258.021332 232.0
272.884644 188.0
319.306976 252.0
321.55249 236.0
344.079742 220.0
350.876678 188.0
353.326202 232.0
362.011139 260.0
362.374329 320.0
364.842194 252.0
370.060089 156.0
371.847321 228.0
374.801178 328.0
392.450714 268.0
392.824646 212.0
394.812286 200.0
398.078613 4352.0
399.085388 884.0
400.080109 516.0
401.071686 196.0
406.283844 248.0
411.844635 260.0
417.848145 252.0
419.834686 220.0
421.874176 236.0
421.95993 252.0
424.841583 172.0
425.261932 288.0
428.829437 536.0
430.566986 228.0
432.836456 164.0
437.14267 272.0
438.799927 348.0
439.802734 240.0
444.487213 240.0
446.86261 204.0
452.59375 232.0
454.231995 304.0
456.809601 332.0
458.815247 296.0
463.304352 212.0
468.462036 200.0
468.807617 160.0
469.459991 188.0
474.468201 300.0
477.823975 180.0
487.455048 172.0
492.835846 224.0
506.861572 320.0
512.124695 380.0
513.130188 368.0
526.27179 244.0
END IONS
