BEGIN IONS
PEPMASS=1218.84
CHARGE=1
MSLEVEL=2
SOURCE_INSTRUMENT=LC-ESI-Orbitrap
FILENAME=f.lfnothias/1901_fungal_symbiont_annotation_confirmation/Pure_compounds/Pure_compounds_mzML/LeucinostatinAandB_1uL_sensitive.mzML;
SEQ=*..*
IONMODE=Positive
ORGANISM=GNPS-LIBRARY
NAME=Leucinostatin A M+H M+H
PI=Dorrestein
DATACOLLECTOR=lfnothias
SMILES=CC[C@@H](C)/C=C/C(=O)N1C[C@H](C[C@H]1C(=O)N[C@@H](C[C@H](C)CC(CC(=O)CC)O)C(=O)N[C@@H]([C@@H](C(C)C)O)C(=O)NC(C)(C)C(=O)N[C@@H](CC(C)C)C(=O)N[C@@H](CC(C)C)C(=O)NC(C)(C)C(=O)NC(C)(C)C(=O)NCCC(=O)N[C@@H](C)CN(C)C)C
INCHI=InChI=1S/C62H111N11O13/c1-21-38(9)23-24-49(77)73-33-40(11)31-47(73)55(82)66-46(30-39(10)29-43(75)32-42(74)22-2)53(80)68-50(51(78)37(7)8)56(83)70-61(15,16)58(85)67-44(27-35(3)4)52(79)65-45(28-36(5)6)54(81)69-62(17,18)59(86)71-60(13,14)57(84)63-26-25-48(76)64-41(12)34-72(19)20/h23-24,35-41,43-47,50-51,75,78H,21-22,25-34H2,1-20H3,(H,63,84)(H,64,76)(H,65,79)(H,66,82)(H,67,85)(H,68,80)(H,69,81)(H,70,83)(H,71,86)/b24-23+/t38-,39-,40+,41+,43?,44+,45+,46+,47+,50+,51-/m1/s1
INCHIAUX=FOAIGCPESMNWQP-QJMNAQKNSA-N
PUBMED=
SUBMITUSER=lfnothias
TAGS=
LIBRARYQUALITY=3
SPECTRUMID=CCMSLIB00005435719
SCANS=1293
71.073112 40937.316406
74.641121 33998.242188
81.069931 127498.242188
82.065521 36849.855469
83.085564 132503.4375
84.080833 11266428.0
85.084091 53751.597656
86.096428 574531.375
91.054054 45347.878906
93.069832 203121.375
95.085533 142567.109375
96.92823 29739.494141
100.075714 413124.96875
100.896469 31689.615234
102.091194 86522.734375
103.086739 49217.625
103.122849 55493.488281
111.080322 9376537.0
112.075607 978605.5
112.083054 50381.945312
115.086609 49983.125
123.116615 438694.6875
129.102097 595880.1875
143.118149 45630.980469
151.111908 39496.289062
157.133575 593400.9375
168.138214 73191.953125
169.121887 86439.945312
169.134918 56187.3125
171.113235 60173.949219
171.150131 142445.078125
174.159805 768509.0
175.161942 31173.375
187.144028 474082.25
190.124466 32802.511719
194.153732 30355038.0
195.157043 328060.375
197.12796 71958.757812
199.143967 306571.78125
199.181198 68952.164062
202.118332 41615.882812
214.155212 164840.890625
215.138901 622507.6875
222.148758 19619540.0
223.15242 205096.0625
227.175491 88959.671875
239.175629 301422.75
259.213043 448383.71875
284.196442 40785.5625
290.175781 35069.363281
297.217255 33901.199219
299.206299 50682.949219
312.227264 179574.890625
325.211975 93192.054688
328.222443 196262.96875
344.264343 159618.890625
399.259918 35985.914062
417.275085 327008.40625
435.284241 742493.9375
456.286194 49798.039062
457.348602 81389.648438
472.315369 45041.367188
474.295685 64720.585938
492.306671 476218.09375
518.358032 94727.828125
528.341797 195091.921875
546.35321 2123285.0
547.357056 40213.535156
564.364014 900405.125
564.448669 66773.976562
603.411743 157491.59375
613.394958 69788.578125
631.405823 1782499.5
649.417664 465007.84375
709.866638 34307.835938
741.190552 36935.070312
762.499512 188169.25
850.815063 42660.089844
875.592468 161098.21875
956.753113 36442.066406
960.639282 91882.476562
1045.678223 36162.164062
1125.752563 37796.042969
1129.9646 37002.3125
1218.839233 405343.0
END IONS
