BEGIN IONS
PEPMASS=489.143
CHARGE=1
MSLEVEL=2
SOURCE_INSTRUMENT=LC-ESI-qTof
FILENAME=f.philipwi/0_WilliamsFreshwaterCyanosStandardsConvertedTo_mzXML_v2/PW-35_P1-D-8_Dendroamide_A_488amu_01_15550_Scan797-824.mzXML;
SEQ=*..*
IONMODE=Positive
ORGANISM=GNPS-LIBRARY
NAME=Dendroamide A M+H
PI=Philip Williams
DATACOLLECTOR=Williams
SMILES=CC1C2=NC(=C(O2)C)C(=O)NC(C3=NC(=CS3)C(=O)NC(C4=NC(=CS4)C(=O)N1)C)C(C)C
INCHI=
INCHIAUX=
PUBMED=
SUBMITUSER=philipwi
TAGS=
LIBRARYQUALITY=3
SPECTRUMID=CCMSLIB00000424847
SCANS=814
54.065258 84.0
61.652954 112.0
87.656197 52.0
93.534065 84.0
102.905693 64.0
103.968834 72.0
125.606476 104.0
135.806778 80.0
136.044388 248.0
137.094894 32.0
137.647736 32.0
138.005966 424.0
138.179199 44.0
138.254135 44.0
138.314102 40.0
138.906952 28.0
139.003265 44.0
140.473953 36.0
141.268311 56.0
141.966171 36.0
143.313629 32.0
148.075989 88.0
152.246918 32.0
152.62468 56.0
153.070297 1216.0
153.271088 64.0
153.721237 32.0
154.060196 396.0
154.504623 104.0
155.0336 664.0
155.321777 48.0
155.528397 44.0
155.846527 44.0
156.018295 648.0
156.914658 48.0
159.56871 36.0
160.140915 32.0
163.44075 28.0
164.028015 88.0
164.387405 48.0
165.053284 104.0
165.226166 40.0
165.353195 52.0
165.410568 56.0
165.623795 40.0
165.812515 40.0
165.890945 36.0
165.973984 48.0
166.037491 3136.0
166.223175 36.0
166.305878 32.0
166.362915 80.0
166.494476 28.0
166.700165 40.0
166.757782 40.0
166.815399 48.0
166.930679 24.0
167.036041 356.0
167.647949 32.0
167.920425 28.0
168.033813 228.0
168.217911 52.0
168.851456 56.0
169.037369 128.0
170.807205 56.0
174.635544 76.0
175.099152 108.0
179.046326 100.0
179.358978 108.0
180.196564 36.0
181.046387 840.0
181.17334 44.0
182.053635 160.0
182.319794 68.0
182.600388 44.0
182.962326 40.0
183.063278 924.0
183.264221 36.0
183.542618 32.0
183.754837 160.0
183.839691 64.0
183.937912 84.0
184.047012 7540.0
184.214661 36.0
184.309845 36.0
184.416946 64.0
184.637863 36.0
185.050903 680.0
185.323715 44.0
185.410507 60.0
185.540726 40.0
186.042084 104.0
186.854111 36.0
187.647873 36.0
187.761398 40.0
188.041 56.0
189.106659 128.0
192.015823 128.0
192.357285 52.0
193.88089 36.0
194.085083 116.0
194.191666 156.0
194.484909 32.0
195.276871 48.0
201.05545 136.0
202.758255 60.0
203.035187 88.0
204.021866 40.0
206.013367 588.0
206.121353 40.0
206.240341 40.0
206.73497 36.0
207.115311 2540.0
207.432098 32.0
208.02681 120.0
208.122543 292.0
208.627304 24.0
209.077133 1612.0
209.152435 44.0
210.079849 124.0
211.065033 144.0
211.231766 40.0
214.262726 24.0
215.075256 84.0
218.94397 36.0
219.06189 200.0
219.614151 24.0
220.872314 40.0
221.005585 448.0
222.021347 240.0
225.519531 76.0
230.863586 28.0
231.057327 100.0
231.24147 40.0
232.007858 36.0
233.020859 576.0
233.359421 100.0
234.073853 188.0
235.138275 120.0
236.084091 96.0
237.018845 176.0
237.643951 56.0
238.996719 316.0
239.998291 72.0
245.959915 32.0
246.039902 132.0
246.970642 48.0
247.852982 40.0
248.113968 44.0
249.078812 132.0
250.015289 36.0
251.034302 108.0
252.045288 116.0
253.017731 68.0
255.895325 48.0
256.078888 92.0
257.065826 92.0
258.082123 84.0
258.859955 40.0
258.888306 36.0
259.040192 4524.0
259.666382 36.0
260.04422 376.0
260.514801 56.0
261.040314 640.0
261.359131 32.0
262.06842 276.0
263.087677 124.0
263.238068 116.0
264.062958 200.0
264.53241 32.0
264.822784 32.0
265.080475 96.0
266.724518 40.0
268.016968 40.0
268.298798 44.0
269.051086 48.0
269.145203 92.0
272.095276 312.0
273.10376 84.0
273.565857 40.0
273.650208 36.0
273.998291 44.0
274.076569 96.0
275.046967 368.0
276.075897 136.0
277.022583 116.0
278.028229 172.0
278.171356 32.0
278.415924 36.0
280.024323 80.0
281.070648 116.0
283.038055 152.0
284.023438 180.0
285.006378 140.0
286.072754 88.0
287.249146 112.0
288.492889 44.0
288.893646 36.0
289.073486 200.0
290.067566 812.0
290.586304 44.0
290.970917 52.0
291.067169 308.0
291.957062 36.0
292.062347 276.0
292.927216 44.0
293.063232 124.0
293.811584 32.0
294.064636 104.0
295.023956 108.0
299.035553 64.0
299.553864 140.0
299.752472 36.0
300.089478 80.0
300.171997 44.0
300.381866 48.0
301.06958 328.0
301.222107 84.0
302.04425 1428.0
302.407043 44.0
303.032928 608.0
303.127991 28.0
303.283386 48.0
304.034119 296.0
305.024231 64.0
305.373993 36.0
305.462311 56.0
306.198853 32.0
307.088531 3356.0
307.24826 92.0
307.512482 56.0
307.885468 52.0
308.07782 1336.0
308.377808 36.0
308.702515 32.0
309.085999 388.0
309.442139 48.0
309.52063 64.0
310.003052 92.0
310.088165 72.0
310.205109 32.0
310.429688 28.0
310.688049 128.0
313.187408 48.0
314.101837 92.0
315.402374 44.0
315.708099 24.0
316.841736 60.0
317.107605 1060.0
317.307129 28.0
317.98877 32.0
318.09668 1160.0
318.295746 32.0
318.46637 40.0
318.591522 28.0
319.082947 608.0
319.3125 44.0
319.720062 40.0
319.860596 56.0
319.960327 68.0
320.054565 3056.0
320.273102 40.0
320.351807 48.0
320.437378 40.0
320.616852 44.0
320.836426 100.0
321.057343 796.0
321.339478 48.0
321.830994 32.0
322.049805 256.0
322.631989 72.0
322.918304 52.0
323.055756 32.0
325.063354 88.0
325.259308 156.0
327.216614 36.0
329.445831 24.0
331.601379 48.0
331.891632 36.0
333.123749 76.0
333.373199 72.0
333.461212 52.0
333.787231 56.0
334.101746 36.0
334.474701 28.0
334.649597 44.0
334.766205 24.0
334.88501 44.0
335.118896 9468.0
335.297089 56.0
335.463043 28.0
335.661957 64.0
335.683228 28.0
335.703796 48.0
335.731079 60.0
335.933533 88.0
335.972473 48.0
336.109711 4768.0
336.367432 32.0
336.440186 104.0
336.529663 48.0
336.681702 40.0
336.770233 32.0
336.845795 112.0
337.082947 19748.0
337.236267 176.0
337.334686 56.0
337.364899 52.0
337.402039 40.0
337.482544 108.0
337.594635 44.0
337.818207 56.0
338.076752 4804.0
338.318573 36.0
338.414978 52.0
338.520538 40.0
338.693542 76.0
338.884216 64.0
339.076813 1904.0
339.447693 40.0
339.741364 124.0
339.925476 36.0
340.066986 344.0
340.211517 44.0
340.552551 40.0
340.670197 44.0
341.069305 100.0
341.317627 60.0
341.659241 44.0
341.83963 52.0
341.965637 44.0
342.142487 40.0
342.307587 40.0
342.826691 48.0
342.932922 84.0
343.464325 36.0
343.547028 40.0
343.688843 36.0
343.830658 56.0
344.090729 80.0
344.25177 52.0
344.871582 36.0
345.096558 92.0
345.214966 44.0
345.731659 44.0
346.732635 36.0
348.848663 36.0
350.577148 32.0
350.720398 44.0
351.532623 44.0
351.843445 52.0
352.333832 100.0
354.022949 112.0
357.184357 40.0
359.319916 148.0
359.50119 48.0
359.62207 60.0
360.154144 64.0
361.137817 324.0
361.328552 84.0
361.449707 48.0
362.140839 164.0
363.096375 1244.0
364.088409 220.0
364.960602 44.0
365.10321 248.0
366.093994 172.0
371.136261 64.0
373.362335 64.0
379.9935 40.0
381.148865 44.0
382.083923 96.0
383.218628 28.0
385.255341 92.0
388.15329 220.0
391.082672 44.0
396.331696 80.0
396.763275 72.0
398.326569 88.0
399.701752 44.0
401.692322 156.0
408.530731 108.0
409.884705 68.0
410.969482 108.0
411.137482 40.0
411.732269 40.0
413.091522 84.0
415.998718 36.0
416.102753 36.0
417.117615 100.0
419.059662 108.0
420.496307 128.0
429.075317 108.0
431.230316 40.0
440.144897 84.0
443.910858 120.0
445.160797 120.0
446.129669 40.0
448.354004 84.0
454.114014 104.0
455.087402 172.0
455.849243 88.0
457.306671 88.0
460.93988 128.0
464.134155 60.0
469.187866 40.0
470.182556 44.0
470.860077 32.0
471.127106 1532.0
472.116425 772.0
473.139648 220.0
473.450256 44.0
474.129822 172.0
474.310608 40.0
475.143951 144.0
476.437073 24.0
478.345154 28.0
483.055054 36.0
484.962341 60.0
486.184387 32.0
486.310913 40.0
486.715118 72.0
486.863525 80.0
486.980347 112.0
487.304199 32.0
487.492432 48.0
487.675415 36.0
488.088318 108.0
488.196411 76.0
488.362457 152.0
488.515137 64.0
488.568298 40.0
488.95932 80.0
489.138092 12444.0
489.378784 40.0
489.565704 84.0
489.803375 24.0
489.916229 80.0
490.141083 3064.0
490.414215 28.0
490.636078 28.0
490.795227 120.0
491.145447 2356.0
491.610809 40.0
491.811859 36.0
491.964233 36.0
492.129883 228.0
492.416779 52.0
492.586517 32.0
492.713867 52.0
493.142639 172.0
493.455109 76.0
494.314056 80.0
494.583374 52.0
495.278259 32.0
496.42804 52.0
497.294769 36.0
498.209686 48.0
498.574982 40.0
499.871063 44.0
500.71228 84.0
502.187897 32.0
503.097198 24.0
503.225891 40.0
504.370514 96.0
508.430084 32.0
511.395325 112.0
529.13324 92.0
529.411865 128.0
550.085083 32.0
558.459229 32.0
565.576904 80.0
600.138245 32.0
605.286926 124.0
619.325256 76.0
650.694641 32.0
704.648438 140.0
716.782043 80.0
784.886047 112.0
808.310364 52.0
837.069641 160.0
859.739868 120.0
870.238647 64.0
END IONS
