BEGIN IONS
PEPMASS=1334.6
CHARGE=1
MSLEVEL=2
SOURCE_INSTRUMENT=LC-ESI-Hybrid FT
FILENAME=f.novakj/Pyoverdin_PaA.mzXML;
SEQ=*..*
IONMODE=Positive
ORGANISM=GNPS-LIBRARY
NAME=Pyoverdin Pa A M+H
PI=Havlicek
DATACOLLECTOR=
SMILES=CC(O)C1NC(=O)C(NC(=O)C(CCCN(O)C=O)NC(=O)C(CCCCNC1=O)NC(=O)C(CCCN(O)C=O)NC(=O)C(CO)NC(=O)C(CCCNC(N)=N)NC(=O)C(CO)NC(=O)C1CCN=C2N1C1=C(C=C(O)C(O)=C1)C=C2NC(=O)CCC(O)=O)C(C)O
INCHI=
INCHIAUX=
PUBMED=26195308
SUBMITUSER=novakj
TAGS=
LIBRARYQUALITY=3
SPECTRUMID=CCMSLIB00000531488
SCANS=1
125.244919 4246424.0
288.35498 1700262.0
357.118469 5557277.0
398.144958 1890635.0
399.12915 13676464.0
400.132416 1281047.0
409.113403 1459135.0
426.140045 2008298.0
427.124115 7783255.0
444.150421 2702538.0
445.134674 1184250.0
511.192078 1136270.0
522.20874 2993835.0
523.192932 1525024.0
538.20343 1306634.0
540.219055 10112758.0
541.203064 27817834.0
541.221741 1228524.0
542.206482 4329439.0
565.214355 1212473.0
566.198242 3034793.0
567.201172 976922.0
580.214111 4618438.0
582.240845 2139045.0
583.225037 15301136.0
584.208862 1340540.0
584.228271 2775166.0
591.229553 1148789.0
592.213867 9135582.0
593.217407 1476170.0
600.251221 1621300.0
601.235168 5029275.0
602.238708 958980.0
610.224731 1332545.0
625.235596 2577203.0
635.219238 1835790.0
652.246155 3100537.0
653.230652 4813271.0
654.233582 1137462.0
670.25769 3367958.0
687.284363 1801267.0
722.286926 1258623.0
740.299561 1775810.0
758.310486 1025030.0
765.29425 1708919.0
766.327576 1138132.0
767.309387 1215532.0
782.318848 1655157.0
783.303406 5807055.0
784.308594 1274410.0
786.305176 1327328.0
793.288513 1155165.0
800.331787 4149733.0
801.334717 1033282.0
810.315369 1642374.0
811.299988 2831842.0
827.434692 1726427.0
828.327026 4340785.0
829.330688 1082514.0
844.461426 1123798.0
845.447449 1022648.0
862.473816 2449772.0
872.45813 2083446.0
873.443054 2144734.0
890.468262 14126334.0
891.472107 3268972.0
914.468811 1623950.0
922.43573 1498677.0
925.432739 1186458.0
940.444763 1058234.0
942.463623 1138356.0
957.473572 2269206.0
959.490417 2424600.0
967.458618 1508636.0
975.485413 1746740.0
985.469238 9882205.0
986.473083 2388707.0
1003.479553 6253525.0
1101.792603 1183809.0
1101.85083 1667401.0
1102.475464 1230752.0
1102.49585 1391011.0
1165.526367 1341704.0
1190.522949 1246094.0
1192.539185 1413258.0
1193.522827 2119941.0
1199.543213 1277423.0
1207.547974 2143168.0
1208.532349 3055671.0
1209.528931 1891503.0
1210.549194 2183466.0
1211.526001 1739167.0
1217.550537 1367916.0
1218.518311 2016478.0
1220.533325 1356235.0
1225.559448 3739668.0
1226.554565 2044039.0
1228.559692 3686766.0
1229.562866 1691105.0
1235.543457 4269191.0
1236.52832 5377270.0
1237.521729 2397541.0
1237.561035 1523049.0
1238.543823 5092823.0
1239.546997 2144838.0
1240.572144 1343160.0
1244.566162 2784368.0
1246.571411 1962314.0
1252.571411 4043728.0
1253.554443 11973689.0
1253.577271 1814587.0
1254.547607 3810466.0
1254.560181 4621476.0
1255.522583 2042122.0
1255.57251 1520911.0
1256.554199 7665015.0
1257.557861 2736608.0
1258.581543 3089995.0
1259.584961 1474228.0
1260.597778 2815774.0
1263.540039 2395215.0
1268.567017 2099793.0
1269.548706 1577140.0
1270.581421 10410781.0
1271.565552 6417280.0
1271.585938 3673986.0
1272.559082 6015972.0
1273.563599 1895497.0
1274.566406 4455597.0
1275.57019 1608977.0
1280.565308 3439358.0
1281.550903 7565150.0
1281.573242 1886049.0
1282.554565 3592128.0
1286.57605 7655750.0
1287.578369 3449254.0
1287.607544 3365289.0
1288.593018 25305608.0
1288.615967 2114058.0
1289.596191 10777191.0
1297.590942 1938778.0
1298.57666 23397814.0
1299.560669 25437714.0
1299.582886 7865876.0
1300.564697 11413102.0
1300.595703 1534577.0
1315.603149 9800642.0
1316.586548 80161816.0
1316.610596 6491164.0
1317.591309 30092402.0
END IONS
