BEGIN IONS
PEPMASS=1227.0
CHARGE=1
MSLEVEL=2
SOURCE_INSTRUMENT=DI-ESI-Hybrid FT
FILENAME=Syringomycin_E_FT_1227mz.mzXML
SEQ=*..*
IONMODE=Positive
ORGANISM=GNPS-LIBRARY
NAME=Syringomycin E M+H
PI=Dorrestein/Moore
DATACOLLECTOR=Roland Kersten
SMILES=ClC[C@@H](O)[C@H]1C(=O)OC[C@@H](C(=O)N[C@H](C(=O)N[C@H](C(=O)N[C@H](C(=O)N[C@H](C(=O)N[C@H](C(=O)NC(=C/CC)\C(=O)N[C@@H](C(=O)N1)C(O)C(=O)O)Cc2ccccc2)CCC/N=C(\N)N)CCN)CCN)CO)NC(=O)CC(O)CCCCCCCC
INCHI="InChI=1S/C53H85ClN14O17/c1-3-5-6-7-8-12-17-30(70)25-39(72)60-37-28-85-52(84)40(38(71)26-54)67-50(81)41(42(73)51(82)83)68-46(77)31(14-4-2)61-47(78)35(24-29-15-10-9-11-16-29)65-43(74)32(18-13-23-59-53(57)58)62-44(75)33(19-21-55)63-45(76)34(20-22-56)64-48(79)36(27-69)66-49(37)80/h9-11,14-16,30,32-38,40-42,69-71,73H,3-8,12-13,17-28,55-56H2,1-2H3,(H,60,72)(H,61,78)(H,62,75)(H,63,76)(H,64,79)(H,65,74)(H,66,80)(H,67,81)(H,68,77)(H,82,83)(H4,57,58,59)/b31-14-/t30?,32-,33-,34-,35-,36-,37-,38+,40-,41+,42?/m0/s1"
INCHIAUX=N/A
PUBMED=N/A
SUBMITUSER=mcruesemann
TAGS=
LIBRARYQUALITY=3
SPECTRUMID=CCMSLIB00000075328
SCANS=24
335.706299 493.649261
336.124695 1171.452881
336.128754 5673.717285
336.1409 503.211639
337.057617 568.920349
337.127106 858.264526
338.054291 551.485107
338.758484 450.927582
340.051086 485.140411
340.283203 618.625671
341.276001 539.944946
342.473816 439.661407
342.998627 502.574249
343.571472 582.626099
343.73111 462.505096
345.101257 491.604767
346.719666 811.146057
347.224365 487.771942
347.694183 549.406799
349.222412 498.859222
349.399506 483.545959
349.573395 556.039551
349.748566 469.151398
350.697998 446.438263
351.942688 468.298462
353.206604 540.187195
353.214661 666.200562
354.211456 472.105988
354.288635 445.797211
356.688721 489.32486
358.665009 567.313293
359.381958 507.401306
359.501404 430.175262
360.311737 484.605438
360.499573 524.278198
360.621796 545.789368
362.140625 473.865967
362.946045 494.932007
363.614594 634.55658
364.329407 540.962952
365.943146 506.366608
366.423981 490.02829
366.501038 528.755371
368.17099 566.48761
368.722321 507.156006
368.859833 491.225983
369.204041 954.484558
369.63446 456.216248
370.187286 2367.736816
370.299103 525.255371
370.454407 696.269897
370.712524 447.154114
372.71463 543.183899
372.740021 629.916138
372.845917 501.138824
373.18158 569.950256
373.369202 475.048096
376.0578 468.07663
377.119232 612.864929
377.155121 2516.925049
379.464722 492.197845
381.188263 1047.757202
381.496613 575.300903
384.100861 517.631042
384.339447 517.311951
385.515381 456.080658
386.975433 474.16626
387.213806 4992.01123
389.701202 673.184509
389.949219 584.336548
390.039368 509.492676
391.272583 450.259583
391.399109 462.129028
391.774536 433.439178
392.701752 861.005493
393.236328 418.175323
395.381744 556.81012
395.66571 447.537048
396.266388 504.415497
396.555206 818.763245
398.178375 388.203888
398.180634 405.589905
399.032074 506.668274
399.228882 444.564148
400.206207 475.487762
400.945984 475.440033
403.327728 452.723022
403.447968 580.903748
404.473694 464.427155
405.22464 2324.212646
405.399475 461.301758
406.349487 512.467285
407.169922 462.849243
407.455872 560.718628
408.340729 522.932068
408.347412 434.6185
408.435547 544.049133
408.439209 470.743195
408.653107 466.283722
410.665741 506.982178
414.411133 544.771851
416.514374 549.585938
417.149475 567.914917
417.436646 406.192932
418.996155 451.370483
419.010071 505.311859
419.355927 631.284668
419.525513 549.927246
420.494904 562.036682
423.78537 570.783203
425.322601 610.099854
425.530151 515.558044
426.327911 466.244537
426.95871 690.070557
427.067566 461.553925
427.208771 739.520691
427.435669 552.079346
429.224518 2058.450684
429.568756 491.93512
430.531036 530.921753
430.558777 562.078979
430.982025 523.082153
431.524597 585.005798
431.858215 550.46521
432.480591 515.93573
432.994873 536.995605
433.127808 556.911316
433.574585 642.833923
434.410522 495.738586
434.544159 772.608521
435.00415 432.999359
435.710999 541.031433
435.803589 481.028656
436.03067 438.580139
437.496918 446.504333
438.842407 437.914978
438.955719 659.940247
439.095764 487.553223
439.123413 446.32782
439.616943 651.121643
441.789551 446.801483
442.760681 516.812683
443.229095 509.421661
444.235718 3281.243164
444.249756 501.15625
444.523834 470.894165
445.238495 844.155273
445.441925 724.436279
446.251038 6994.988281
447.167267 557.329102
447.254517 1147.582153
448.084808 442.30603
448.087463 439.788025
450.169861 693.730347
451.288849 537.456726
451.815582 489.835327
452.240173 936.958984
454.302887 1053.380127
455.285431 679.484009
455.370148 586.627441
455.450928 750.223022
456.23468 730.725525
458.212433 1969.105591
458.792267 539.763123
460.729584 594.981567
461.771301 593.350098
461.892151 508.421844
462.427582 476.783234
468.462311 557.65564
468.641541 542.396362
469.523682 455.961823
470.241577 540.434265
470.250854 731.36908
470.31604 448.79248
470.560059 578.811646
471.793945 532.475586
471.840912 536.882385
473.066345 530.097229
473.251709 566.461304
473.331573 635.020569
474.654572 552.310364
474.737183 450.905609
475.50415 509.459076
475.934875 583.548096
479.909424 551.854919
479.931366 631.315247
481.1828 2142.893555
482.187012 902.507263
482.213989 608.81665
482.299164 657.08136
483.034058 531.707886
483.128571 505.081268
483.187531 733.356506
483.198608 6050.628906
483.461395 475.853729
483.913635 591.475342
484.201538 1396.290161
484.896912 645.123474
485.634857 488.74826
486.727722 500.666779
486.826538 461.857391
487.277832 1900.484009
488.282288 594.522217
491.53183 507.899536
492.711426 497.500427
493.297119 532.59967
493.339661 592.98938
494.617279 475.029083
495.02063 547.386902
495.324677 579.618835
496.182404 488.912354
498.133209 600.848938
499.137268 500.381378
499.19397 1233.896362
499.277954 1848.782959
499.496338 707.595337
500.19043 513.066833
500.212646 3331.83667
500.22525 32586.619141
500.280121 905.889709
501.209229 1646.994873
501.21814 1088.575806
501.228668 8773.430664
501.522705 494.83786
501.810242 625.06488
501.944611 585.5672
502.232361 651.241943
502.252563 871.590759
502.715057 675.007629
502.851501 488.737122
503.440063 519.154724
503.627777 468.346222
505.810883 608.664551
506.197144 479.162903
506.20639 488.834167
507.867432 612.760254
509.968048 523.687805
511.278839 1093.210449
511.309113 687.568909
511.389313 574.949036
511.749268 554.533752
512.187988 480.648468
512.26178 580.02301
512.428101 504.540527
513.706238 485.943939
515.522766 590.615051
517.275269 870.88562
517.288452 6011.59375
517.676147 457.545502
518.222778 3086.805664
518.235962 27092.458984
518.778992 948.130432
519.227051 988.356567
519.239136 6590.803223
519.329285 1937.863037
520.242065 580.232178
520.318176 648.330811
520.331848 825.028503
520.372009 557.889404
522.158569 571.512146
522.6875 484.919586
522.725159 728.088379
525.484741 544.777832
528.087158 459.077667
529.071228 462.553101
529.28772 1714.346191
529.830444 534.680725
532.492615 497.095154
533.078857 516.292297
533.318787 588.88147
534.945679 533.011292
535.265076 638.022339
536.174133 721.243103
536.246765 6169.329102
536.356445 741.267273
537.250305 1725.564209
537.28894 3620.926514
537.324646 1168.953369
537.339661 19025.263672
537.545349 670.653198
538.240845 1066.220825
538.292908 668.114624
538.343079 5470.437988
538.376099 535.761353
542.235596 846.476379
542.583862 586.460571
543.2677 2627.0979
544.251831 882.305298
544.270508 666.197632
548.541382 547.673828
550.527039 574.934143
550.738403 499.026184
550.796814 487.365631
551.079102 464.500244
554.236145 710.289001
555.267517 3318.727783
555.298889 1334.934326
555.349243 879.119568
555.693909 570.997864
555.715088 484.590912
556.204224 716.030029
556.252014 1505.010376
556.27179 1087.130493
556.298157 914.703552
557.234436 464.777344
560.636658 590.503784
561.263367 1619.26062
561.278259 10704.868164
562.281372 3260.684326
562.366333 524.58429
563.742493 532.807739
563.756836 588.651733
563.808533 706.572205
565.252014 4179.779785
565.78479 582.279541
566.255676 1535.251709
566.408813 471.782593
567.597534 444.744232
568.294373 1075.850586
568.514709 499.232117
568.797241 615.026123
569.648926 558.553589
569.853821 609.224304
570.365845 531.507446
571.902344 580.300903
572.899658 943.380005
572.9599 570.197754
573.03363 505.136932
573.099915 618.383057
573.149231 1090.731445
573.239502 846.001465
573.259705 589.939148
573.26355 583.27478
573.278076 10127.773438
573.655579 459.855133
574.168091 467.464447
574.213196 651.775879
574.281372 3321.248291
575.48999 606.708557
575.596619 520.387939
578.213928 616.320129
579.24292 1390.895874
579.895447 820.322144
580.218994 577.202698
580.24762 853.889832
581.248657 1198.764404
582.196228 986.364807
582.23114 957.846863
582.278503 4361.285156
582.315369 1245.336182
583.031372 546.92511
583.048706 507.299377
583.199097 506.647156
583.243713 655.796387
583.26239 8860.379883
583.28241 1058.119385
584.24762 947.177673
584.26593 2311.819824
584.781799 501.727966
584.817566 539.567505
585.03772 536.040833
586.266602 660.433655
586.284912 1307.058838
586.386963 527.388672
586.501038 692.537659
586.511169 951.126587
586.530884 697.838623
588.738159 600.206177
590.211243 564.259033
590.954651 564.907593
591.092041 760.572876
591.220581 438.120819
591.24353 1285.230103
591.389404 558.015137
592.926208 469.490387
593.239502 1039.469971
593.267883 2670.328857
593.300781 745.275635
593.635132 518.624939
593.842773 670.795471
593.856384 526.852417
594.250488 577.899231
594.27002 1067.548218
594.482849 783.868042
595.441528 565.762268
595.785034 3744.383545
595.844299 497.000732
595.885437 693.769775
596.287292 1969.903809
596.748962 633.634705
596.949646 559.258972
597.117676 612.814148
597.236938 1054.769775
597.254578 7037.266113
598.052307 614.826782
598.068115 638.797729
598.225647 4920.627441
598.258423 2285.40625
598.884033 528.238525
599.229919 1599.539551
599.249939 1574.474121
599.258911 2090.070312
600.241272 3094.270508
600.259888 626.160645
600.271606 1637.161621
600.289001 16992.009766
601.05249 531.046753
601.243225 1179.734131
601.273376 2763.449219
601.292419 4259.097168
601.487488 463.263214
602.17334 458.626312
602.29541 529.978821
602.476746 533.329346
603.382385 588.314636
603.977783 573.566956
604.457458 942.53717
605.468079 481.818817
605.580261 701.673645
605.645142 627.792297
605.762573 533.517578
606.170898 672.470215
606.31842 563.687256
608.687256 562.059753
609.254761 1205.394531
610.191956 2722.67627
611.194885 941.446777
611.252136 813.591736
611.380615 527.594482
611.808838 527.309998
612.190002 1092.308838
612.981689 495.679749
613.19458 539.549988
613.297913 652.938477
613.58313 516.249634
613.906921 692.242493
614.296997 1171.725586
615.161316 590.260925
615.196716 748.427002
616.068604 575.654175
616.190613 735.688782
616.217346 1534.980957
616.23645 12461.800781
616.590027 491.382599
617.198853 624.648071
617.238831 3437.07959
617.250671 1546.299316
617.267883 17597.21875
617.351013 888.393433
617.42572 516.596497
618.207947 819.111389
618.251831 1629.225098
618.270996 5532.433105
618.282959 1983.884521
618.2995 15385.353516
618.39502 592.373657
618.81134 582.109741
619.033936 593.775208
619.069519 609.265808
619.272095 579.653992
619.303284 4412.398926
619.325806 942.664978
619.347473 576.80072
620.411499 502.418274
621.529663 659.954651
622.666321 486.355957
622.788818 620.041992
623.155396 584.640442
623.178589 455.943146
623.227478 1139.646851
623.247559 768.445312
623.2547 816.509277
623.581055 557.300659
623.799988 535.482056
625.319763 558.345215
625.395691 596.661865
626.304749 2205.495361
626.388489 616.806824
626.436951 595.078247
627.153687 480.660248
627.192871 926.625549
627.214539 518.632507
627.308655 773.485107
627.751526 518.342468
627.882751 625.214172
628.504883 500.900848
629.236633 694.002136
629.384094 1163.2854
629.406738 996.371155
629.419678 888.745361
629.451782 1204.6698
629.631531 461.185272
630.868408 488.070953
630.896729 2153.654785
630.919495 498.780609
631.90802 712.506348
633.307617 562.584106
633.377686 675.687927
633.410645 668.025818
634.202759 3510.639648
634.291443 726.230774
634.966003 657.510193
635.187012 693.526001
635.234192 5948.066895
635.258972 5140.115723
635.278442 41094.328125
636.199768 638.556213
636.218689 2693.161621
636.238098 2120.766602
636.262329 1703.491699
636.281921 12723.641602
636.475586 541.293823
637.23053 2088.773682
637.285461 1656.313599
637.866211 617.288391
638.215942 1221.826172
638.304688 1171.437988
639.218262 1023.633545
642.062195 638.688599
642.795837 780.651245
642.910461 1218.768311
643.227051 1103.071533
643.330566 3177.248291
644.333984 1116.810913
644.476257 587.925537
644.622498 663.902649
644.877014 552.700317
645.383545 565.174194
646.242126 624.990417
646.561401 548.548523
647.315491 685.788025
647.637207 667.868896
648.538025 580.383484
648.546448 492.698334
648.705017 600.038452
648.788452 525.941101
649.447083 642.091919
649.57489 556.274658
650.454712 763.974426
652.191467 4234.568848
652.213013 49779.449219
653.195068 1156.079712
653.216431 17701.652344
653.244629 25295.566406
654.188904 1915.88916
654.210022 18943.15625
654.229248 8805.375
654.248352 8601.160156
655.068542 670.090576
655.124084 1077.44397
655.147156 704.401733
655.213867 4430.770996
655.241272 10195.992188
655.329895 1411.879761
656.225403 2991.007812
656.245361 1806.85437
656.838867 495.010651
657.222961 543.091003
657.653809 520.367065
658.29541 1185.411011
658.403992 1072.39978
660.042786 602.753296
660.099243 643.743835
660.103577 656.727234
661.341431 3539.400635
662.14624 553.155579
662.281128 928.766785
662.34552 979.838989
662.531921 571.442383
664.27594 777.47345
664.285583 1052.48291
664.539429 937.522095
664.557129 1157.787109
665.288452 774.696228
667.332336 632.347046
667.461975 1705.730957
668.654236 507.528076
668.677551 763.746155
668.728577 881.07135
668.750549 869.056213
668.774658 867.40155
671.209167 3092.963379
671.232483 28151.546875
671.255005 354108.78125
671.272827 1914.122681
671.282898 1798.460938
672.162964 568.630188
672.236023 9387.379883
672.259033 103392.359375
673.129761 588.777832
673.17218 774.606262
673.177429 803.919067
673.229126 10705.057617
673.251953 102753.351562
673.341858 1828.385376
674.232971 1589.585571
674.25592 20659.597656
674.269592 781.590393
674.347229 671.181519
674.375061 928.108032
675.32019 849.202393
675.429871 3278.799805
675.446777 510.192596
675.651978 560.653809
676.4151 1200.008057
676.433777 1002.572754
677.234436 779.772949
677.429565 504.845886
679.124878 462.666107
679.308533 1206.891357
679.410339 529.754883
681.240112 2032.512085
682.169617 763.307678
682.191772 1014.581055
682.242981 1441.80542
682.270081 991.695984
682.294617 7001.030762
682.738525 530.576355
683.236267 640.303772
683.298462 2589.589111
684.3573 1203.319092
685.363647 772.841797
690.359131 2130.835693
690.430969 619.104797
690.600098 465.585327
691.363708 1349.234863
691.706604 519.946411
692.35553 627.738159
693.236328 593.259521
693.416443 1630.612183
693.441101 13937.408203
694.261841 622.731567
694.444946 4587.282715
696.51178 535.078979
696.602661 1030.557251
696.625854 1631.163574
696.894958 662.463196
696.994324 900.879456
697.027588 1015.635681
698.32373 589.720093
699.321655 5613.044434
700.280945 1130.589478
700.30542 14454.37207
700.326172 1782.512451
700.353821 647.714417
701.172363 862.474792
701.309387 5148.18457
701.384399 811.006775
701.6427 606.118835
701.941956 538.205688
701.950562 527.387878
703.012512 548.861816
704.798767 570.33374
705.670837 469.606628
705.955139 796.818542
705.993774 642.947144
706.037476 779.064697
706.050903 670.778992
706.130371 629.521667
706.14563 733.320679
706.149597 777.441223
706.165161 1679.171021
706.191833 2887.84668
706.214905 1338.210083
706.222473 1668.030762
706.236267 822.02179
707.256592 1204.105835
707.481323 564.32428
708.257874 642.305481
711.264526 632.924622
711.282471 1046.723145
711.307129 793.679138
711.450439 2241.44751
712.455811 1079.414551
713.295898 697.307007
713.344177 507.937408
713.353699 494.89975
716.047791 678.364563
717.306396 2796.316406
717.331787 21188.449219
717.950073 525.76709
718.271667 4560.000488
718.30603 873.89917
718.335632 7500.983398
718.364746 686.786804
719.255981 2896.969727
719.274841 1602.70166
719.337952 1062.617065
719.39624 713.814697
720.242676 547.094482
720.257507 863.424622
720.270264 1473.172485
720.351379 585.65033
721.253052 1098.196167
722.083496 1038.063232
722.255615 620.632141
722.690125 485.943207
723.710388 593.327576
725.217102 656.471375
726.586426 558.49115
727.535583 492.269135
731.438477 598.9823
735.271362 733.966919
735.298096 8899.041016
735.341858 11329.991211
736.255798 4948.853516
736.281799 49093.265625
736.346313 3340.703613
737.258545 2381.196045
737.284668 18632.257812
737.345703 981.669556
737.415222 842.369934
737.436829 637.425049
737.830566 785.634155
737.852112 755.761108
737.866089 1002.491211
738.252075 2068.58374
738.277832 17909.673828
738.393494 546.26416
738.508606 655.726868
739.28241 4264.439453
740.34906 595.488892
741.643372 617.944763
742.482056 589.067322
742.521179 1297.40918
742.550476 1915.780762
742.56958 962.238098
743.421997 740.833496
743.88324 540.561951
746.541504 556.421814
746.572632 783.369446
748.193542 992.38855
748.606079 695.819763
749.382751 1306.152466
753.249451 699.778259
753.259766 581.590332
753.279846 11572.732422
753.30835 151015.140625
753.330811 835.613403
753.755676 769.875671
753.889282 879.245544
754.288391 5298.036621
754.312134 55981.089844
755.25293 663.58783
755.276733 3878.887939
755.305115 44157.640625
755.320557 5388.820312
755.395935 861.971191
755.53833 540.859558
756.285095 1028.027344
756.308594 9639.033203
758.860413 527.603638
764.313843 576.85498
765.20752 514.130676
767.020691 510.419952
767.395386 6391.562988
768.398682 2777.397949
770.378845 539.673889
770.508301 573.76001
770.792969 551.937622
771.289734 9182.040039
771.318787 72078.976562
771.997437 744.787476
772.041443 868.834412
772.293701 2733.0
772.322144 22162.828125
773.285706 2392.682617
773.315125 16635.826172
773.333496 1489.347778
773.659973 462.430481
774.318848 3934.120117
776.926819 563.260193
777.348267 562.413208
778.058716 570.078735
778.281982 539.215881
783.56073 684.435364
785.375366 1108.088745
785.406006 14042.158203
786.409363 6050.950684
787.018188 544.855713
787.382812 871.414917
787.412048 878.885132
789.683228 614.350464
794.64325 526.908203
796.896301 936.337097
798.105164 529.041748
799.989197 635.292053
801.368835 776.252441
801.912598 1138.202881
801.948853 605.581482
802.203369 573.740417
802.641296 699.533264
803.415527 1857.188965
803.712891 660.646057
804.416748 609.455078
805.394409 687.182983
807.647339 469.814148
808.420654 1542.365479
808.707458 612.193176
809.29834 637.837585
809.33197 692.394409
809.425659 928.090088
809.460571 748.193176
812.135925 566.425842
813.525452 514.387939
814.140686 624.584839
817.396729 701.662781
817.886353 532.375305
820.435547 502.498962
821.367981 595.879944
821.382629 1183.907471
822.311157 546.675781
822.357056 451.071014
822.367798 433.771637
822.401672 542.355469
822.498779 838.345398
823.335266 532.490112
824.416626 1802.375
824.835388 598.594727
825.418335 1323.294189
826.336731 630.231628
826.432922 2444.998047
827.436157 1403.581299
827.643982 530.762939
828.328491 534.307922
828.39856 620.288147
830.525085 2201.615234
831.528625 1025.30249
832.386475 1102.461914
833.389221 911.192993
834.385376 594.39325
836.256836 594.016907
836.41626 2196.620361
837.41925 1363.378174
837.663208 588.647827
839.38208 1956.013062
839.526428 814.379333
840.382935 811.235229
840.481567 619.188232
840.509216 5010.24707
841.512207 2064.144287
841.920105 499.773071
842.427734 2471.797852
842.5177 758.808411
843.428101 1179.897827
844.384521 997.317627
844.444275 1057.165649
845.385315 901.326477
845.53717 542.632874
846.461121 1199.827637
846.717529 467.15213
846.729614 456.324951
847.571655 552.82959
850.395569 2918.344971
851.402527 1630.44458
852.396912 616.013977
853.37323 720.260071
854.42688 5194.219727
855.432861 1983.814331
855.581055 531.168701
856.239197 717.557739
857.105408 597.27063
857.388733 2247.832275
857.533875 1438.421387
858.391479 1323.359253
858.519409 3594.726074
858.791809 572.983337
859.522156 1911.393066
860.130981 541.969727
862.396851 5915.888672
863.398865 3172.98999
864.34906 903.973145
864.400208 656.01239
867.4776 525.77124
868.346558 502.669678
868.365479 544.631531
868.406982 4927.910645
869.024475 539.628113
869.407776 2285.016357
870.314148 561.075195
870.388733 521.970093
871.272705 700.792236
871.301392 567.193359
871.364075 679.622925
871.376221 665.787476
871.40387 999.159241
871.472168 842.09436
871.599426 832.656677
871.620056 538.724548
871.842896 530.535828
871.877441 595.042236
872.055786 701.253174
872.165527 622.354187
872.193909 2265.419189
872.212585 1478.410767
872.228516 867.189636
872.436768 1576.726562
875.547241 1650.540649
876.542542 894.066284
879.333923 734.742371
879.409973 583.581604
879.429749 440.843384
879.456421 2091.62793
880.184937 610.04425
880.368652 1758.994751
880.40625 19072.744141
880.461487 1277.139404
881.409668 11206.0
882.40918 2306.514648
883.384033 755.646301
885.7052 639.960632
886.416992 3910.379883
887.421753 1826.210815
887.525696 812.249023
888.526245 532.256042
891.161438 566.491516
892.462585 599.032349
893.537415 1108.649048
893.646179 508.163177
894.429932 676.185303
894.541504 752.55481
895.473511 602.307434
897.469604 7233.370605
897.696472 523.346863
897.988525 478.46524
898.150269 603.10614
898.375977 4468.474609
898.41687 57892.402344
898.472961 4076.138184
899.380432 1757.863159
899.420349 29176.923828
899.476196 1479.043213
899.724854 760.464783
900.423035 6065.93457
901.420959 762.311646
902.39209 1100.134277
903.01532 499.117126
903.230957 534.057312
903.395142 824.669189
904.131531 620.80957
904.382385 1137.276001
905.495056 563.553345
905.536438 4615.871582
906.36676 789.144287
906.53949 2718.588623
907.039124 542.765381
908.406067 846.011536
908.685669 692.374207
909.469604 2665.474121
910.418518 727.475464
910.473328 806.865906
911.542969 629.216064
913.404785 962.522644
914.409546 1033.755005
915.43811 519.35199
915.480774 7694.243652
916.384277 4723.128906
916.427734 56336.519531
916.484253 4451.628906
917.387695 1476.032471
917.43103 24548.857422
917.486694 451.292786
918.434692 4434.850586
919.437317 958.981873
919.609985 588.617065
920.401245 1766.429565
921.400818 1557.340332
922.390625 1176.218384
923.395325 652.828369
923.449158 4085.812256
923.502869 1883.310181
923.546448 24161.84375
924.450562 2741.104004
924.507324 738.030151
924.549805 13724.74707
925.405334 612.660034
925.457275 646.714111
925.551636 3003.960693
926.409363 1030.310791
927.478943 2836.728271
927.80835 568.259216
928.484375 1360.325562
929.37793 462.374237
931.417358 2052.76123
931.541931 510.601929
932.417419 1317.505371
933.254944 558.754578
933.781433 485.367798
935.447632 1506.201416
936.066284 519.070801
936.451294 1135.197388
937.432495 651.173767
938.411499 3469.644531
939.416321 1380.161377
939.682495 508.30957
940.400879 941.90387
940.775208 503.070099
941.40686 1111.887085
941.458679 7861.878906
941.51178 2457.416748
941.556885 24361.314453
941.896912 668.679199
942.462341 3793.0625
942.5177 960.591675
942.559814 13063.212891
943.120361 676.96405
943.418701 2306.758545
943.460022 986.87677
943.562561 2439.530273
944.41803 1326.537109
944.565369 571.282532
945.414368 531.092529
945.641357 608.636658
946.124939 630.888794
946.798096 650.941101
947.56366 826.391968
948.205261 624.959167
949.375366 695.906494
949.427612 3482.384766
950.431946 1861.537476
953.004639 485.187286
953.458435 3599.677246
954.462646 2033.271362
954.547058 601.337097
955.046997 699.204041
955.094238 634.037537
955.146973 938.799133
955.185242 1231.559082
955.211182 2152.689941
955.257202 2894.637939
955.289246 2471.077393
955.315125 1358.325439
955.436218 806.636108
955.466248 752.724487
955.852661 632.975037
955.897461 1204.277222
955.946167 3735.960693
956.02948 691.376526
956.377869 556.281311
956.422791 4276.060059
956.456055 639.565308
957.427002 2412.76416
957.517822 771.664001
957.675842 466.891937
957.853149 538.174988
959.428467 1146.918701
959.469849 4432.589844
959.567688 4029.494385
960.474976 2402.880615
960.572021 2067.983154
961.378174 669.415161
961.42865 13941.630859
962.385925 864.961243
962.431885 7871.195801
962.55603 1119.672241
963.43512 1761.983154
963.560791 737.794312
963.733154 518.799561
963.86908 681.814331
964.575256 3429.266846
964.608582 1090.437134
965.30957 711.06189
965.577332 2308.916992
967.070007 542.927673
967.347961 595.794373
967.439453 5078.033691
968.445496 3050.919678
968.551636 594.291016
969.359375 698.780396
969.426575 839.151733
969.454712 749.641907
969.623535 564.43158
970.527954 854.580444
971.442993 533.52594
971.470642 4221.533691
972.472717 2345.539795
973.39325 585.857178
973.449463 1130.419556
973.835266 543.912231
974.075256 935.909607
974.324585 665.375977
974.389221 1896.173828
974.454773 558.199341
974.554321 815.164734
975.369812 672.633911
975.389893 583.744751
975.535645 684.499695
975.56189 693.034241
977.435913 1180.060425
977.48291 940.939514
978.312256 633.234253
978.442078 939.135986
979.389771 1692.937866
979.43811 19827.617188
979.484802 792.805359
980.391113 903.915649
980.442139 11396.03418
980.527466 934.69342
980.567444 3145.284424
980.656128 560.473328
981.445435 2463.215576
981.540283 487.161041
981.570862 2821.724121
982.529602 1049.027588
982.584412 5632.701172
983.588135 3738.070312
984.584534 837.126221
985.449768 2957.979492
986.452209 1872.949707
987.057678 662.9599
988.02533 748.467834
988.537048 1698.536621
989.538208 873.629517
991.510437 610.663025
991.681519 598.901001
991.960632 473.004883
992.39917 3279.030762
992.568787 3922.591309
993.360046 514.576111
993.402832 1599.356079
993.571106 2854.535156
994.396912 940.577148
994.426392 678.97583
995.442322 679.701843
997.390991 1445.039917
997.449341 32767.0625
998.395569 994.566223
998.452393 19125.367188
998.580444 2866.006104
999.402954 840.610046
999.455811 4633.550293
999.582947 2450.592773
1000.536682 3664.545898
1000.595093 2356.107178
1001.152161 578.132568
1001.540405 2151.387451
1001.598572 1778.37439
1002.546936 589.045532
1003.417786 1454.769043
1004.419556 1092.954224
1006.420715 708.69458
1006.498413 643.628235
1006.54657 3569.130615
1007.553406 1761.130249
1008.244934 645.776611
1010.40863 750.816528
1010.580139 5157.911621
1011.546509 796.099182
1011.583008 3893.373535
1012.543823 811.48877
1012.58551 839.412659
1013.064575 685.500061
1015.370239 670.949097
1015.393677 2145.839844
1015.424744 3148.513916
1015.460815 38658.070312
1015.558044 1450.182983
1015.708069 548.454346
1016.39679 1155.66626
1016.425354 2152.447998
1016.463684 20380.375
1016.554321 659.414856
1016.594543 814.125671
1017.417236 1485.167114
1017.466614 4293.121094
1017.627197 572.194458
1017.704224 573.85437
1018.417603 696.677307
1018.467102 578.222168
1018.493286 1483.812988
1018.548279 15512.302734
1019.524475 1870.024414
1019.552551 11117.930664
1020.501343 878.745422
1020.532227 1205.883423
1020.555298 1974.333008
1020.579041 488.628662
1021.425049 1436.011475
1021.556458 831.421814
1022.437378 658.043396
1022.891846 744.265076
1022.960205 875.629272
1023.587708 586.564758
1023.778992 736.666626
1024.558716 2561.981445
1025.561523 1378.240234
1026.578369 583.973389
1026.921143 668.558289
1028.591064 2021.996704
1029.080322 584.571167
1029.535767 709.990723
1029.593872 1062.524414
1033.37439 3123.062012
1033.426147 20701.255859
1033.470703 8777.621094
1034.376587 1588.110962
1034.429443 11959.625
1034.474243 4313.295898
1035.382812 1010.129272
1035.423096 8339.996094
1035.476196 836.731567
1035.609985 3605.514648
1035.755859 530.434021
1036.378052 628.147705
1036.427246 2780.713867
1036.505859 7706.184082
1036.558105 53627.773438
1036.616089 2618.625
1037.508911 4654.353027
1037.56189 35326.191406
1037.608276 714.920227
1038.511597 1205.016846
1038.565796 8282.772461
1039.437866 838.241455
1039.56897 1400.248169
1041.625854 863.856262
1041.882202 533.763733
1044.190674 599.92334
1044.580933 689.220093
1047.612305 892.782471
1047.782471 693.159119
1048.610596 913.761536
1050.614136 677.719788
1050.997925 729.015442
1051.338135 815.84375
1051.381104 5499.287598
1051.436523 57365.484375
1051.591553 587.642883
1052.383911 2652.572021
1052.439941 32985.382812
1053.380859 1535.035889
1053.433472 21300.837891
1053.565552 941.402039
1053.621094 10526.453125
1054.43811 6710.315918
1054.513062 12279.201172
1054.568359 152307.890625
1054.623901 8063.248535
1054.858398 594.966431
1055.514526 7216.711426
1055.572021 92921.890625
1055.619385 2223.531494
1056.517212 1773.29541
1056.575317 24029.222656
1057.578491 4580.86084
1061.589233 2871.177734
1061.634766 462.424927
1061.657593 505.648743
1062.508423 530.412354
1062.595093 2224.632812
1063.487671 724.624573
1063.602173 757.391235
1065.621338 4058.989746
1065.953735 911.557434
1066.624268 2461.375
1067.602051 1293.606445
1068.604736 1056.674805
1069.387573 1832.982422
1069.447876 26032.626953
1069.557983 1377.756836
1069.636719 671.210388
1070.182251 465.400238
1070.192871 475.134155
1070.395142 938.029846
1070.450806 13148.832031
1070.561523 1152.543579
1070.789429 617.686523
1071.444702 7469.881836
1071.63208 9212.740234
1072.44873 1426.243042
1072.520874 5657.620605
1072.579834 60796.84375
1072.636719 6326.26709
1073.523926 2746.86084
1073.58313 30409.505859
1073.638916 1455.634521
1074.427246 548.524231
1074.587036 7259.369629
1075.536743 536.925659
1075.588501 1309.522827
1076.561035 656.02179
1076.698242 575.746704
1077.143311 628.679504
1077.179443 574.436707
1078.372803 662.72522
1079.542969 1006.700867
1079.601685 9731.155273
1080.264771 541.457886
1080.545776 1083.920044
1080.605713 6512.143066
1081.608643 2425.145996
1082.561035 1089.721436
1083.042969 588.41748
1083.571899 968.517395
1083.63147 2731.397461
1084.086304 559.837708
1084.209351 487.89917
1084.63501 1784.63269
1085.616455 665.875732
1087.570435 3019.687012
1088.573242 2404.151123
1088.626343 446.07785
1090.591553 1012.564148
1091.599609 4287.000977
1091.843018 581.325378
1092.285278 533.690857
1092.606079 3175.142334
1093.51416 537.505615
1093.582275 1707.926147
1093.609131 1216.122314
1094.578491 4456.134277
1095.579956 1502.912354
1096.493286 679.049683
1096.574829 1467.709717
1097.552979 6940.274902
1097.611328 42962.453125
1098.557861 4188.954102
1098.614746 30774.875
1099.50769 592.43927
1099.56958 6964.740723
1099.617554 7990.782227
1100.509766 700.75238
1100.57373 5582.371582
1100.620605 1430.125977
1101.576416 955.265869
1104.559814 591.825256
1105.44397 659.658691
1105.509888 4566.261719
1105.57959 5989.586914
1106.430054 1816.843018
1106.491333 13206.577148
1106.526367 2528.175781
1106.584229 3907.133545
1107.437988 1668.749268
1107.495605 9834.731445
1107.523926 5927.124512
1108.443237 572.78186
1108.487427 5836.812988
1108.530884 2753.665039
1109.487915 2698.46875
1109.55481 1415.376099
1109.610596 12589.375977
1110.615601 8967.546875
1111.589478 4763.214355
1111.618774 1597.052612
1112.592407 3543.239014
1113.599365 814.581421
1115.561523 16211.958008
1115.621216 122120.0625
1116.56604 11005.545898
1116.624512 80309.570312
1117.518188 3340.708496
1117.57959 26260.345703
1117.626709 20693.308594
1118.519653 2149.072754
1118.582642 17731.105469
1118.629761 3472.331055
1119.587769 4371.727539
1120.590332 886.602051
1123.532227 1122.121948
1123.590942 6044.071289
1124.542847 617.306396
1124.593506 3902.177246
1125.471436 4208.763672
1125.53479 43014.535156
1126.179565 710.980286
1126.476196 2287.310547
1126.537964 21225.501953
1127.050171 755.617126
1127.463623 694.775146
1127.532715 13604.25
1127.621582 14634.100586
1128.181396 599.865051
1128.533569 5764.990234
1128.566284 1049.778931
1128.625977 9767.696289
1129.524902 601.752686
1129.601318 11925.200195
1130.538208 1203.326782
1130.603516 8789.931641
1131.607788 2536.157715
1133.508179 685.625366
1133.587891 12064.722656
1134.592041 8387.40332
1135.523438 5258.214844
1135.590576 46687.609375
1136.52771 3331.226318
1136.594604 31667.425781
1137.536133 731.355042
1137.599609 9628.05957
1138.601318 2303.289062
1141.556641 1973.911255
1141.603516 3551.747803
1142.563232 2031.258789
1142.605713 2405.567627
1143.551636 643.158325
1145.589233 5046.912598
1146.506226 673.034851
1146.59314 3363.087891
1147.524658 651.471985
1147.576416 1098.170166
1147.613647 9521.223633
1147.716553 556.272339
1148.094238 723.461792
1148.540161 1545.578491
1148.616455 5903.401367
1149.544678 1356.817993
1149.618042 1463.897583
1149.85791 699.472778
1150.088989 809.890564
1151.528687 1603.375488
1151.599243 16703.695312
1152.531616 1111.688232
1152.602051 11173.019531
1153.535889 14942.452148
1153.60144 115915.609375
1154.539185 9211.9375
1154.60498 79728.53125
1155.572388 3165.578125
1155.609375 22365.408203
1155.701416 556.501099
1156.571777 893.078735
1156.612671 5103.309082
1158.154785 633.937927
1159.500122 1089.244751
1159.568237 10098.976562
1160.497192 714.885742
1160.571777 7871.17041
1161.567383 5244.65625
1162.565674 3223.397949
1163.518677 1063.461914
1163.560913 1205.272339
1163.599243 15157.461914
1164.542725 1233.446533
1164.602661 11006.15625
1165.597534 7150.195312
1165.767212 554.733948
1166.60022 2636.415283
1171.476318 3416.757812
1171.566162 56723.789062
1171.61084 246292.34375
1171.68042 929.356995
1172.481567 1258.471558
1172.614258 160759.9375
1173.502563 2753.779785
1173.522095 2560.026123
1173.567749 21511.550781
1173.616943 44270.566406
1174.502441 1379.907593
1174.531494 1725.997437
1174.570557 9201.514648
1174.620239 9211.425781
1175.551147 1746.611328
1175.771118 661.436768
1177.38562 481.07016
1177.507812 2335.777832
1177.577637 21546.050781
1178.513794 1686.81189
1178.580811 14184.910156
1179.308228 717.579834
1179.495728 664.695374
1179.575195 9399.030273
1180.57605 6740.92627
1180.722168 758.213989
1181.574951 1511.666992
1181.615967 1003.343689
1182.162598 516.750793
1182.296875 521.902649
1182.583008 785.308472
1182.618042 765.318298
1183.044678 604.006958
1183.578613 928.754639
1183.606323 783.617859
1184.900879 508.909271
1189.456055 2542.663574
1189.506104 37802.792969
1189.576416 503618.0
1190.435669 1628.504883
1190.45813 1923.962891
1190.51001 24986.619141
1190.580933 327321.21875
1190.855469 730.845825
1191.429077 674.845947
1191.448608 1224.632446
1191.508057 16079.493164
1191.57605 220850.6875
1192.508789 5632.373535
1192.57959 84539.726562
1192.644287 1150.089966
1193.044678 692.539856
1193.201782 749.55249
1193.232666 864.34845
1193.560059 8108.756836
1194.300659 716.312378
1194.322388 809.657349
1195.587036 640.937073
1196.435791 532.233398
1200.660156 631.297668
1201.360474 482.83783
1201.677368 673.625732
1207.438599 1176.284424
1207.51416 15303.490234
1207.587158 272008.15625
1207.647949 930.813477
1207.669678 660.393127
1207.897827 760.113037
1208.517456 5458.571289
1208.591187 89710.570312
1209.516235 1402.752686
1209.586914 21009.943359
1210.5896 2486.73999
1219.844971 613.838806
1223.677612 500.369019
1225.521729 1609.576782
1225.600952 21957.275391
1226.52002 1130.874023
1226.603027 14552.791992
1227.518433 770.689453
1227.600586 12755.916016
1228.525879 1741.207275
1228.600342 34995.605469
1229.530151 711.521484
1229.602783 9144.606445
1230.546143 592.314941
1230.564697 593.676392
1230.594238 476.614899
1233.751343 675.855286
1238.419434 698.537292
1239.227661 1003.078064
1239.273926 832.538269
1250.100708 595.203125
1253.935425 532.87439
1260.111206 623.532898
1260.562378 608.987244
1260.745483 576.179688
1267.545776 691.321228
1267.817139 578.119019
1270.515259 532.206055
1272.040894 598.60553
1272.749268 622.515747
1285.652222 917.84436
1286.400146 606.906006
1287.355713 750.066345
1293.436523 494.202118
1293.476685 646.489807
1297.20752 613.386414
1297.659668 660.710999
1306.244995 627.783386
1307.286133 486.693573
1309.143677 533.361755
1312.732544 568.718323
1316.734253 608.323425
1319.611816 1370.247681
1320.645752 667.353882
1328.129028 636.401428
1333.20874 655.784851
1340.158813 578.491455
1341.166504 570.659729
1352.392334 623.964783
1354.27478 612.237061
1355.735596 685.510681
1356.46814 537.517273
1356.968262 655.18457
1367.147949 562.76825
1367.700195 615.60083
1369.430298 662.930481
1371.759521 653.674377
1373.077515 586.894897
1373.797852 519.0755
1375.641968 804.34259
1376.857788 602.744934
1388.40564 522.316589
1393.480225 772.856079
1396.746338 547.634033
1398.967773 724.280518
1400.123413 599.417908
1404.792603 543.605652
1405.974854 620.471191
1412.036865 837.30188
1412.322021 1005.928345
1412.362427 720.052856
1412.475098 564.047241
1412.611572 1099.852295
1413.385376 602.869446
1419.506592 528.287964
1430.162231 529.762512
1439.979858 722.740295
1444.689087 666.435669
1445.0177 596.090515
1451.998657 755.786743
1453.007568 678.298462
1454.526367 721.330505
1457.946777 576.614929
1460.18689 562.466248
1461.301758 652.433167
1462.113037 706.141724
1465.075562 748.53949
1466.269775 734.283508
1470.147461 535.481995
1472.741089 541.793579
1472.950806 772.076416
1477.118408 722.221252
1477.459473 1000.485596
1483.359741 806.99176
1490.618896 626.349426
1496.31665 1125.452393
1506.597412 549.31543
1508.395142 587.235046
1509.970581 622.510254
1514.549438 921.678284
1515.605225 668.20282
1519.778442 733.942566
1520.006104 601.226501
1529.060913 760.769226
1534.236328 520.567261
1537.607544 567.000488
1547.053223 635.690674
1551.459717 579.643433
1558.124146 576.256287
1562.728516 531.634216
1566.525879 644.74707
1567.800171 559.58374
1570.286865 633.959167
1574.03772 504.79126
1580.592529 646.561157
1584.093872 632.398804
1586.183472 502.898773
1591.368408 927.652344
1592.473022 1733.505493
1596.050537 634.972229
1600.865723 871.0578
1602.493408 499.129364
1604.30957 590.096313
1604.406372 619.787598
1604.647339 967.0979
1604.758179 905.970886
1604.866333 868.036072
1604.932495 1357.377686
1604.96106 1267.263306
1606.079468 665.049744
1616.914551 744.118225
1621.33728 639.952148
1621.43103 568.051819
1624.43689 702.840271
1627.585205 579.216064
1630.914307 583.303772
1632.56189 729.312012
1642.033569 586.180908
1645.921753 950.415344
1646.823853 573.726501
1656.698486 711.354797
1657.33728 672.694458
1659.737549 919.644775
1660.120972 584.190002
1661.64502 511.267548
1665.804077 605.470032
1669.807617 694.165161
1678.096924 480.007935
1681.477539 610.464233
1681.965942 602.431213
1685.10791 655.904541
1688.331177 543.910645
1689.513916 659.075684
1697.722778 869.514587
1697.81665 762.979797
1698.194458 1089.094604
1702.258789 1248.208984
1703.557495 614.132324
1703.754517 600.077881
1708.678467 682.131958
1709.046387 619.009033
1711.25 567.812744
1711.286987 562.210327
1712.122437 641.478027
1718.037964 629.205505
1721.39917 687.908142
1722.297119 789.922119
1723.900024 612.62384
1726.367188 586.634949
1727.665405 584.719788
1727.959595 612.855957
1733.644043 670.41217
1734.720825 608.16217
1736.415649 610.771667
1739.975952 631.933167
1745.09375 670.807312
1748.276733 559.599854
1750.893066 521.817444
1752.060791 675.791992
1755.364746 524.617737
1758.237427 1140.252319
1758.354736 800.246826
1758.500854 1032.04248
1758.738281 1191.293457
1764.880859 569.7323
1766.006104 772.321777
1773.030151 746.210876
1773.482422 674.519409
1776.88501 649.526917
1783.934937 701.908081
1787.881348 722.210693
1788.789185 855.062561
1791.314331 652.076965
1792.098999 689.833557
1799.404541 785.546326
1809.806396 884.112305
1810.666138 608.512573
1812.294067 671.711975
1818.773071 700.195923
1826.564087 834.468689
1826.762207 1285.318481
1828.371094 619.139465
1830.75769 678.066345
1833.766602 603.781189
1845.497192 684.662537
1851.502197 624.295288
1853.678467 554.580017
1861.281494 811.284912
1868.511719 663.18988
1873.766235 716.40448
1881.218018 836.573486
1886.368896 605.098877
1903.255737 753.837585
1905.50354 621.723633
1917.993408 858.937561
1928.429443 715.009033
1930.144531 588.044739
1935.567505 590.387329
1940.628906 1009.440918
1944.962036 643.38031
1955.230225 684.158203
1958.588013 649.596375
1974.944214 567.494324
1975.453735 606.575439
1980.100098 575.745422
1980.5625 773.136719
1987.546143 603.700562
1995.495605 573.463196
1997.729004 549.741577
END IONS
