BEGIN IONS
PEPMASS=1233.75
CHARGE=1
MSLEVEL=2
SOURCE_INSTRUMENT=LC-ESI-qTof
FILENAME=f.philipwi/0_WilliamsFreshwaterCyanosStandardsConvertedTo_mzXML_v2/PW-11_P1-B-2_Puwainaphycin_B_1232amu_01_15528_Scan752-779.mzXML;
SEQ=*..*
IONMODE=Positive
ORGANISM=GNPS-LIBRARY
NAME=Puwainaphycin B M+H
PI=Philip Williams
DATACOLLECTOR=Williams
SMILES=NC(C[C@H]1C(N2[C@H](C(N[C@@H]([C@@H](O)C(N[C@@H](C(C)C)C(N/C(C(N[C@H](C(N[C@H](C(N[C@@H](CCC(N)=O)C(NCC(N[C@H](C(N1C)=O)[C@@H](OC)C)=O)=O)=O)C(C)C)=O)[C@@H](O)C)=O)=C/C)=O)=O)[C@@H](C)CCCCCCCCCC(CCCC)=O)=O)CCC2)=O)=O
INCHI=
INCHIAUX=
PUBMED=
SUBMITUSER=philipwi
TAGS=
LIBRARYQUALITY=3
SPECTRUMID=CCMSLIB00000424831
SCANS=757
92.64946 56.0
114.929283 44.0
141.284927 76.0
143.567032 48.0
145.267578 116.0
145.398209 56.0
146.106186 136.0
153.097412 112.0
157.071121 196.0
157.547699 28.0
158.092224 132.0
159.063492 104.0
168.082489 152.0
169.060471 192.0
169.594833 28.0
171.103821 116.0
171.776703 32.0
173.125122 360.0
173.560791 32.0
175.345642 132.0
180.112854 56.0
181.093033 268.0
182.103012 172.0
184.108704 136.0
185.092545 268.0
185.481857 40.0
185.629471 36.0
186.08963 944.0
187.667267 64.0
191.12355 124.0
194.078201 52.0
195.07811 316.0
195.992142 28.0
198.12529 404.0
199.122482 336.0
199.640991 32.0
200.13974 152.0
200.885834 40.0
201.127823 308.0
202.135193 56.0
203.117905 56.0
203.969345 28.0
204.108398 428.0
205.136292 44.0
205.611298 32.0
207.116943 188.0
207.415878 20.0
209.091553 268.0
210.123672 80.0
211.108292 104.0
211.179382 36.0
211.317322 36.0
211.613953 36.0
211.836548 48.0
212.106491 572.0
213.095978 140.0
213.435303 36.0
214.097015 36.0
214.750397 96.0
217.007538 32.0
217.129623 96.0
217.449097 28.0
217.825256 84.0
218.145233 100.0
219.087723 80.0
220.372787 44.0
221.709045 36.0
224.10643 480.0
225.024353 48.0
225.129547 20.0
225.244324 36.0
225.99115 28.0
226.120667 476.0
226.230789 16.0
226.365036 120.0
227.128815 56.0
227.979111 44.0
228.13559 1716.0
228.431686 24.0
229.149307 252.0
229.724503 40.0
229.869446 36.0
230.121826 176.0
230.536774 48.0
231.127548 80.0
231.302017 44.0
234.141479 40.0
235.147217 80.0
236.086533 92.0
236.988464 32.0
237.133545 244.0
237.312408 52.0
238.156555 192.0
238.738403 64.0
239.00441 76.0
239.14212 492.0
240.132721 304.0
241.13298 172.0
241.434799 20.0
241.870804 136.0
242.125946 104.0
242.833374 24.0
243.144791 956.0
243.509308 52.0
243.880676 100.0
244.134689 308.0
244.544907 28.0
245.146484 128.0
246.092422 104.0
246.17244 76.0
246.402512 24.0
247.263794 100.0
248.146652 80.0
248.468079 52.0
248.940552 96.0
249.151382 96.0
250.124329 200.0
250.925812 64.0
251.112915 556.0
251.238922 140.0
251.38472 32.0
251.471375 40.0
252.007401 56.0
252.103149 1292.0
252.949371 24.0
253.103851 168.0
253.282349 48.0
253.385498 40.0
253.689987 36.0
253.923553 24.0
254.330032 44.0
254.523209 32.0
254.981049 32.0
255.141632 112.0
255.337433 20.0
255.602325 68.0
256.057312 64.0
256.136902 292.0
257.13562 76.0
257.276398 32.0
258.132935 180.0
258.361359 32.0
260.147217 76.0
260.990967 32.0
263.033966 16.0
263.251129 80.0
263.364899 32.0
263.944519 24.0
264.141327 100.0
264.861847 48.0
265.140686 100.0
265.905457 28.0
266.154388 836.0
266.321411 20.0
266.89386 28.0
266.990723 40.0
267.137177 988.0
267.23761 36.0
267.320984 32.0
267.404388 76.0
267.56076 32.0
267.7276 24.0
267.823883 52.0
267.998871 44.0
268.135956 272.0
268.266815 3292.0
268.512756 36.0
268.677582 76.0
268.796722 20.0
268.973969 148.0
269.125641 6304.0
269.260193 220.0
269.376617 56.0
269.458008 64.0
269.614471 40.0
269.786285 28.0
269.958008 60.0
270.130219 452.0
270.276459 156.0
270.467255 52.0
270.667542 40.0
270.823822 88.0
271.044159 36.0
271.131989 252.0
271.233093 36.0
272.715332 44.0
273.03125 32.0
273.157776 252.0
273.579224 28.0
273.981354 32.0
274.146027 104.0
274.824768 28.0
275.681396 52.0
276.119812 76.0
276.253235 32.0
276.645386 32.0
277.122681 32.0
277.897858 48.0
278.108673 96.0
279.105774 168.0
279.696625 104.0
280.262024 488.0
280.454041 32.0
280.656921 32.0
280.827789 24.0
281.254578 124.0
281.886322 32.0
282.147491 132.0
282.453857 60.0
282.571716 92.0
282.889679 36.0
283.14209 156.0
283.50589 36.0
283.579834 56.0
283.751617 32.0
283.934204 36.0
284.157471 912.0
284.364014 48.0
284.450012 52.0
285.160004 228.0
285.601501 24.0
286.151184 140.0
286.259033 24.0
286.582672 24.0
287.159943 128.0
288.160339 40.0
288.268555 44.0
291.227997 188.0
291.655182 100.0
292.112579 84.0
292.221527 116.0
294.151428 216.0
294.27179 92.0
294.525269 24.0
295.140381 348.0
295.686005 32.0
296.153564 112.0
297.123688 68.0
297.409424 52.0
297.530365 40.0
297.970337 44.0
298.275421 1052.0
298.476715 44.0
299.104767 36.0
299.274689 400.0
299.413544 40.0
299.501801 32.0
299.821777 36.0
299.987366 32.0
300.17511 64.0
300.273376 80.0
300.903229 36.0
301.153198 1908.0
301.295898 72.0
301.482758 64.0
301.822937 28.0
302.158447 660.0
302.299316 32.0
302.565369 32.0
303.166107 212.0
303.808502 32.0
304.219727 108.0
304.375397 20.0
304.531128 48.0
305.165527 24.0
306.143616 224.0
306.670654 24.0
307.12851 76.0
307.541992 36.0
307.978119 32.0
308.144897 84.0
308.260437 208.0
308.851318 40.0
309.11554 124.0
309.26593 176.0
309.591125 32.0
310.152161 56.0
310.29129 88.0
311.174194 492.0
311.489532 124.0
312.162567 324.0
312.750824 28.0
312.998901 44.0
313.153259 1044.0
314.158173 352.0
314.36496 36.0
315.164185 232.0
316.153229 100.0
318.09436 60.0
318.287659 64.0
319.166229 148.0
320.162018 156.0
321.5289 112.0
321.742828 56.0
322.136993 80.0
322.211823 132.0
322.326233 52.0
322.715454 76.0
322.829987 44.0
323.174652 308.0
324.168549 96.0
324.366547 60.0
325.152161 120.0
325.29715 20.0
325.653656 64.0
326.056396 20.0
326.142853 80.0
326.270355 220.0
326.689758 56.0
327.150787 28.0
327.266113 136.0
327.372192 100.0
328.201691 116.0
328.686035 44.0
328.766937 28.0
328.950226 28.0
328.976959 24.0
329.182098 1740.0
329.50708 28.0
329.680664 32.0
330.188599 228.0
330.526123 24.0
330.943481 64.0
331.210236 32.0
332.190796 248.0
332.475952 168.0
332.722046 48.0
332.917786 96.0
333.156433 68.0
333.546143 32.0
334.144623 84.0
335.134796 452.0
335.318054 28.0
335.528198 32.0
336.030487 84.0
336.137848 64.0
336.626678 36.0
336.872345 64.0
337.196533 144.0
338.167145 108.0
338.359833 64.0
339.167328 112.0
340.156219 116.0
340.520782 92.0
341.026794 88.0
341.17984 232.0
341.68631 28.0
342.193176 52.0
342.700409 20.0
343.184418 44.0
344.153412 52.0
346.20694 92.0
347.128021 68.0
347.211182 64.0
347.306183 68.0
349.209534 108.0
349.332703 164.0
349.578918 64.0
349.686188 36.0
350.21701 116.0
350.342102 88.0
350.67627 36.0
351.176727 204.0
351.321167 108.0
351.416748 28.0
352.162537 332.0
352.306335 108.0
352.457123 32.0
353.159912 260.0
353.319305 88.0
353.70285 32.0
353.84671 32.0
354.155975 116.0
354.26651 152.0
354.881317 92.0
355.204498 104.0
355.731812 20.0
355.888123 36.0
356.19455 252.0
356.9953 52.0
357.178864 84.0
357.724915 44.0
358.19873 72.0
360.35144 176.0
361.150543 76.0
361.429199 44.0
361.586761 176.0
361.877747 44.0
362.144562 392.0
362.313751 220.0
363.131439 148.0
363.313507 84.0
363.747589 32.0
364.042603 68.0
364.173218 32.0
364.282013 140.0
364.416565 32.0
365.025238 20.0
365.2099 336.0
365.323181 224.0
366.191772 96.0
366.32196 236.0
367.180908 280.0
367.294037 32.0
368.051849 140.0
368.194794 1624.0
369.192261 556.0
369.361542 24.0
370.179962 224.0
370.526306 28.0
370.612213 44.0
372.000214 44.0
372.123169 24.0
372.223267 224.0
372.824402 28.0
373.070618 36.0
373.230713 92.0
373.341553 52.0
375.388947 28.0
375.932556 32.0
376.513672 68.0
376.748718 20.0
377.181915 160.0
377.316437 348.0
377.640106 40.0
378.171112 312.0
378.312225 104.0
378.80542 20.0
378.904694 40.0
379.178558 404.0
379.333099 72.0
379.947693 44.0
380.157196 692.0
380.314087 2000.0
380.842834 44.0
381.224854 136.0
381.310028 604.0
381.740021 28.0
382.123688 32.0
382.208008 100.0
382.312164 32.0
382.486694 36.0
382.648773 40.0
382.761017 32.0
382.935638 20.0
383.211731 164.0
383.422272 120.0
384.202271 68.0
384.396484 32.0
384.534454 100.0
384.671478 44.0
385.212402 192.0
385.697357 28.0
385.935272 28.0
386.197449 708.0
387.063141 92.0
387.186249 144.0
387.577515 28.0
390.297058 220.0
391.134613 100.0
391.184418 80.0
391.641571 80.0
391.868683 44.0
391.982269 32.0
392.203003 92.0
392.330444 96.0
392.979919 32.0
393.207916 192.0
393.305634 92.0
393.39975 148.0
393.612 40.0
393.928253 32.0
394.21167 932.0
394.441315 52.0
394.867065 88.0
394.983459 68.0
395.191681 2456.0
395.326782 10960.0
395.645721 52.0
395.800812 72.0
395.941162 128.0
396.08786 52.0
396.192963 588.0
396.329285 2336.0
396.785278 52.0
396.902527 56.0
396.992767 64.0
397.181671 3636.0
397.338348 1852.0
397.567688 32.0
397.705933 32.0
397.797913 36.0
397.931061 144.0
398.058777 40.0
398.185516 536.0
398.34021 360.0
398.483368 28.0
398.670776 44.0
398.954315 36.0
399.043457 28.0
399.190247 236.0
399.327026 116.0
399.425568 44.0
399.990234 52.0
400.223389 264.0
400.585724 32.0
400.955811 32.0
401.108978 44.0
401.21701 172.0
401.875336 20.0
402.187408 108.0
402.827942 40.0
402.936707 36.0
403.227051 96.0
403.34201 72.0
404.101959 28.0
405.312561 336.0
405.633789 48.0
406.200348 336.0
406.314362 440.0
406.877228 124.0
407.195312 128.0
407.325073 1280.0
407.633545 32.0
408.071228 48.0
408.174255 40.0
408.313232 740.0
408.774384 28.0
409.024689 36.0
409.171356 64.0
409.329529 144.0
409.522949 44.0
410.204803 300.0
410.314911 84.0
410.495697 52.0
410.896179 28.0
410.991669 56.0
411.202209 332.0
411.607178 40.0
411.814117 16.0
411.930542 48.0
412.204407 900.0
412.374847 48.0
412.82373 68.0
412.914398 24.0
413.215271 724.0
413.380859 28.0
413.782715 72.0
413.899445 32.0
414.211914 156.0
414.574066 36.0
415.250885 32.0
416.034912 44.0
416.159058 32.0
416.978699 124.0
417.278137 60.0
418.151031 48.0
418.333557 200.0
419.077057 28.0
419.228058 56.0
420.201477 108.0
420.840576 32.0
421.098877 32.0
421.372772 88.0
421.56012 28.0
421.730286 36.0
421.943695 144.0
422.213898 180.0
422.385071 20.0
422.9617 40.0
423.322754 1412.0
423.468384 44.0
423.857178 128.0
424.226868 344.0
424.320648 568.0
424.5495 20.0
424.969879 36.0
425.075012 32.0
425.236359 136.0
425.315369 180.0
425.522003 32.0
425.732422 28.0
426.113922 68.0
426.352203 196.0
426.930145 20.0
427.246307 28.0
427.338562 44.0
427.457153 24.0
427.733978 40.0
427.918549 32.0
428.212463 184.0
428.327423 88.0
428.738403 28.0
428.890533 36.0
428.978912 44.0
429.213287 2436.0
429.553589 32.0
429.674164 24.0
430.208008 384.0
430.340973 244.0
430.520233 36.0
430.652496 28.0
431.25647 144.0
431.698181 44.0
431.857147 36.0
432.957336 36.0
433.310394 384.0
433.501343 24.0
433.867798 104.0
433.979248 76.0
434.220245 352.0
434.315155 340.0
434.590332 44.0
435.202362 84.0
435.325989 652.0
435.507751 32.0
436.210083 124.0
436.319611 180.0
437.316315 64.0
438.229523 200.0
438.312714 116.0
439.173706 32.0
439.272827 56.0
439.935486 76.0
440.214325 148.0
440.348236 364.0
441.238617 184.0
441.474426 32.0
442.253967 136.0
442.363831 132.0
443.32428 372.0
444.19754 112.0
445.333984 64.0
446.193848 124.0
446.331055 304.0
446.902069 48.0
447.036835 44.0
447.203369 116.0
447.349548 80.0
448.193817 76.0
448.319733 104.0
448.723145 24.0
449.216675 148.0
449.662109 64.0
450.088013 36.0
450.200104 272.0
450.37204 112.0
450.832123 40.0
451.230103 776.0
451.368073 176.0
451.603943 44.0
451.834259 24.0
451.942657 40.0
452.215942 1016.0
452.352844 184.0
452.579803 44.0
452.823944 32.0
453.013855 64.0
453.212646 292.0
453.746826 28.0
453.977692 32.0
454.20166 180.0
454.725006 36.0
454.922546 68.0
455.266968 172.0
455.785889 24.0
456.0513 32.0
456.245056 288.0
456.698151 36.0
457.234924 612.0
457.788605 36.0
458.14328 48.0
458.242981 56.0
458.416229 16.0
458.539062 24.0
459.131927 48.0
459.242859 84.0
459.372101 84.0
459.536072 36.0
459.850403 28.0
460.342651 28.0
460.561493 24.0
460.821472 60.0
461.223846 96.0
461.338715 540.0
461.738739 40.0
461.868347 52.0
462.201752 148.0
462.337677 124.0
462.656952 28.0
463.205566 104.0
463.337463 164.0
464.193878 92.0
464.342773 664.0
464.633484 40.0
464.949554 24.0
465.238251 128.0
465.360626 248.0
466.237518 148.0
466.354828 200.0
466.710602 36.0
467.054962 32.0
467.220276 64.0
467.702667 96.0
467.846283 56.0
468.199097 56.0
468.447388 44.0
468.74176 60.0
468.837067 100.0
469.033173 72.0
469.238617 2612.0
469.62085 24.0
469.911011 48.0
470.017395 40.0
470.243561 648.0
470.436249 48.0
470.924591 44.0
471.058624 148.0
471.249573 60.0
472.221497 64.0
472.429291 92.0
473.150055 40.0
473.267487 176.0
474.010132 64.0
474.343262 252.0
475.065491 44.0
475.322662 448.0
476.038544 52.0
476.370544 88.0
476.561127 36.0
476.664612 16.0
476.95694 44.0
477.368469 72.0
477.500031 80.0
477.736847 32.0
478.02948 40.0
478.332245 224.0
479.220886 528.0
479.364349 108.0
479.912872 64.0
480.224762 60.0
480.270844 100.0
480.311768 136.0
481.228516 88.0
481.381104 68.0
481.63205 44.0
482.224976 68.0
482.737854 56.0
483.253265 536.0
483.508484 32.0
483.634644 24.0
484.256317 84.0
485.227081 104.0
485.360474 80.0
485.472839 64.0
485.739716 44.0
486.358093 36.0
487.04718 76.0
487.764923 40.0
488.370483 68.0
489.357056 64.0
489.667358 40.0
490.24585 64.0
490.360657 212.0
491.226959 92.0
491.355103 260.0
491.799652 96.0
492.207855 92.0
492.347382 432.0
492.704803 36.0
492.832153 32.0
493.326691 720.0
493.906097 64.0
494.233795 220.0
494.394073 5312.0
494.616852 36.0
494.876099 56.0
495.253174 124.0
495.397552 1360.0
495.818329 40.0
495.96051 28.0
496.246765 1452.0
496.379517 348.0
496.754883 68.0
496.973022 32.0
497.129333 28.0
497.254211 516.0
497.373047 96.0
497.533203 68.0
497.655365 48.0
497.769135 80.0
497.882904 32.0
498.236511 92.0
498.907532 48.0
499.26355 28.0
499.391754 84.0
500.03299 36.0
500.132782 56.0
500.30542 44.0
500.917175 28.0
501.017029 24.0
501.266052 596.0
501.659332 28.0
501.851532 52.0
502.261261 152.0
502.544922 32.0
502.659241 76.0
503.045197 28.0
503.3013 440.0
503.502808 28.0
503.874786 36.0
504.36554 592.0
504.790955 44.0
505.06311 28.0
505.177734 36.0
505.388153 340.0
505.679321 20.0
506.361786 708.0
506.554108 32.0
506.711945 56.0
506.841095 72.0
507.354401 240.0
507.731262 68.0
507.953918 32.0
508.242188 64.0
508.374176 2160.0
508.718719 28.0
508.938507 40.0
509.067963 40.0
509.257019 80.0
509.375153 424.0
509.700989 28.0
510.24057 124.0
510.377045 308.0
510.593658 108.0
511.259033 536.0
512.243652 308.0
513.059692 28.0
513.218567 40.0
513.550781 32.0
513.969788 40.0
514.261841 692.0
515.039734 28.0
515.269043 196.0
515.759705 32.0
516.255676 84.0
516.733765 28.0
517.246643 148.0
518.231018 328.0
518.355347 820.0
518.532104 28.0
518.677307 24.0
518.843445 40.0
519.227356 240.0
519.356506 216.0
519.493713 56.0
519.766663 32.0
519.897461 20.0
520.013794 32.0
520.358459 36.0
520.682678 76.0
520.828125 52.0
520.929993 36.0
521.256165 196.0
521.419556 56.0
521.670288 36.0
521.832397 24.0
521.992615 44.0
522.093079 40.0
522.389587 3420.0
522.628784 72.0
522.730042 68.0
522.879578 32.0
523.100037 44.0
523.256042 200.0
523.385559 1984.0
523.712585 48.0
523.956177 40.0
524.237854 72.0
524.394165 400.0
524.568237 76.0
524.821838 112.0
525.034119 60.0
525.375427 84.0
525.508423 68.0
525.946899 24.0
526.05481 84.0
526.270081 80.0
526.379028 92.0
526.487976 188.0
526.707397 36.0
527.272461 52.0
527.518066 68.0
528.065552 36.0
528.275024 1520.0
528.654907 32.0
528.821655 96.0
529.138672 24.0
529.282288 616.0
529.63739 96.0
529.88678 24.0
530.048218 48.0
530.343628 168.0
530.528015 44.0
531.351746 136.0
531.8255 44.0
531.980652 36.0
532.025452 20.0
532.079102 48.0
532.183228 48.0
532.375977 4248.0
532.616699 44.0
532.88446 44.0
533.109741 52.0
533.373169 1360.0
533.778259 56.0
534.267578 560.0
534.383728 300.0
534.677551 32.0
534.909729 24.0
535.020264 32.0
535.251099 2632.0
535.395447 156.0
535.819275 24.0
536.038147 32.0
536.247559 804.0
536.369934 396.0
536.627319 44.0
536.897766 36.0
537.086548 48.0
537.368347 220.0
537.603699 24.0
537.721985 76.0
538.307922 184.0
538.964355 44.0
539.284668 228.0
539.415466 908.0
539.571289 44.0
540.030396 28.0
540.134094 60.0
540.272095 324.0
540.416382 344.0
540.637939 48.0
540.75647 56.0
540.919556 28.0
541.097473 32.0
541.288452 108.0
541.406433 72.0
541.557251 28.0
541.824341 40.0
542.314087 64.0
542.438965 92.0
542.90802 32.0
543.309143 132.0
543.42804 80.0
543.966064 40.0
544.230774 60.0
544.498474 32.0
545.281189 60.0
545.391663 332.0
546.240173 32.0
546.400879 168.0
546.776672 24.0
547.268677 24.0
548.260071 88.0
548.366394 132.0
549.259094 160.0
549.39386 156.0
549.522766 48.0
549.761902 28.0
550.250244 96.0
550.414062 116.0
550.599182 20.0
550.878479 48.0
551.137817 120.0
551.277771 136.0
551.384827 480.0
551.801147 64.0
551.992493 44.0
552.27417 2744.0
552.48822 76.0
552.716919 36.0
553.099976 24.0
553.280823 676.0
553.4198 96.0
553.684814 24.0
553.969849 28.0
554.104858 52.0
554.285706 336.0
554.582153 40.0
554.770264 32.0
555.372498 84.0
556.315918 176.0
556.809143 56.0
557.03363 52.0
557.365784 108.0
557.937866 36.0
558.811462 32.0
558.99231 52.0
559.292542 48.0
559.351074 40.0
559.806458 112.0
560.363342 552.0
561.089233 28.0
561.389771 276.0
561.57251 44.0
561.738708 52.0
562.162903 108.0
562.272278 132.0
562.394653 176.0
562.781616 48.0
562.923218 44.0
563.278259 80.0
563.407349 696.0
563.598572 36.0
563.704468 28.0
563.810425 36.0
563.946655 28.0
564.406555 476.0
564.582642 40.0
564.915894 32.0
565.128052 32.0
565.234131 48.0
565.396057 168.0
565.916321 36.0
566.291565 540.0
566.419617 152.0
567.008667 32.0
567.281006 436.0
567.462952 200.0
568.292908 168.0
568.710022 36.0
568.922852 48.0
569.278442 240.0
570.307312 72.0
571.007812 28.0
571.403931 100.0
572.288025 36.0
572.959229 44.0
573.406067 420.0
573.981995 56.0
574.241638 52.0
574.388306 616.0
575.066833 40.0
575.385803 180.0
576.259766 108.0
576.42334 84.0
576.933289 140.0
577.426025 576.0
578.174194 40.0
578.437744 352.0
578.947876 28.0
579.166199 92.0
579.283691 408.0
579.80249 60.0
580.27301 860.0
580.40033 128.0
581.15155 52.0
581.281311 408.0
581.423584 120.0
581.643433 28.0
581.858704 28.0
582.26593 100.0
582.427734 80.0
583.311157 224.0
583.443542 44.0
583.720703 40.0
584.003479 56.0
584.303955 1588.0
585.302551 576.0
586.313965 188.0
586.681458 140.0
586.94397 20.0
587.414307 564.0
588.420105 216.0
588.692749 52.0
589.420593 204.0
589.912903 40.0
590.25354 88.0
590.419434 144.0
590.811218 28.0
591.404907 664.0
592.097961 32.0
592.406982 388.0
593.432434 168.0
593.712219 32.0
594.161072 72.0
594.320679 116.0
594.768921 32.0
595.002136 40.0
595.289124 96.0
595.421997 36.0
596.38147 124.0
596.536804 88.0
596.677429 84.0
596.791626 36.0
597.117188 152.0
597.29834 3748.0
597.554932 52.0
597.70166 96.0
597.906616 120.0
598.307434 1096.0
598.927002 60.0
599.303467 288.0
599.582397 32.0
600.300598 44.0
600.569397 136.0
600.847351 40.0
601.159912 28.0
601.368164 284.0
601.856018 44.0
602.115967 28.0
602.3703 268.0
602.536072 28.0
602.66687 56.0
602.786499 32.0
602.994873 64.0
603.154907 52.0
603.387207 356.0
603.641602 52.0
603.83551 20.0
603.976501 36.0
604.422729 172.0
604.60022 60.0
604.798401 36.0
604.832214 60.0
604.971741 76.0
605.079224 100.0
605.425781 15732.0
605.843506 104.0
605.957581 88.0
606.019104 92.0
606.214355 28.0
606.426575 7012.0
606.769592 40.0
606.888672 72.0
607.006653 112.0
607.139954 52.0
607.276062 48.0
607.423523 820.0
607.710754 76.0
607.996094 52.0
608.171509 64.0
608.319031 64.0
608.428833 308.0
608.692444 40.0
608.827026 28.0
609.078735 36.0
609.220276 88.0
609.420898 228.0
609.987366 40.0
610.467834 32.0
610.700195 48.0
610.968018 88.0
611.309021 468.0
611.478455 100.0
611.756104 32.0
611.992615 28.0
612.103027 24.0
612.289917 576.0
612.450012 28.0
613.085938 40.0
613.302002 296.0
613.728516 36.0
613.886414 32.0
614.233948 24.0
615.024109 36.0
615.408264 992.0
615.751526 36.0
616.403076 384.0
616.637695 24.0
616.970154 44.0
617.41925 236.0
617.635315 40.0
617.904663 36.0
618.253357 48.0
618.427673 132.0
618.855774 32.0
619.07782 32.0
619.39209 156.0
619.706116 48.0
620.410156 200.0
621.447388 204.0
621.649902 36.0
621.872437 88.0
622.110901 32.0
622.448059 1208.0
622.748291 52.0
623.065247 28.0
623.447266 912.0
624.004395 44.0
624.437317 88.0
624.625549 28.0
624.753052 92.0
625.412964 72.0
625.787842 48.0
625.842285 72.0
625.978882 40.0
626.303101 68.0
626.458191 56.0
626.642517 40.0
627.065491 28.0
627.177246 52.0
627.453979 72.0
627.640259 60.0
628.119446 32.0
628.279236 52.0
628.455017 60.0
628.667114 88.0
628.879333 84.0
629.324646 5156.0
629.542114 40.0
629.670105 52.0
629.787781 36.0
629.940979 32.0
630.134094 28.0
630.328186 1608.0
630.74231 72.0
630.950439 44.0
631.16748 36.0
631.324585 344.0
631.674805 128.0
632.119812 24.0
632.316406 148.0
632.43335 132.0
632.953491 24.0
633.299377 84.0
633.420959 964.0
633.691467 24.0
634.161255 44.0
634.448303 704.0
634.895508 52.0
635.088318 108.0
635.436279 116.0
636.165039 32.0
636.293091 100.0
636.438416 68.0
637.295227 76.0
637.431946 116.0
637.983215 108.0
638.128113 40.0
638.305237 52.0
638.450195 68.0
638.72406 28.0
639.330017 68.0
640.094177 88.0
640.255432 36.0
640.432922 56.0
640.916931 24.0
641.373657 108.0
642.558044 32.0
643.000427 24.0
643.162109 36.0
643.408142 3072.0
643.89917 48.0
644.100098 44.0
644.137817 48.0
644.414001 1444.0
644.824707 36.0
644.998291 36.0
645.415588 500.0
645.799927 52.0
645.929504 20.0
646.27887 104.0
646.450195 124.0
647.210022 36.0
647.436096 180.0
647.545227 96.0
647.664185 32.0
647.891296 32.0
648.345703 84.0
648.686584 28.0
649.108826 36.0
649.411743 92.0
649.677368 36.0
649.791077 28.0
650.051086 20.0
650.446289 4964.0
650.656677 48.0
650.912781 40.0
651.026611 60.0
651.18927 44.0
651.448181 1980.0
651.986633 48.0
652.444031 644.0
652.613953 68.0
653.303345 36.0
653.454468 124.0
653.843506 20.0
654.164124 40.0
654.357056 80.0
654.467407 84.0
654.756592 24.0
655.033936 40.0
655.425537 64.0
656.176453 48.0
656.290771 40.0
656.43042 192.0
657.058533 68.0
657.42865 160.0
657.941162 20.0
658.47406 172.0
658.859924 24.0
658.988037 28.0
659.349182 96.0
659.402649 80.0
660.473877 212.0
661.16626 36.0
661.457886 316.0
661.853088 36.0
661.893494 56.0
662.453674 1028.0
662.806396 44.0
662.921265 40.0
663.308533 988.0
663.470764 580.0
663.807861 32.0
663.922791 56.0
664.298523 432.0
664.455627 136.0
664.744324 40.0
665.221008 36.0
665.3526 28.0
665.491333 36.0
665.845947 24.0
666.12561 56.0
666.34198 52.0
667.492188 180.0
668.348511 52.0
668.489746 112.0
668.678162 48.0
669.453125 84.0
669.634583 140.0
670.471985 192.0
670.905334 72.0
671.454285 316.0
672.462524 228.0
673.457214 216.0
673.655579 40.0
674.178528 16.0
674.45105 1312.0
675.03949 52.0
675.205139 28.0
675.451721 872.0
675.801575 20.0
675.934143 36.0
676.099915 20.0
676.225586 48.0
676.347839 96.0
676.460876 224.0
676.819153 52.0
677.177673 52.0
677.314697 108.0
677.486267 40.0
677.72522 36.0
677.907776 36.0
678.314697 156.0
678.485901 624.0
678.688049 56.0
678.88739 24.0
679.094971 48.0
679.48938 304.0
679.722412 96.0
679.984009 56.0
680.334656 8644.0
680.837158 72.0
681.085388 52.0
681.335999 2324.0
681.540588 52.0
681.713867 44.0
682.063416 24.0
682.339172 592.0
682.77948 108.0
682.91272 52.0
683.361816 204.0
683.729248 52.0
684.079346 44.0
684.380737 212.0
684.713013 60.0
684.896545 28.0
685.080017 44.0
685.230225 24.0
685.414734 968.0
685.9646 28.0
686.23175 20.0
686.418823 300.0
686.695251 32.0
687.100403 24.0
687.412109 104.0
687.651917 60.0
688.053162 32.0
688.317017 64.0
688.465759 2816.0
688.789062 20.0
689.188538 32.0
689.46405 1160.0
689.642578 96.0
689.93103 52.0
690.209351 44.0
690.471558 328.0
691.032715 32.0
691.3396 64.0
691.4646 104.0
691.636108 64.0
692.105591 24.0
692.460388 76.0
692.730896 128.0
693.352966 60.0
693.4646 92.0
693.582153 36.0
693.8172 32.0
694.350342 252.0
694.925842 36.0
695.337769 744.0
696.337219 132.0
696.785095 32.0
697.007507 168.0
697.325317 64.0
697.488403 56.0
698.366516 128.0
698.543457 148.0
699.369202 48.0
700.465393 288.0
700.969177 56.0
701.459961 240.0
702.448669 196.0
702.71106 32.0
703.116699 40.0
703.274841 56.0
703.448425 172.0
703.62384 32.0
703.792969 20.0
703.995911 40.0
704.21582 32.0
704.484863 236.0
704.689514 104.0
705.06189 124.0
705.479492 124.0
705.932678 32.0
706.145569 24.0
706.475403 3820.0
706.689575 92.0
707.026672 76.0
707.4776 1500.0
708.036499 40.0
708.179749 36.0
708.298523 24.0
708.479187 508.0
708.813171 96.0
709.096069 36.0
709.475403 128.0
709.752625 24.0
709.996033 32.0
710.284851 20.0
710.522705 60.0
711.015564 48.0
711.219543 44.0
711.488892 44.0
711.827393 32.0
712.030457 96.0
712.361206 6220.0
712.767395 20.0
712.905334 72.0
713.14563 36.0
713.364807 2528.0
713.604004 28.0
713.88678 32.0
713.922241 24.0
713.985413 52.0
714.194519 44.0
714.365234 480.0
715.049683 124.0
715.160034 40.0
715.41571 80.0
715.663452 32.0
715.919312 36.0
716.460388 864.0
716.908875 20.0
717.280518 52.0
717.463501 352.0
718.001648 28.0
718.275513 132.0
718.456909 272.0
718.627808 68.0
718.890137 68.0
719.497253 128.0
719.950195 52.0
720.484497 192.0
721.365295 52.0
721.480103 92.0
721.610291 28.0
721.730164 20.0
722.158325 104.0
723.015137 28.0
723.152222 44.0
723.511108 208.0
724.1203 44.0
724.488403 136.0
725.487183 116.0
726.453491 524.0
727.048767 44.0
727.435303 232.0
728.183594 144.0
728.458862 76.0
729.464355 184.0
730.662781 120.0
731.076355 28.0
731.455566 52.0
732.478333 40.0
732.99939 64.0
733.121948 36.0
733.486267 5468.0
733.778137 72.0
734.189514 32.0
734.492493 1844.0
734.77594 68.0
734.95752 36.0
735.218811 56.0
735.497253 592.0
735.720154 84.0
735.944946 24.0
736.117859 24.0
736.305115 68.0
736.541931 76.0
737.138611 32.0
737.554077 88.0
737.671997 120.0
738.489197 36.0
739.164978 68.0
739.45282 92.0
740.437927 240.0
740.673523 156.0
741.437744 140.0
741.905762 28.0
742.426758 68.0
743.36499 88.0
743.590942 68.0
744.453796 340.0
745.479675 228.0
746.043945 44.0
746.483948 64.0
746.879883 68.0
747.129822 140.0
747.471863 112.0
747.820923 24.0
748.152161 68.0
748.274231 60.0
748.518372 68.0
748.954468 52.0
749.530273 64.0
750.520447 100.0
751.48877 108.0
752.377625 76.0
753.514587 32.0
754.502014 80.0
755.072754 48.0
756.549561 176.0
757.482666 480.0
757.667358 32.0
758.035889 24.0
758.229004 48.0
758.486572 124.0
759.054199 40.0
759.194702 44.0
759.515076 264.0
760.526794 220.0
760.899353 36.0
761.148254 52.0
761.528809 708.0
761.796387 20.0
761.972351 36.0
762.504578 304.0
762.711609 104.0
762.834839 52.0
763.116577 100.0
763.513062 148.0
764.36731 92.0
764.561218 64.0
764.860901 36.0
765.489075 64.0
765.813171 88.0
766.183655 72.0
767.966858 20.0
768.477844 84.0
769.309998 140.0
769.474487 92.0
770.475525 76.0
770.654297 28.0
771.00824 24.0
771.469788 60.0
772.141479 32.0
772.474915 44.0
773.275574 28.0
773.508667 228.0
774.472412 140.0
775.489441 520.0
775.901306 40.0
776.493896 168.0
777.060608 60.0
777.233582 40.0
777.544067 1544.0
777.855713 32.0
778.544495 712.0
778.851624 36.0
779.036926 68.0
779.406982 80.0
779.542969 196.0
780.186462 116.0
780.400146 68.0
780.560425 56.0
781.415527 36.0
782.543518 92.0
783.341187 64.0
783.537415 64.0
783.662354 72.0
784.403809 84.0
784.840576 32.0
785.269226 32.0
785.519348 72.0
785.697998 40.0
786.180481 32.0
786.46106 684.0
786.68103 104.0
787.108276 96.0
787.524658 1160.0
788.112061 36.0
788.36261 36.0
788.528748 524.0
788.756409 24.0
788.917542 44.0
789.042908 32.0
789.221924 36.0
789.535217 276.0
789.741394 24.0
789.992188 36.0
790.518311 452.0
791.523132 128.0
792.502563 36.0
793.38208 40.0
794.454468 80.0
796.555359 64.0
797.505249 84.0
798.537598 96.0
799.246277 100.0
799.495789 596.0
799.714905 40.0
799.841125 48.0
800.093567 44.0
800.478027 120.0
800.923157 20.0
801.103577 36.0
801.229919 84.0
801.472107 76.0
801.699097 40.0
801.897644 24.0
802.276794 136.0
802.403198 268.0
803.521545 140.0
803.902588 48.0
804.065308 124.0
804.336426 36.0
804.544373 56.0
805.005493 36.0
805.150208 68.0
805.540405 4580.0
805.818481 44.0
806.054871 36.0
806.239502 80.0
806.54425 1308.0
806.809631 52.0
806.903442 32.0
806.939331 56.0
807.549194 544.0
807.749329 44.0
808.061035 36.0
808.56665 256.0
808.789978 20.0
809.061951 28.0
809.294373 44.0
809.578064 56.0
809.914368 36.0
810.431763 116.0
811.407837 232.0
811.547913 96.0
811.711304 52.0
811.856628 40.0
812.21991 28.0
812.459229 152.0
813.497986 112.0
814.201355 48.0
814.401428 24.0
814.583374 52.0
815.5495 48.0
816.075928 36.0
816.20343 116.0
816.517456 912.0
816.69519 36.0
817.111389 128.0
817.506348 820.0
817.814392 96.0
818.043823 24.0
818.505127 504.0
818.828003 32.0
819.516907 136.0
820.559509 36.0
820.927063 156.0
821.584717 36.0
821.712585 140.0
822.023254 48.0
822.556946 480.0
823.376282 40.0
823.558472 504.0
823.851929 24.0
824.254517 24.0
824.44928 180.0
824.518921 64.0
824.553955 180.0
825.509338 388.0
825.902466 60.0
826.444702 240.0
827.020325 40.0
827.434265 140.0
828.010559 32.0
828.432495 52.0
828.560913 84.0
829.258301 116.0
829.523804 144.0
830.148865 48.0
830.488708 76.0
831.517029 164.0
831.885437 32.0
832.106079 28.0
832.473877 40.0
832.657776 36.0
833.522583 72.0
833.843506 64.0
834.531189 1344.0
835.188049 44.0
835.537537 804.0
836.008911 36.0
836.2854 132.0
836.530701 260.0
836.746338 52.0
836.967651 24.0
837.520996 40.0
838.541382 80.0
839.540527 88.0
840.198059 132.0
840.382874 92.0
840.547729 52.0
841.547485 120.0
843.500244 52.0
844.513733 44.0
845.328613 136.0
846.53009 172.0
847.5354 116.0
848.552063 36.0
849.58728 76.0
850.5401 68.0
850.707397 48.0
851.525696 44.0
852.567688 144.0
852.902771 32.0
853.815186 44.0
854.597717 76.0
855.528687 152.0
856.312988 104.0
856.564575 168.0
857.264587 40.0
857.549561 112.0
858.546326 236.0
859.43103 112.0
859.602112 52.0
860.542542 160.0
861.527954 56.0
862.579529 96.0
863.547241 92.0
865.346436 48.0
865.533997 92.0
866.303101 112.0
866.9599 36.0
867.516907 268.0
868.532654 116.0
868.83783 24.0
870.50946 204.0
870.531799 144.0
870.943542 84.0
871.58136 80.0
871.940918 96.0
872.567017 92.0
873.202515 44.0
873.585754 196.0
873.824219 48.0
874.552795 128.0
874.747803 84.0
875.572083 304.0
876.617065 124.0
877.276001 20.0
877.589478 128.0
878.522583 112.0
879.259583 36.0
879.580933 52.0
880.59552 68.0
881.567139 52.0
882.570557 88.0
883.555603 76.0
884.029358 120.0
884.532288 64.0
884.811035 92.0
885.527893 172.0
886.528076 160.0
887.057373 32.0
887.246643 52.0
887.566956 112.0
888.563049 220.0
889.57135 236.0
889.89563 24.0
890.558044 80.0
891.621582 40.0
891.836304 88.0
893.558777 136.0
894.045959 76.0
894.582703 104.0
895.552307 36.0
896.71637 36.0
897.545288 116.0
898.557617 256.0
899.399292 116.0
899.570923 168.0
899.792297 32.0
900.595581 44.0
901.557861 28.0
902.567017 68.0
903.556458 68.0
904.557312 92.0
905.000854 28.0
905.384399 36.0
905.593201 168.0
905.979126 32.0
906.286133 20.0
906.607178 120.0
907.130737 52.0
907.603088 152.0
907.932007 44.0
908.379089 48.0
910.378296 24.0
912.033142 128.0
912.603577 40.0
912.745605 24.0
913.843628 32.0
914.383301 160.0
915.300659 44.0
915.600159 704.0
916.292603 28.0
916.582397 632.0
917.199768 44.0
917.5672 244.0
918.230896 60.0
918.579102 200.0
919.041199 72.0
920.542664 64.0
920.948853 20.0
921.557251 72.0
922.555176 64.0
923.598267 56.0
924.143555 84.0
925.500488 40.0
925.8302 144.0
926.528625 108.0
927.587341 48.0
928.275757 36.0
928.592163 140.0
928.766663 88.0
929.091675 52.0
929.441406 64.0
929.612061 188.0
929.795532 36.0
930.596741 72.0
931.288574 24.0
932.008484 32.0
932.626587 100.0
932.815369 44.0
933.045837 60.0
933.254395 32.0
933.602539 4128.0
933.925903 40.0
934.409607 104.0
934.602966 2204.0
934.949402 64.0
935.407043 40.0
935.618896 592.0
935.924194 24.0
936.119202 44.0
936.627747 156.0
937.641113 52.0
937.816833 32.0
939.418274 68.0
939.906738 40.0
940.434509 56.0
940.610413 40.0
940.8255 36.0
941.118835 120.0
941.979492 36.0
943.545288 52.0
944.600342 128.0
944.94873 80.0
945.636719 132.0
946.61676 160.0
947.628174 88.0
947.77948 32.0
948.132751 32.0
949.153687 140.0
949.801941 32.0
950.587891 224.0
950.855713 56.0
951.422302 152.0
951.617554 68.0
952.042847 28.0
952.27887 40.0
952.593628 56.0
953.813843 32.0
954.503052 36.0
954.660583 52.0
955.616821 64.0
956.591736 72.0
956.946655 52.0
957.597534 40.0
958.61615 100.0
959.579773 72.0
960.637756 60.0
961.665405 56.0
962.041077 32.0
962.629211 144.0
963.287048 36.0
963.64801 148.0
964.613098 100.0
965.623108 36.0
968.576843 124.0
971.554626 228.0
972.608948 156.0
972.826965 100.0
973.165039 40.0
973.623535 184.0
973.90094 56.0
974.625183 188.0
975.579712 80.0
976.369263 32.0
976.600708 164.0
976.863708 44.0
977.225952 36.0
977.611938 192.0
977.764038 168.0
978.606262 116.0
979.718445 28.0
980.654297 88.0
980.882263 168.0
981.834595 180.0
982.194153 60.0
982.646057 124.0
983.040894 128.0
983.992981 148.0
984.622925 40.0
984.933044 64.0
985.113098 36.0
985.273132 36.0
985.613342 84.0
986.253845 84.0
986.434021 20.0
986.611389 172.0
987.355164 40.0
987.65564 20.0
988.076416 136.0
988.497253 24.0
988.637573 32.0
989.642639 84.0
990.082153 160.0
990.354675 44.0
990.625183 1908.0
991.419739 112.0
991.631714 1056.0
992.047852 36.0
992.195435 152.0
992.618286 672.0
993.031921 32.0
993.172485 28.0
993.622681 132.0
995.403687 36.0
995.566589 120.0
996.618591 72.0
996.952881 28.0
997.657471 36.0
998.019897 20.0
998.448853 40.0
999.594482 156.0
1000.61499 92.0
1000.861389 36.0
1001.613892 120.0
1001.970886 28.0
1002.394653 60.0
1002.639893 136.0
1003.040588 40.0
1003.323303 44.0
1003.621582 88.0
1004.151306 36.0
1004.598267 64.0
1006.620056 144.0
1007.183594 24.0
1007.64801 112.0
1008.629333 344.0
1009.639587 192.0
1009.855774 72.0
1010.67395 104.0
1011.679749 72.0
1011.841919 60.0
1012.578857 84.0
1013.588257 96.0
1014.597717 172.0
1015.615906 184.0
1016.604248 140.0
1017.87323 36.0
1018.597839 64.0
1019.641724 84.0
1020.639221 48.0
1021.027954 32.0
1021.659485 72.0
1022.209717 32.0
1022.596985 56.0
1022.780457 44.0
1023.759216 64.0
1024.126343 92.0
1025.289551 36.0
1026.718872 48.0
1027.116333 52.0
1027.679077 60.0
1028.353516 44.0
1028.623901 120.0
1029.294067 48.0
1029.643188 76.0
1030.33728 20.0
1030.618042 204.0
1031.667725 44.0
1032.691772 52.0
1033.212769 56.0
1033.642944 240.0
1034.3927 72.0
1034.607056 128.0
1036.692383 108.0
1037.02771 116.0
1037.216064 136.0
1037.614014 40.0
1037.819336 24.0
1038.575195 60.0
1038.846436 88.0
1039.915039 36.0
1040.737427 140.0
1040.919189 24.0
1041.313354 36.0
1041.697388 96.0
1042.424438 76.0
1042.63623 136.0
1042.959595 52.0
1043.289062 88.0
1043.668701 92.0
1044.442383 56.0
1044.631958 100.0
1045.63501 100.0
1045.967407 32.0
1046.656128 196.0
1047.628052 240.0
1048.585449 44.0
1048.657959 76.0
1049.640381 88.0
1050.665039 92.0
1051.665283 44.0
1051.8927 36.0
1052.554321 24.0
1053.112793 20.0
1053.671387 80.0
1053.878418 32.0
1054.386719 56.0
1055.120361 56.0
1055.656494 156.0
1056.226807 76.0
1056.641724 176.0
1057.088379 44.0
1057.635254 104.0
1057.917603 28.0
1058.714722 92.0
1058.97522 32.0
1059.182739 100.0
1059.445801 88.0
1059.661011 200.0
1060.344849 48.0
1060.675781 200.0
1061.657959 468.0
1061.938354 56.0
1062.157471 124.0
1062.664307 348.0
1063.65918 128.0
1064.6875 108.0
1065.374023 136.0
1065.644531 100.0
1067.643188 32.0
1067.78894 24.0
1068.726562 76.0
1069.497803 52.0
1069.656372 80.0
1069.935547 40.0
1070.415161 56.0
1070.650635 124.0
1070.95752 52.0
1071.634155 76.0
1071.97998 32.0
1072.460083 32.0
1072.647949 56.0
1072.96106 20.0
1073.1073 36.0
1073.661011 4440.0
1073.951416 48.0
1074.186279 60.0
1074.666016 2832.0
1074.981445 28.0
1075.223755 52.0
1075.662109 1024.0
1075.921143 36.0
1076.158203 24.0
1076.34021 40.0
1076.665894 156.0
1077.015747 28.0
1077.695435 920.0
1078.268677 32.0
1078.701294 652.0
1079.485718 32.0
1079.709229 428.0
1080.637939 64.0
1081.057129 32.0
1081.32959 40.0
1081.581177 40.0
1083.321899 24.0
1083.649048 88.0
1084.0354 156.0
1084.5979 108.0
1085.588989 96.0
1085.988159 100.0
1086.694824 128.0
1087.160522 100.0
1087.333008 44.0
1087.68811 340.0
1088.016235 64.0
1088.447388 20.0
1088.670166 316.0
1088.93103 32.0
1089.20459 40.0
1089.678833 84.0
1090.298828 28.0
1091.393677 32.0
1091.685059 348.0
1092.347778 40.0
1092.821777 40.0
1092.946777 116.0
1093.184326 36.0
1093.331909 36.0
1093.690308 52.0
1094.259521 20.0
1094.650635 44.0
1095.262573 36.0
1095.48291 40.0
1095.947144 152.0
1097.129272 28.0
1097.762695 36.0
1098.058472 44.0
1098.650024 64.0
1099.36853 80.0
1099.516479 36.0
1099.696899 52.0
1099.875854 60.0
1100.625977 100.0
1101.060059 28.0
1101.301025 112.0
1101.626709 308.0
1101.990967 20.0
1102.202515 164.0
1102.669312 348.0
1103.430298 32.0
1103.675171 120.0
1104.189819 36.0
1104.320557 136.0
1104.668945 132.0
1105.436768 28.0
1105.689087 4488.0
1106.069214 44.0
1106.694702 3612.0
1107.283569 84.0
1107.688843 1036.0
1108.05127 32.0
1108.706421 232.0
1109.048828 32.0
1109.664551 44.0
1110.407959 28.0
1110.769043 44.0
1111.746582 36.0
1111.895264 40.0
1112.447998 44.0
1113.687988 144.0
1114.085815 16.0
1115.043457 116.0
1115.256348 44.0
1115.751831 116.0
1117.663208 52.0
1117.812378 80.0
1117.98291 152.0
1118.451782 28.0
1118.693481 1620.0
1119.21936 32.0
1119.682129 664.0
1120.3927 32.0
1120.7052 420.0
1121.281006 64.0
1121.671387 104.0
1122.207031 24.0
1122.420532 56.0
1122.740967 36.0
1123.189575 16.0
1123.693359 476.0
1124.731323 112.0
1125.689941 180.0
1126.22522 32.0
1126.698608 84.0
1127.423584 28.0
1127.684082 116.0
1127.851685 24.0
1128.386963 32.0
1128.643921 32.0
1128.793823 52.0
1129.371338 100.0
1130.679321 28.0
1131.729858 32.0
1132.437622 44.0
1133.875366 100.0
1134.662109 68.0
1134.879761 108.0
1135.120605 80.0
1135.270996 104.0
1136.044312 140.0
1136.722046 424.0
1137.18335 24.0
1137.743042 244.0
1138.258423 44.0
1138.713013 168.0
1139.662964 48.0
1140.718628 160.0
1141.034424 40.0
1141.715698 44.0
1142.666382 164.0
1143.692749 228.0
1144.72229 64.0
1146.747803 76.0
1147.287476 44.0
1147.627563 64.0
1148.707886 52.0
1149.620605 80.0
1149.880005 112.0
1152.172363 64.0
1152.670166 32.0
1153.615356 112.0
1154.207275 24.0
1154.674561 104.0
1156.287231 100.0
1156.69519 120.0
1157.71814 476.0
1158.325684 36.0
1158.706543 340.0
1159.697998 144.0
1160.735474 132.0
1161.039185 28.0
1162.516602 36.0
1163.995117 36.0
1164.665405 48.0
1166.236206 20.0
1166.698486 68.0
1167.670776 140.0
1168.065552 32.0
1168.435913 28.0
1168.669678 116.0
1169.671997 28.0
1170.528687 48.0
1170.714111 48.0
1171.597656 28.0
1171.750366 36.0
1172.676025 56.0
1173.190918 40.0
1173.701538 308.0
1174.398804 52.0
1174.717163 180.0
1175.713257 300.0
1175.987427 56.0
1176.468384 40.0
1176.726807 300.0
1177.718018 72.0
1178.064941 68.0
1178.655762 92.0
1179.443848 68.0
1180.013062 36.0
1180.68103 64.0
1180.976807 36.0
1183.102661 36.0
1183.453491 112.0
1183.685425 212.0
1183.870117 152.0
1184.272705 136.0
1184.692139 1692.0
1185.694214 1464.0
1186.064453 36.0
1186.27356 40.0
1186.703979 480.0
1187.667603 112.0
1187.843384 24.0
1188.458618 32.0
1188.717163 184.0
1189.008057 52.0
1189.732178 236.0
1190.371338 28.0
1190.734009 328.0
1191.464722 68.0
1191.705811 152.0
1191.965332 44.0
1192.219482 24.0
1194.443481 32.0
1195.49646 36.0
1195.920044 32.0
1196.136963 24.0
1196.2948 60.0
1196.566162 52.0
1196.779907 28.0
1197.110718 60.0
1197.429443 36.0
1197.684326 64.0
1198.721313 100.0
1199.493896 40.0
1199.740479 144.0
1200.438599 68.0
1200.691895 68.0
1201.008789 88.0
1201.72168 7032.0
1202.328979 156.0
1202.417358 72.0
1202.488525 108.0
1202.722656 3696.0
1203.245605 40.0
1203.726318 2028.0
1204.378052 20.0
1204.717651 632.0
1205.119873 32.0
1205.299194 44.0
1205.743652 1008.0
1206.5 32.0
1206.744019 544.0
1207.763428 340.0
1207.966797 76.0
1208.230347 20.0
1208.745728 120.0
1209.421143 44.0
1209.82019 44.0
1210.092407 32.0
1210.308105 84.0
1210.457275 88.0
1210.883301 64.0
1211.112549 40.0
1211.267944 32.0
1211.622925 28.0
1212.164185 92.0
1212.532837 64.0
1212.754761 48.0
1213.154419 40.0
1214.087158 32.0
1214.886841 36.0
1215.07019 32.0
1215.309082 36.0
1215.470825 72.0
1215.734131 992.0
1216.032227 112.0
1216.317749 52.0
1216.722778 8664.0
1217.154175 80.0
1217.337036 36.0
1217.726074 5332.0
1218.174438 80.0
1218.450806 84.0
1218.726074 2008.0
1219.118896 52.0
1219.352905 68.0
1219.725952 536.0
1220.21521 72.0
1220.710571 124.0
1221.156616 44.0
1221.601807 124.0
1221.918091 40.0
1222.341553 108.0
1222.519775 40.0
1223.010132 40.0
1223.518311 56.0
1224.125122 48.0
1224.615845 128.0
1225.221191 152.0
1225.769653 56.0
1226.088501 40.0
1226.499634 68.0
1226.784424 96.0
1227.07312 116.0
1227.126343 60.0
1227.208862 160.0
1227.330078 72.0
1227.525635 72.0
1227.740845 208.0
1228.116089 160.0
1228.409058 92.0
1228.586914 60.0
1228.809692 180.0
1229.032593 80.0
1229.307129 76.0
1229.572998 52.0
1229.930664 52.0
1230.203247 184.0
1230.57373 100.0
1230.873535 72.0
1231.029419 124.0
1231.187744 80.0
1231.255005 36.0
1231.330811 68.0
1231.486572 28.0
1231.574951 44.0
1231.776489 60.0
1231.977661 84.0
1232.201782 112.0
1232.351929 96.0
1232.54541 100.0
1232.819946 212.0
1233.060059 208.0
1233.343018 164.0
1233.408081 192.0
1233.489746 236.0
1233.750122 82864.0
1234.196533 268.0
1234.461914 172.0
1234.75415 48600.0
1235.362061 304.0
1235.547363 144.0
1235.754883 20120.0
1236.231201 208.0
1236.382568 136.0
1236.752563 4212.0
1237.436279 60.0
1237.761353 636.0
1237.976074 120.0
1238.153564 100.0
1238.320312 68.0
1238.526611 24.0
1238.74292 132.0
1239.171021 116.0
1239.208984 48.0
1239.298462 104.0
1239.54248 36.0
1239.754028 60.0
1240.11438 48.0
1240.484619 64.0
1240.665649 28.0
1241.12561 32.0
1241.381104 80.0
1241.709351 84.0
1241.942627 40.0
1242.133545 36.0
1242.382324 28.0
1242.616699 48.0
1243.075073 40.0
1243.374512 40.0
1243.692993 36.0
1243.96521 32.0
1244.268799 40.0
1244.4375 40.0
1244.662354 64.0
1244.807617 28.0
1244.977173 32.0
1245.292114 24.0
1245.766968 36.0
1246.169556 36.0
1246.425781 52.0
1247.005493 28.0
1247.610229 36.0
1247.902954 48.0
1248.21814 24.0
1248.443359 64.0
1248.871338 44.0
1249.254395 32.0
1249.502197 20.0
1250.33606 32.0
1250.550171 88.0
1250.907227 48.0
1251.170166 40.0
1251.485962 36.0
1251.891846 48.0
1252.275269 28.0
1252.523438 28.0
1253.416748 48.0
1256.135742 40.0
1256.384277 60.0
1257.107422 24.0
1257.423828 40.0
1258.07373 48.0
1258.757812 44.0
1258.916138 52.0
1259.06311 24.0
1259.640015 48.0
1259.821045 44.0
1260.409302 40.0
1260.839355 28.0
1261.926025 44.0
1262.401611 100.0
1263.534424 28.0
1263.919556 84.0
1264.100952 32.0
1264.599609 24.0
1264.921509 40.0
1265.098389 28.0
1265.488403 40.0
1266.096191 48.0
1267.250366 32.0
1267.573364 72.0
1267.888672 32.0
1271.841187 32.0
1272.341431 36.0
1272.50061 52.0
1272.841675 40.0
1275.208008 28.0
1275.731567 68.0
1282.365723 128.0
1284.740967 36.0
1287.18689 24.0
1287.918823 40.0
1288.490845 44.0
1289.932739 60.0
1292.177368 40.0
1293.483887 88.0
1294.240601 36.0
1294.836914 36.0
1295.869263 24.0
1296.268555 200.0
1297.269409 88.0
1297.820557 64.0
1302.831665 32.0
1307.160889 116.0
1309.881836 32.0
1315.239746 136.0
1316.534668 32.0
1316.789185 28.0
1316.95105 44.0
1317.228638 160.0
1318.987549 144.0
1321.76709 36.0
1329.9375 100.0
1330.262939 148.0
1334.101929 76.0
1335.615723 28.0
1336.314697 108.0
1337.270264 32.0
1344.132568 104.0
1345.324707 100.0
1354.998413 24.0
1357.29895 148.0
1367.29834 100.0
1370.812622 136.0
1371.37915 108.0
1374.875122 100.0
1381.382812 88.0
1382.093628 120.0
1383.231445 36.0
1384.27478 56.0
1397.778809 140.0
1398.803833 132.0
1400.115356 136.0
1407.112793 156.0
1410.701904 172.0
1413.936035 128.0
1414.127686 72.0
1422.530151 24.0
1443.136597 52.0
1446.868286 100.0
1451.794678 28.0
1453.082275 28.0
1454.613525 36.0
1468.944214 64.0
1474.20166 100.0
1478.806641 40.0
1481.038208 36.0
1497.322876 60.0
1529.760376 92.0
1539.449341 128.0
1562.192749 20.0
1569.684692 104.0
1582.439209 84.0
1588.785034 84.0
1602.662964 100.0
1628.18103 92.0
1633.303589 92.0
1637.247681 108.0
1708.077759 100.0
1709.975098 32.0
1737.366455 148.0
1778.33728 48.0
1789.726318 96.0
1823.349487 76.0
1853.112305 144.0
1974.345947 32.0
1993.454224 68.0
END IONS
