BEGIN IONS
PEPMASS=1768.18
CHARGE=-1
MSLEVEL=2
SOURCE_INSTRUMENT=LC-ESI-qTof
FILENAME=f.crath3/Lipids/Figure_S11C.mgf;
SEQ=*..*
IONMODE=Negative
ORGANISM=GNPS-LIBRARY
NAME=Lipid A M-H
PI=C. Rath
DATACOLLECTOR=C. Rath
SMILES=O=C(C[C@@H](CCCCCCCCCCC)OC(CCCCCCCCCCC)=O)N[C@@H]1[C@H]([C@H](O)[C@@H](CO[C@@H]2O[C@H](CO)[C@@H](OP(O)(O)=O)[C@H](OC(C[C@@H](CCCCCCCCCCC)OC(CCCCCCCCCCC)=O)=O)[C@H]2NC(C[C@@H](CCCCCCCCCCC)O)=O)O[C@@H]1OP(O)(O)=O)OC(C[C@@H](CCCCCCCCCCC)O)=O
INCHI=
INCHIAUX=
PUBMED=27681620
SUBMITUSER=crath3
TAGS=Lipid.  Lipid IVa is a hexa acylated intermediate in the Raetz pathway for LPS biosynthesis in Gram negative bacteria.[Chemical Family]
LIBRARYQUALITY=3
SPECTRUMID=CCMSLIB00000840426
SCANS=1
111.577682 18848.789062
176.941101 6024.879883
211.06987 2553.150879
267.190826 8101.487793
742.560608 5908.698242
892.202698 7588.073242
1025.672119 5492.848145
1225.823608 6226.501953
1226.860474 7966.605957
1243.871704 8428.951172
1244.841553 963.276917
1245.849487 677.026917
1323.840576 8420.725586
1324.854858 1219.78894
1341.824951 894.301025
1426.040039 7879.067871
1427.045532 7648.187988
1444.084961 681.831787
1444.949829 687.072571
1470.02771 1564.52002
1471.054321 1409.870972
1472.032471 799.346191
1524.025391 6064.119141
1524.184937 716.011719
1525.028442 5444.423828
1525.19104 1634.994995
1526.031616 7520.931152
1526.141113 6322.625
1526.980225 7915.708984
1568.049072 9146.998047
1569.014771 1866.515991
1570.053589 1196.473999
1670.253174 1565.208008
1671.20752 1721.350952
1672.268799 978.667297
1766.22229 931.466675
1767.172974 1058.291992
1768.236572 33019.320312
1769.239868 34783.21875
1770.241821 17996.589844
1770.925659 342.147186
1771.244873 6447.71582
1771.615356 208.921097
1771.710205 144.282898
1771.886475 314.403198
1772.032715 148.531204
1772.230469 1898.435059
1772.612305 289.511688
1772.757812 289.812195
1773.23645 567.302612
END IONS
