BEGIN IONS
PEPMASS=480.24
CHARGE=2
MSLEVEL=2
SOURCE_INSTRUMENT=LC-ESI-Orbitrap
FILENAME=f.Rolandoo1/20190519 Moroidin paper GNPS/Moroidin-[QLLAWRGH].mzXML;
SEQ=*..*
IONMODE=Positive
ORGANISM=GNPS-LIBRARY
NAME=Moroidin-[QLLAWRGH] M+2H
PI=Jing-Ke Weng
DATACOLLECTOR=Roland Kersten
SMILES=O=C1CCC(C(NC(C(NC(CC(C)C)C(NC(C)C(NC(C(NC(C(NCC(NC(CC2=CN3C=N2)C(O)=O)=O)=O)CCCNC(N)=N)=O)CC4=C3NC5=C4C=CC6=C5)=O)=O)=O)C6C(C)C)=O)N1
INCHI=
INCHIAUX=
PUBMED=
SUBMITUSER=Rolandoo1
TAGS=
LIBRARYQUALITY=3
SPECTRUMID=CCMSLIB00005435910
SCANS=1
67.26918 2022.103638
67.269699 3863.372559
67.270226 4662.683105
67.270744 4115.437988
67.271271 2614.59082
67.27179 275.92804
67.662735 6805.446777
67.663261 11440.771484
67.663788 13449.47168
67.664322 11774.167969
67.664848 7403.233398
67.665375 131.468063
67.897667 1362.960327
67.898193 2446.313477
67.898727 2966.864014
67.899254 2586.321533
67.899788 1508.445679
67.900322 29.389101
68.705864 6968.828125
68.706406 13264.643555
68.70694 16354.828125
68.707481 14374.490234
68.708023 8666.106445
68.708565 1090.728394
69.06855 8232.90332
69.069099 16600.789062
69.069641 21342.078125
69.070183 18504.753906
69.070732 9855.292969
69.108849 4660.466797
69.10939 10407.5625
69.10994 14099.758789
69.110481 13289.095703
69.111023 8625.155273
69.111572 889.077332
70.039322 9255.083008
70.039879 19162.716797
70.040436 26838.363281
70.040993 27740.414062
70.041542 20676.126953
70.042099 10192.75
70.042656 851.373047
70.062119 39.610252
70.062675 3956.61377
70.063225 45723.335938
70.063782 133633.265625
70.064339 222399.5625
70.064896 268202.34375
70.065453 214674.234375
70.06601 120562.34375
70.066566 37723.355469
70.067123 9517.62793
70.06768 5.308965
70.587761 1227.477783
70.588318 2451.448242
70.588882 3120.293213
70.589447 2767.10498
70.590004 1632.555664
73.522774 2145.020752
73.523369 3720.262695
73.523972 4316.361328
73.524567 3702.882568
73.525162 2377.063477
73.525764 65.543053
75.213799 2565.2771
75.214417 4399.050293
75.215034 5000.097656
75.215652 3882.572754
75.21627 1894.080322
75.216888 43.89632
75.424538 11263.400391
75.425156 19689.144531
75.425774 22793.400391
75.426399 18887.832031
75.427017 10792.989258
75.427643 70.425064
75.557007 330.939484
75.557625 3143.766113
75.55825 5663.060547
75.558876 6555.150879
75.559494 5197.920898
75.56012 2639.468018
77.56337 312.609375
77.564018 3230.297852
77.564667 4956.15918
77.565315 5481.746094
77.565964 4650.00293
77.566612 2822.680908
78.4347 265.446106
78.435364 2403.770996
78.43602 4654.004883
78.436676 5531.561523
78.43734 4285.171875
78.437996 1910.182495
78.495331 716.23175
78.495995 6747.565918
78.496651 10752.999023
78.497314 12325.770508
78.497971 10771.918945
78.498634 6798.986328
82.633018 238.407532
82.633728 5776.706055
82.634445 10736.262695
82.635155 13265.255859
82.635872 11577.512695
82.636581 6868.030273
82.637291 957.677063
82.990295 384.606903
82.991013 2575.767578
82.99173 4628.943359
82.992447 5336.908691
82.993164 4325.214844
82.993881 2314.040039
84.037422 115.877434
84.038155 5610.191406
84.038887 64521.511719
84.039612 80687.039062
84.040344 104434.484375
84.041077 200257.296875
84.041809 694690.75
84.042534 2058142.5
84.043266 3696047.75
84.043999 5005982.5
84.044731 4282820.0
84.045456 2571446.5
84.046188 1043977.6875
84.046921 283097.8125
84.047653 96368.984375
84.048378 71015.085938
84.04911 24467.019531
84.049843 19168.378906
84.050575 3856.968262
84.077614 694.338196
84.078346 6284.962891
84.079079 11770.474609
84.079803 15868.118164
84.080536 16193.371094
84.081268 12287.911133
84.082001 6101.681152
85.04422 774.802124
85.044968 6987.844727
85.045708 20788.667969
85.046455 39765.867188
85.047195 56865.511719
85.047943 52034.035156
85.048683 31929.070312
85.049431 12558.272461
85.050171 1832.776611
86.088913 6335.870117
86.089668 61423.421875
86.090431 214700.21875
86.091187 376531.5625
86.091942 561092.0
86.092697 825623.25
86.09346 2530779.5
86.094215 7611279.5
86.094971 15374160.0
86.095726 22557728.0
86.096489 22468172.0
86.097244 14681849.0
86.098 7201539.0
86.098763 2126776.0
86.099518 692134.1875
86.100273 454594.15625
86.101036 282483.0
86.101791 87234.609375
86.102547 38228.582031
87.095139 1566.10437
87.095909 10538.93457
87.09668 56317.0
87.09745 166528.546875
87.098221 364511.5625
87.098991 549342.125
87.099762 555065.0
87.100533 355740.0625
87.101303 167150.390625
87.102074 49512.894531
87.102844 7669.927734
87.103615 1084.955322
88.514969 286.622894
88.515755 2237.386475
88.516548 3173.879883
88.517334 3228.034912
88.518127 2401.119629
88.518913 1167.091797
88.681023 585.808838
88.681816 9718.421875
88.68261 15280.719727
88.683395 15983.96875
88.684189 12287.333008
88.684982 7119.412598
88.697655 1239.586426
88.698448 16811.505859
88.699242 26171.003906
88.700027 28011.488281
88.700821 21145.177734
88.701614 10307.320312
88.722214 1088.29187
88.723007 7321.40332
88.723801 12547.50293
88.724594 14655.77832
88.72538 11815.31543
88.726173 5757.387695
88.732513 193.890289
88.733307 1564.0448
88.7341 2854.934326
88.734894 3278.931641
88.735687 2563.536621
88.736481 1254.842773
90.859978 415.258026
90.860802 8454.746094
90.861618 12405.095703
90.862442 13710.163086
90.863258 11265.032227
90.864082 6363.776367
91.955444 975.078796
91.956276 11654.615234
91.957115 20323.888672
91.957947 24410.666016
91.958786 21284.304688
91.959625 12537.354492
92.379143 140.652374
92.379982 4372.789062
92.380821 30742.119141
92.381668 66181.835938
92.382507 43227.042969
92.383347 4519.269531
95.396065 533.307922
95.39695 6349.846191
95.397835 11652.868164
95.398712 14169.05957
95.399597 12077.740234
95.400482 6784.802734
98.132271 1403.805176
98.133194 14594.510742
98.134117 23262.685547
98.13504 25706.933594
98.135963 20123.869141
98.136879 9897.02832
98.155319 196.97348
98.156242 2402.572021
98.157166 4314.428223
98.158089 5208.056641
98.159012 4484.013672
98.159935 2562.672119
100.590698 562.310425
100.59166 7316.310059
100.592613 11661.015625
100.593575 13193.194336
100.594528 11316.267578
100.595482 7087.040527
102.050903 2305.625
102.05188 13595.675781
102.052856 27030.554688
102.053833 36940.082031
102.054817 37378.683594
102.055794 27688.646484
102.05677 13577.424805
102.057747 2281.489746
104.315697 452.99707
104.316704 3114.497314
104.317719 4361.732422
104.318726 4648.141602
104.319733 3827.503418
104.320747 2191.759277
104.855232 730.35614
104.856247 7348.451172
104.857262 13005.998047
104.858284 15725.929688
104.859299 13538.306641
104.860321 7645.709961
107.892494 1617.860352
107.893555 7532.677246
107.894615 12242.807617
107.895676 13353.339844
107.896744 9766.849609
107.897804 4064.456299
108.645576 1869.951904
108.646652 11627.024414
108.647728 21452.666016
108.648796 25862.90625
108.649872 21759.111328
108.650948 11459.614258
110.066025 218.527496
110.067116 4104.994629
110.068214 20705.490234
110.069305 53914.457031
110.070404 81072.765625
110.071495 87003.320312
110.072594 68402.078125
110.073685 38806.261719
110.074783 13711.964844
112.081665 2651.805176
112.082794 22804.851562
112.083916 76027.367188
112.085045 147042.546875
112.086166 195294.984375
112.087296 173367.0
112.088417 104397.726562
112.089546 42885.0625
112.090668 7753.253418
112.108673 2508.931396
112.109802 11641.234375
112.110924 20822.335938
112.112053 24984.025391
112.113174 21074.070312
112.114304 10946.849609
112.115425 1265.301514
113.065842 710.742676
113.066978 5547.366211
113.068123 20048.082031
113.06926 44137.648438
113.070404 57027.816406
113.071541 49916.894531
113.072685 29545.328125
113.073822 10095.201172
113.074959 1411.933228
114.051491 2802.000977
114.052643 12220.549805
114.053795 16887.445312
114.054955 15915.81543
114.056107 10004.771484
114.057259 3336.455566
114.087296 1026.895264
114.088455 4591.958496
114.089607 7274.194824
114.090767 7886.535156
114.091919 5928.189941
114.093079 2610.13208
115.08168 2070.582031
115.082848 12493.575195
115.084023 31105.990234
115.08519 47925.191406
115.086357 52335.921875
115.087532 41487.320312
115.088699 23314.525391
115.089874 7910.944336
115.577271 1418.083252
115.578445 7825.368164
115.579628 10633.480469
115.580803 11564.432617
115.581985 10202.010742
115.58316 6254.371582
119.998177 843.170776
119.999428 3317.390869
120.000671 5078.787598
120.001915 5418.044922
120.003166 4233.321289
120.00441 1988.732178
120.115425 423.856842
120.116676 2549.250977
120.117928 7733.660645
120.119171 19358.160156
120.120422 33066.730469
120.121666 42792.707031
120.122917 43327.558594
120.124168 34403.839844
120.125412 21481.779297
120.126663 11287.661133
120.127914 7177.791504
120.129158 4586.974121
120.130409 2094.021484
121.886055 2738.439453
121.887337 13234.319336
121.888611 22930.759766
121.889885 27729.066406
121.891159 24559.888672
121.892441 13448.369141
123.473366 543.314026
123.474663 2584.597412
123.475967 4494.885254
123.477264 5052.997559
123.478569 3890.713135
123.479866 1763.941284
124.6922 1981.064209
124.69352 8579.200195
124.694839 15546.993164
124.696159 18550.054688
124.697479 15709.901367
124.698807 9450.607422
124.700127 2718.967285
129.058853 1659.908691
129.060242 24090.304688
129.061646 101612.835938
129.063034 211856.140625
129.064423 307640.25
129.065811 305083.46875
129.0672 212802.21875
129.068588 102914.367188
129.069977 32405.925781
129.071365 9190.768555
129.072769 1977.80481
132.211487 4878.870117
132.212936 18361.277344
132.214371 26090.658203
132.21582 27064.285156
132.217255 20520.017578
132.218704 9576.978516
141.060577 1115.962646
141.062164 3699.211182
141.063751 6081.580078
141.065338 6805.133301
141.06694 5373.283203
141.068527 2226.342773
152.101379 1714.349609
152.103165 5227.091797
152.104935 8561.447266
152.10672 9898.743164
152.10849 8199.373047
152.110275 4703.657715
152.112045 1282.327271
156.070999 922.916565
156.072845 2603.181885
156.074692 3661.1604
156.076538 3525.54248
156.0784 2265.315918
156.080246 631.349792
157.124557 4778.780273
157.126434 40725.320312
157.128296 161975.15625
157.130157 338793.0625
157.132034 490279.625
157.133896 481471.0625
157.135773 327755.15625
157.137634 156410.984375
157.139496 45298.515625
157.141373 7043.421875
157.143234 1349.893433
159.533005 2077.322754
159.534912 8307.333008
159.536819 16671.650391
159.538742 21823.552734
159.540649 26668.220703
159.542557 33087.769531
159.544464 36274.871094
159.546387 34957.304688
159.548294 27642.267578
159.550201 15590.46582
159.552109 4531.413574
159.586517 4674.777344
159.588425 12220.303711
159.590347 18910.490234
159.592255 24922.751953
159.594162 38241.96875
159.596069 63269.675781
159.597992 90427.070312
159.599899 116438.21875
159.601807 118598.125
159.603729 91143.1875
159.605637 56303.453125
159.607544 33868.550781
159.609451 31738.740234
159.611374 31674.455078
159.613281 27063.337891
159.615189 19255.982422
159.617111 7952.333008
159.649612 3210.916016
159.651535 10548.317383
159.653442 18886.105469
159.65535 23445.925781
159.657272 20845.78125
159.65918 12894.745117
159.661102 4098.612305
163.032516 656.464905
163.034485 2262.339111
163.036469 4085.217529
163.038437 4931.073242
163.040405 4185.566406
163.042389 2455.712158
163.044357 702.281738
165.286057 10708.69043
165.288071 24694.121094
165.290085 28775.287109
165.292099 25323.919922
165.294113 16182.350586
165.296127 5513.868164
167.110413 1847.484009
167.112473 5377.251953
167.114517 9272.52832
167.116562 11408.255859
167.118607 10134.494141
167.120667 6378.285645
167.122711 1778.745361
169.102676 2217.556885
169.104767 5497.581543
169.106857 7584.605469
169.108932 7178.333008
169.111023 4607.384277
169.113113 1450.682983
172.002304 1157.418945
172.00444 2695.042725
172.006577 3505.141846
172.008713 3183.189941
172.010849 1978.960327
172.012985 549.286438
178.934204 1199.698853
178.936478 2773.244873
178.938751 3711.218262
178.94101 3490.07959
178.943283 2241.102051
178.945557 571.300903
179.295609 1487.280762
179.297897 3237.198486
179.300171 3963.551514
179.302444 3335.875732
179.304718 1873.232666
179.306992 463.539124
183.443329 10958.556641
183.445679 21070.826172
183.448044 24358.119141
183.450394 22664.001953
183.452759 16184.34082
183.455109 4868.555176
185.117966 5711.675781
185.120361 30348.53125
185.122742 87673.390625
185.125137 156785.0625
185.127518 198779.78125
185.129913 167596.953125
185.132294 98847.59375
185.134689 34756.652344
185.13707 5014.507812
188.147095 1265.865234
188.149536 2818.517578
188.151978 3772.989502
188.154434 3655.122314
188.156876 2584.698975
188.159317 674.659485
192.782593 1229.196411
192.785141 2708.649414
192.787674 3552.568848
192.790207 3308.484375
192.792755 2139.894775
192.795288 528.685608
195.105408 2451.644043
195.108002 5415.994141
195.11058 7549.733887
195.113159 7664.272461
195.115753 5626.176758
195.118332 1138.771973
197.094742 9446.275391
197.097351 23751.804688
197.099976 33992.910156
197.1026 36244.898438
197.105225 29309.509766
197.107849 11538.555664
197.110474 3262.391602
197.113098 525.415894
199.549606 11956.188477
199.552277 20753.878906
199.554947 23423.189453
199.557617 22210.386719
199.560303 19448.748047
199.562973 4833.73584
199.565643 2517.858154
199.568314 7913.474121
199.570984 13053.015625
199.573669 15062.884766
199.57634 22044.804688
199.57901 27050.685547
199.58168 26523.679688
199.584351 24151.447266
199.587036 17101.326172
199.589706 4359.285156
209.442368 2222.783691
209.445236 4479.986328
209.448105 5505.25293
209.450989 4726.975098
209.453857 2760.226074
209.456726 587.237793
213.087616 1751.323364
213.090561 5751.992676
213.093521 10974.166992
213.096466 14384.524414
213.099411 13537.408203
213.102356 9002.109375
213.105316 4076.186279
213.108261 428.800781
215.104492 8711.783203
215.107483 22064.966797
215.110474 33528.503906
215.113464 35201.164062
215.116455 26478.228516
215.119446 13993.962891
215.122437 3677.716309
215.125427 401.147217
222.533768 5468.486328
222.536926 10563.960938
222.54007 13568.996094
222.543213 12983.408203
222.546371 9086.134766
222.549515 1416.189453
231.012497 2600.349854
231.015823 4031.01709
231.01915 4249.380859
231.022491 3055.104004
231.025818 1318.572876
231.029144 96.76667
242.114349 525.062988
242.11792 9402.212891
242.12149 15625.285156
242.125061 17494.111328
242.128632 13042.515625
242.132202 5719.109863
242.135773 606.979309
254.886749 941.250732
254.89061 15508.487305
254.89447 24410.771484
254.898331 27210.041016
254.902176 21177.609375
254.906036 10164.049805
258.959381 524.115479
258.963318 9882.889648
258.967285 22612.738281
258.971222 36385.605469
258.975189 31839.880859
258.979126 17569.195312
258.983093 1051.543701
279.636536 631.091919
279.640961 3490.81958
279.645386 6220.362793
279.649811 6900.722168
279.654266 5029.834961
279.658691 2103.913574
281.629089 444.868683
281.633575 3403.220947
281.638062 9983.961914
281.642548 15187.131836
281.647034 16584.123047
281.651489 13336.601562
281.655975 7618.44043
281.660461 2268.115479
287.634491 1114.89856
287.63913 5171.700684
287.643738 8681.826172
287.648376 10279.162109
287.653015 8786.491211
287.657623 5198.527344
287.662262 1765.02356
288.148621 553.13208
288.153259 2506.924072
288.157898 3495.052979
288.162537 3705.049072
288.167175 3169.213379
288.171814 1845.041382
294.139954 314.996643
294.144745 6342.59668
294.149506 33930.332031
294.154297 84184.679688
294.159088 136340.234375
294.163879 159863.03125
294.168671 120992.921875
294.173431 66050.125
294.178223 20112.416016
294.183014 3446.314697
300.142517 539.441833
300.147461 3860.203369
300.152405 11350.696289
300.157318 20326.992188
300.162262 26334.300781
300.167175 25559.316406
300.172119 18248.214844
300.177032 7830.819824
302.65802 1829.051514
302.662994 8140.697754
302.667999 15361.422852
302.673004 19939.851562
302.677979 18496.017578
302.682983 12058.375977
302.687958 4489.359375
303.664032 989.656555
303.669037 4273.441895
303.674072 7998.38623
303.679077 10417.555664
303.684113 9761.244141
303.689117 6384.779785
303.694153 2334.144043
304.13623 2693.567139
304.141266 17865.199219
304.146301 58425.222656
304.151337 115587.367188
304.156342 152994.09375
304.161377 139430.84375
304.166412 87128.21875
304.171448 36685.75
304.176483 7505.401855
308.138367 3014.31958
308.143494 15912.12207
308.148621 44624.761719
308.153748 89699.71875
308.158875 123976.117188
308.164001 115107.671875
308.169128 73064.367188
308.174286 33838.058594
308.179413 7443.560059
310.132874 2982.786377
310.138031 17036.066406
310.143219 50706.011719
310.148407 101331.40625
310.153595 143729.234375
310.158752 139553.6875
310.16394 90147.367188
310.169128 41047.765625
310.174286 12345.957031
314.138153 4078.529785
314.143433 23426.496094
314.148712 65587.835938
314.153992 113003.640625
314.159271 130643.882812
314.164551 100776.929688
314.16983 50474.257812
314.17511 13493.025391
314.180389 3094.042725
314.645599 1850.939941
314.650879 7776.071777
314.656189 13171.652344
314.661469 15076.416992
314.666779 12211.865234
314.672058 5828.555664
316.138 1607.48584
316.143311 5300.623047
316.148651 7202.64209
316.153992 7255.216309
316.159302 5963.612305
316.164642 3078.883057
316.650269 1081.766846
316.65564 9052.454102
316.66098 29189.333984
316.666321 54708.613281
316.671661 71659.609375
316.677002 65075.707031
316.682343 40199.214844
316.687683 15800.050781
316.693024 2080.101807
317.147766 5464.088379
317.153107 21229.582031
317.158478 37981.527344
317.163818 49164.375
317.169189 47000.5
317.17453 32452.007812
317.179901 14416.162109
317.185242 2683.772949
318.631042 620.440552
318.636414 5136.010254
318.641815 27727.710938
318.647217 70249.226562
318.652618 94258.835938
318.65799 91966.335938
318.663391 73157.453125
318.668793 58846.632812
318.674194 46069.039062
318.679565 23148.771484
318.684967 9864.982422
322.648712 2751.0
322.654205 18169.511719
322.659698 65203.742188
322.665192 140176.125
322.670685 189398.5
322.676178 176352.859375
322.681671 113853.804688
322.687164 50441.6875
322.692688 10129.828125
322.698181 329.970032
323.14386 2451.571533
323.149384 11106.301758
323.154877 27480.109375
323.1604 51573.027344
323.165894 68680.445312
323.171417 55991.710938
323.17691 25184.375
323.182434 7220.724609
324.143127 927.139038
324.148651 3128.050537
324.154205 4541.829102
324.159729 4553.770508
324.165253 3167.979248
324.170807 1216.171143
324.248291 1982.887695
324.253815 8257.1875
324.259369 15556.177734
324.264893 21170.550781
324.270447 20866.382812
324.27597 14584.144531
324.281525 7956.063477
324.287048 18115.644531
324.292572 56271.226562
324.298126 91593.21875
324.30365 97469.257812
324.309204 64513.40625
324.314728 28797.285156
324.320282 13331.285156
324.325806 23248.638672
324.33136 45184.84375
324.336884 56977.078125
324.342438 58180.886719
324.347961 51812.796875
324.353516 43166.972656
324.359039 32291.964844
324.364594 21065.328125
324.370117 15900.171875
324.375671 9837.0625
324.381195 4031.290771
324.647278 2316.59668
324.652832 7174.245117
324.658356 10101.664062
324.66391 10578.513672
324.669464 8167.969727
324.675018 4251.126465
324.680542 1115.871094
325.664673 1969.541748
325.670227 6484.79541
325.675812 9846.491211
325.681396 10692.291992
325.686951 8699.433594
325.692535 5321.633789
325.69812 1921.177368
326.14444 4611.594727
326.150024 18143.175781
326.155609 30543.894531
326.161194 33741.164062
326.166779 25377.111328
326.172363 10559.807617
327.354126 1015.566833
327.359741 3061.479004
327.365387 3954.185791
327.371002 3706.388428
327.376617 2442.327393
327.382233 877.841064
327.719482 3543.671143
327.725128 10783.575195
327.730743 14987.764648
327.736359 15303.469727
327.742004 11411.410156
327.74762 4496.572754
331.172424 11550.445312
331.178131 35102.207031
331.183868 45353.742188
331.189575 42712.605469
331.195282 29552.214844
331.200989 12182.289062
331.652985 3000.263916
331.658691 29363.914062
331.664429 104598.226562
331.670166 209292.296875
331.675873 296712.96875
331.68161 301258.8125
331.687347 213244.6875
331.693054 105996.578125
331.698792 28121.546875
331.704529 2624.435059
332.163269 1174.576538
332.169006 4599.752441
332.174744 9326.295898
332.180481 13470.46875
332.186218 14417.463867
332.191956 11356.214844
332.197693 6328.567383
332.203461 1959.484619
332.807098 932.105896
332.812866 3193.846924
332.818604 5172.603516
332.824371 6752.483887
332.830139 7091.004395
332.835876 5854.373047
332.841644 3526.089355
332.847412 1214.961182
333.152802 6631.759277
333.158569 19755.296875
333.164307 28320.902344
333.170074 30647.625
333.175842 25873.269531
333.18161 16665.845703
333.187378 6060.742676
334.488708 1961.847656
334.494507 5519.359375
334.500305 7272.291016
334.506134 6953.578613
334.511932 4992.460938
334.517731 2020.059204
335.663544 5070.677246
335.669373 18762.279297
335.675201 32691.613281
335.68103 39179.648438
335.686859 32774.726562
335.692688 18025.322266
335.698517 4976.682617
336.165588 768.140442
336.171417 2366.757812
336.177277 3413.046143
336.183105 3476.631104
336.188965 2561.594238
336.194794 1050.925293
337.149567 3166.53418
337.155457 10144.321289
337.161316 15343.181641
337.167175 15527.71582
337.173065 10873.291992
337.178925 4062.658447
339.634491 1133.198853
339.640411 17757.869141
339.646362 49548.335938
339.652283 153123.546875
339.658234 563077.25
339.664154 1349405.75
339.670105 2278139.0
339.676025 2730465.25
339.681976 2212484.5
339.687897 1265616.0
339.693848 515855.46875
339.699768 140117.953125
339.705719 44042.605469
339.711639 19321.275391
339.71759 3238.923584
340.151428 6238.382324
340.157379 56654.597656
340.16333 182047.5625
340.169281 340418.875
340.175201 454253.03125
340.181152 410870.96875
340.187103 266709.9375
340.193054 116121.640625
340.199005 31438.916016
340.204956 6824.588379
345.64209 3325.74585
345.648193 23478.552734
345.654266 135721.953125
345.66037 476733.375
345.666473 984685.125
345.672546 1435471.0
345.67865 1427836.75
345.684753 981707.5
345.690826 478260.34375
345.69693 152682.125
345.703033 44537.449219
345.709106 10777.445312
346.148376 1570.689941
346.15448 22729.632812
346.160583 100098.570312
346.166687 222932.3125
346.172791 341817.1875
346.178894 361145.59375
346.185028 261669.15625
346.191132 134400.671875
346.197235 39750.71875
346.203339 3482.723633
349.655548 8908.624023
349.661743 38330.152344
349.667938 84221.851562
349.674133 135950.96875
349.680328 148587.734375
349.686523 112458.085938
349.692749 57568.585938
349.698944 20164.498047
349.705139 4856.037598
351.160675 4575.720703
351.166931 16180.87793
351.173157 29367.697266
351.179382 37047.953125
351.185638 33971.457031
351.191864 22200.958984
351.19812 7496.134277
351.66037 5208.96875
351.666626 14561.654297
351.672882 20442.177734
351.679138 19771.425781
351.685394 12695.506836
351.69165 3824.674805
352.154877 1806.5177
352.161163 5189.929688
352.167419 7953.9375
352.173676 8979.007812
352.179962 7393.075684
352.186218 4112.025391
352.192505 1137.337769
353.184784 1977.411865
353.191101 5861.986328
353.197388 9066.734375
353.203674 9917.288086
353.209961 7677.888672
353.216278 3974.227051
353.222565 1045.325806
354.137054 6433.834473
354.143372 14121.272461
354.149719 35717.570312
354.156036 66328.078125
354.162354 186419.921875
354.168671 717498.4375
354.174988 1915249.375
354.181305 3501966.5
354.187622 4536027.0
354.193939 3973921.0
354.200256 2467651.75
354.206573 1095963.5
354.212921 338963.71875
354.219238 125159.585938
354.225555 65484.820312
354.231873 28798.902344
354.23819 5703.621582
354.655823 2039.370605
354.66214 18855.693359
354.668488 96566.75
354.674805 315650.875
354.681152 650683.375
354.687469 944151.4375
354.693817 956851.625
354.700134 662478.3125
354.706482 326881.03125
354.712799 93647.671875
354.719147 13433.371094
354.725494 125.244896
355.169342 4156.77002
355.17569 11547.009766
355.182037 15957.1875
355.188385 14859.4375
355.194733 9100.009766
355.20108 2724.838379
356.461273 4570.785156
356.467651 11147.179688
356.47403 14269.758789
356.480408 13841.996094
356.486786 9726.970703
356.493164 3392.083496
356.678314 2357.349365
356.684723 8735.070312
356.691101 20048.347656
356.697479 32422.693359
356.703888 37735.542969
356.710266 32237.080078
356.716644 19348.298828
356.723053 5894.058594
358.171234 6919.713379
358.177673 23768.654297
358.184082 44761.910156
358.190521 73324.929688
358.19696 69680.875
358.203369 39633.175781
358.209808 18949.972656
358.216248 4791.018066
358.673096 1546.824585
358.679535 4532.726562
358.686005 7002.618652
358.692444 7877.129883
358.698883 7045.474121
358.705322 5306.119629
358.711761 2050.949951
359.163116 9800.756836
359.169586 28845.617188
359.176025 45876.601562
359.182495 52932.90625
359.188934 45626.648438
359.195404 29428.837891
359.201843 12965.357422
359.208313 3653.060791
359.214752 2612.990479
359.221222 4178.131348
359.227661 4517.924805
359.234131 3277.286377
359.24057 1138.886597
359.654144 6552.850586
359.660614 20015.050781
359.667084 32594.027344
359.673553 37460.953125
359.680023 31333.638672
359.686493 18611.775391
359.692963 5598.251953
360.165619 2334.321045
360.172089 10246.008789
360.178589 22164.007812
360.185059 32782.085938
360.191528 32389.443359
360.198029 21442.580078
360.204498 9816.751953
360.210999 2308.993408
363.658264 1851.779175
363.664825 5580.309082
363.671417 9203.274414
363.677979 10751.391602
363.68457 9018.972656
363.691132 5213.67627
363.697723 1381.395386
364.1651 6623.138184
364.171692 43275.222656
364.178284 110410.101562
364.184875 182123.640625
364.191467 209663.71875
364.198059 166058.578125
364.204651 93467.632812
364.211243 35432.261719
364.217834 6401.275879
364.666443 2730.00415
364.673035 11765.399414
364.679626 25890.15625
364.686249 38785.644531
364.692841 42935.40625
364.699463 36175.082031
364.706055 23421.382812
364.712646 10564.325195
364.719269 2312.69043
365.195251 2888.795898
365.201874 13365.858398
365.208496 28538.691406
365.215118 37857.851562
365.22171 34299.65625
365.228333 21300.550781
365.234955 6595.369629
365.685425 1005.121582
365.692078 4841.535645
365.6987 18260.707031
365.705322 37183.359375
365.711975 46786.4375
365.718597 40499.640625
365.72522 23771.183594
365.731842 8099.912598
365.738495 1019.713928
366.203186 4797.822754
366.209839 13666.369141
366.216461 21760.492188
366.223114 25810.462891
366.229767 23025.275391
366.23642 15327.484375
366.243042 5156.342773
368.157928 2723.431152
368.164612 14335.783203
368.171326 49971.484375
368.178009 103653.359375
368.184723 139487.03125
368.191406 126034.34375
368.19812 78326.882812
368.204803 31698.552734
368.211517 5597.751953
368.660797 1249.205933
368.667511 4516.756836
368.674225 8936.262695
368.680939 12162.515625
368.687653 11883.777344
368.694366 8381.147461
368.70108 4090.044189
368.707794 1019.921509
369.178162 3566.240967
369.184875 10268.932617
369.191589 15799.385742
369.198334 17179.080078
369.205048 13566.408203
369.211792 7643.771484
369.218506 2203.479248
370.682617 1732.259033
370.689392 5618.936035
370.696167 9861.958008
370.702942 11929.338867
370.709686 10229.410156
370.716461 6097.195801
370.723236 1777.699829
372.680206 6900.557617
372.687042 19043.927734
372.693848 29315.597656
372.700684 33251.164062
372.707489 28315.677734
372.714325 17279.115234
372.72113 3923.629395
373.685059 9904.847656
373.691925 43762.511719
373.698761 95785.710938
373.705597 147035.96875
373.712463 152393.4375
373.719299 111245.039062
373.726166 57776.761719
373.733002 19157.646484
373.739868 2373.185059
374.158142 15284.086914
374.164978 102822.671875
374.171844 292445.46875
374.178711 528525.0625
374.185577 660722.6875
374.192444 548369.5625
374.19931 336829.21875
374.206177 146080.71875
374.213043 52277.878906
374.21991 26978.078125
374.226776 14503.680664
374.233612 5787.651855
374.240479 1698.223145
374.666473 10150.116211
374.67334 35022.039062
374.680237 73565.320312
374.687103 95602.671875
374.69397 77304.960938
374.700867 42316.53125
374.707733 13989.669922
374.7146 1124.481567
375.017426 1437.88501
375.024323 3967.301514
375.031189 5698.265137
375.038086 5919.824219
375.044983 4524.32959
375.051849 1707.638306
378.156433 4997.353027
378.163422 42517.535156
378.17038 169123.578125
378.177368 361950.84375
378.184326 550845.625
378.191315 556169.375
378.198273 389817.71875
378.205261 190231.625
378.212219 58307.484375
378.219208 11100.974609
378.226166 1598.272095
378.658997 1119.38623
378.665985 11532.007812
378.672974 34944.804688
378.679962 71726.945312
378.68692 101931.320312
378.693909 85533.453125
378.700897 49268.46875
378.707886 22601.693359
378.714874 6290.313477
379.176544 1864.546265
379.183533 10567.470703
379.190552 22023.492188
379.19754 52669.035156
379.204529 126533.578125
379.211548 201419.875
379.218536 221649.53125
379.225555 157597.6875
379.232544 77990.984375
379.239563 18907.710938
379.246552 2100.912109
379.681122 1538.051147
379.688141 20475.4375
379.69516 66316.703125
379.702148 132130.828125
379.709167 177744.0625
379.716187 162811.703125
379.723206 102849.351562
379.730225 43023.640625
379.737244 8718.917969
381.172699 6262.902344
381.179749 23591.300781
381.186798 44441.722656
381.193848 58560.632812
381.200928 55880.910156
381.207977 36070.554688
381.215027 13906.609375
381.222076 2590.787109
381.652985 4626.695312
381.660034 11884.198242
381.667114 16571.660156
381.674194 16659.472656
381.681244 12815.022461
381.688324 2501.745361
382.162506 3066.449463
382.169586 7302.033203
382.176666 10044.50293
382.183777 10568.693359
382.190857 8696.026367
382.197937 5473.783203
382.205017 1091.154541
386.664795 362.962494
386.671997 7103.120117
386.679199 62870.777344
386.686401 204153.546875
386.693634 368620.875
386.700836 466658.21875
386.708038 385013.5
386.715271 226865.171875
386.722473 90928.078125
386.729675 23886.083984
386.736877 3055.239014
387.16272 2975.168457
387.169952 34034.078125
387.177155 128393.164062
387.184387 267224.46875
387.19162 399900.78125
387.198853 408726.375
387.206055 284419.71875
387.213287 140881.265625
387.22052 51822.792969
387.227753 9262.572266
387.676086 3834.693359
387.683319 9863.098633
387.690582 14538.87793
387.697815 15137.943359
387.705048 10741.363281
387.71228 3207.592285
388.161469 7715.132812
388.168732 45184.3125
388.175995 89445.945312
388.183228 103163.515625
388.190491 103440.148438
388.197754 170851.53125
388.204987 402897.96875
388.21225 770199.9375
388.219513 1063606.75
388.226746 1000241.125
388.234009 629224.1875
388.241272 271858.4375
388.248505 52893.59375
388.255768 3886.943115
388.65506 1997.066406
388.662323 25770.369141
388.669586 69274.125
388.676849 107938.96875
388.684113 106567.085938
388.691376 71808.9375
388.698639 50108.480469
388.705902 95218.6875
388.713165 186103.796875
388.720428 266917.6875
388.727722 256178.953125
388.734985 166518.4375
388.742249 69223.859375
388.749512 12299.117188
392.1586 2166.525879
392.165955 10357.865234
392.17334 28329.359375
392.180695 47304.070312
392.188049 51901.371094
392.195435 39945.804688
392.202789 20527.888672
392.210144 6309.460449
392.217529 893.714111
393.021576 798.528625
393.028961 4264.625
393.036346 10161.291992
393.043732 15697.338867
393.051117 17007.949219
393.058502 12810.043945
393.065918 5070.383301
393.073303 747.897766
393.191559 8943.629883
393.198944 22074.884766
393.206329 30779.222656
393.213745 30439.695312
393.22113 21500.480469
393.228516 8865.426758
393.235901 1447.357788
393.679932 8797.519531
393.687347 26232.763672
393.694733 49377.902344
393.702148 65177.457031
393.709564 54950.730469
393.71698 32936.332031
393.724365 12752.318359
393.731781 2072.049805
394.191467 858.187134
394.198914 2696.359619
394.206329 10492.3125
394.213745 19875.023438
394.221161 23795.587891
394.228577 20094.742188
394.236023 12841.629883
394.243439 3802.093506
395.679901 4576.794922
395.687347 13995.214844
395.694824 35512.746094
395.702271 63590.753906
395.709747 72852.828125
395.717194 48422.664062
395.72467 22495.638672
395.732147 5837.740723
396.187866 5844.768066
396.195343 26955.898438
396.20282 66136.382812
396.210297 109403.453125
396.217773 122675.257812
396.22525 92500.664062
396.232727 47109.484375
396.240204 16276.851562
396.247681 3035.281494
399.703064 3026.724854
399.710632 6340.806152
399.718201 7894.275391
399.7258 7458.632324
399.733368 5218.047852
400.659515 15.927867
400.667114 799.688293
400.674713 26607.257812
400.682312 75166.070312
400.689911 124582.9375
400.69754 140273.75
400.705139 100308.023438
400.712738 43118.3125
400.720337 12669.730469
400.727936 13652.935547
400.735565 22205.193359
400.743164 22841.085938
400.750763 15097.932617
400.758362 4352.386719
401.161865 10939.191406
401.169495 62349.808594
401.177094 170134.65625
401.184723 300908.78125
401.192352 360976.28125
401.199951 293204.5625
401.207581 175779.3125
401.21521 67132.8125
401.222809 14628.477539
401.230438 1668.746826
401.672791 5104.259766
401.68045 13115.958008
401.68808 19666.845703
401.695709 21121.085938
401.703339 16237.757812
401.710968 8282.711914
401.718597 2025.248169
402.161774 282.847351
402.169434 13154.417969
402.177063 33290.308594
402.184723 111160.226562
402.192383 427814.34375
402.200012 1270375.0
402.207672 2399080.5
402.215332 3277264.0
402.222961 2992329.75
402.230621 1950654.125
402.238251 874190.9375
402.245911 261641.703125
402.253571 69915.5
402.2612 27362.771484
402.26886 10722.264648
402.27652 1748.278564
402.682312 11992.383789
402.689972 49279.863281
402.697632 199045.625
402.705292 475412.59375
402.712952 801904.5625
402.720612 917305.0
402.728271 700032.0625
402.735931 378651.9375
402.743591 135657.578125
402.751251 28257.904297
402.758942 3437.542236
406.199066 5472.842773
406.206848 14460.87793
406.2146 22380.976562
406.222351 24924.519531
406.230133 20254.369141
406.237885 11438.493164
406.245667 2769.394043
406.711884 4794.549316
406.719666 19090.039062
406.727448 33674.09375
406.735229 39574.609375
406.743011 33856.039062
406.750793 20870.623047
406.758575 6369.912109
406.766327 480.612061
408.553589 1657.861694
408.561401 3887.028564
408.569244 5106.276855
408.577087 4724.603516
408.5849 2993.661865
408.592743 860.069702
409.644165 10492.40625
409.652039 56150.539062
409.659882 113302.09375
409.667755 188802.5625
409.675629 588493.375
409.683472 2047744.75
409.691345 4389182.5
409.699219 6945446.5
409.707062 7454720.5
409.714935 5475381.5
409.722809 2897878.75
409.730652 1080674.125
409.738525 330249.625
409.746399 163970.875
409.754242 85383.578125
409.762115 47038.097656
409.769989 15985.773438
409.777863 699.290466
410.163544 6125.095703
410.171417 47214.007812
410.179291 228067.890625
410.187164 768767.3125
410.195038 1496353.125
410.202911 2128454.25
410.210785 1991383.125
410.218658 1322709.5
410.226562 599266.0
410.234436 183237.125
410.24231 48125.265625
410.250183 9693.328125
410.691772 8998.992188
410.699677 50363.234375
410.70755 198433.84375
410.715454 473848.46875
410.723328 807212.3125
410.731232 956238.375
410.739136 760182.0
410.747009 432054.59375
410.754913 165067.046875
410.762817 38586.109375
410.770691 6552.390137
411.023438 838.501038
411.031342 10125.890625
411.039215 35284.292969
411.047119 72383.632812
411.055023 99247.882812
411.062927 89555.039062
411.070831 56350.003906
411.078735 21989.96875
411.086639 3600.644775
411.197327 1173.623779
411.205231 17020.078125
411.213135 55478.980469
411.221039 115029.0625
411.228943 165614.90625
411.236847 169149.84375
411.244751 115820.242188
411.252655 53947.140625
411.260559 9678.577148
411.268494 662.196228
414.674286 4047.329834
414.682312 13429.933594
414.690308 24643.220703
414.698334 28127.15625
414.706329 16759.101562
414.714325 6492.905762
414.722351 1279.11084
415.179199 3841.741699
415.187225 7920.272461
415.195221 9577.932617
415.203247 8077.593262
415.211273 4503.888184
415.219299 998.265686
415.693054 8911.191406
415.70108 46716.460938
415.709106 100959.257812
415.717163 139193.578125
415.725189 131983.390625
415.733215 90006.601562
415.741272 38772.386719
415.749298 8151.020996
415.757355 680.93811
416.175659 5499.330566
416.183685 50387.503906
416.191742 185364.765625
416.199799 419847.5625
416.207855 697230.5625
416.215912 787191.4375
416.223969 595099.6875
416.231995 322972.8125
416.240051 119966.429688
416.248108 28340.578125
416.256165 3235.144287
416.683289 4904.016602
416.691345 27059.773438
416.699432 77024.617188
416.707489 136801.09375
416.715546 174665.8125
416.723602 150579.984375
416.731689 91709.40625
416.739746 38572.855469
416.747803 9160.349609
416.75589 1202.654175
420.696228 3763.985352
420.704407 17430.855469
420.712585 54620.832031
420.720764 104585.875
420.728943 148104.734375
420.737122 146623.375
420.745331 102005.164062
420.75351 46343.203125
420.761688 14234.932617
420.769867 1266.107544
421.212158 13253.522461
421.220367 27711.292969
421.228546 35280.578125
421.236755 34159.105469
421.244934 24977.806641
421.253143 7058.816406
421.712616 3517.950439
421.720825 8351.520508
421.729034 11582.34375
421.737244 11348.441406
421.745453 8177.313477
421.753693 4308.203125
421.761902 1041.731079
423.16983 654.761414
423.178101 11092.385742
423.18634 63326.980469
423.194611 156648.515625
423.20285 261547.140625
423.211121 300910.71875
423.21936 230032.078125
423.227631 129960.398438
423.23587 45912.550781
423.244141 8512.804688
423.25238 419.718842
423.293671 3459.735596
423.301941 8343.133789
423.310181 12504.207031
423.318451 14011.067383
423.326721 14741.952148
423.334961 11915.910156
423.343231 28555.724609
423.351471 58822.347656
423.359741 82959.179688
423.368011 88102.789062
423.376251 70298.453125
423.384521 35790.257812
423.392792 11591.499023
423.401031 3713.096924
423.409302 1019.768005
423.640717 1016.757202
423.648987 16355.183594
423.657257 27064.830078
423.665527 81850.179688
423.673798 337814.75
423.682068 1123882.5
423.690338 2186710.75
423.698608 3162302.0
423.706879 3001496.5
423.715149 2018406.125
423.723419 944819.8125
423.731689 313201.59375
423.73996 90886.6875
423.74823 32844.566406
423.7565 7504.161133
423.764771 377.300598
424.162079 10316.870117
424.170349 48222.621094
424.17865 192729.1875
424.18692 477743.9375
424.195221 821485.375
424.203491 975343.75
424.211792 757207.5
424.220062 429831.71875
424.228363 159086.90625
424.236633 36322.113281
424.244934 3924.991455
424.684418 341.86203
424.692719 23333.933594
424.700989 112565.367188
424.70929 360170.71875
424.71759 685508.75
424.725891 942707.375
424.734192 845194.25
424.742493 542460.0625
424.750793 230394.171875
424.759094 61850.679688
424.767395 9734.595703
425.191071 2348.900879
425.199371 30092.283203
425.207703 107777.765625
425.216003 210542.8125
425.224335 299757.375
425.232635 283340.46875
425.240967 190324.703125
425.249268 89033.546875
425.257599 24239.886719
425.2659 2641.078125
428.712738 4105.025391
428.721161 8102.614258
428.729584 10028.786133
428.737976 9263.71582
428.746399 6166.046387
428.754822 1439.112305
429.041199 2657.881104
429.049622 10616.484375
429.058044 21379.513672
429.066467 30263.587891
429.07489 28343.408203
429.083313 18583.822266
429.091736 8034.081055
429.100189 1524.804077
429.218201 9864.736328
429.226624 28917.830078
429.235077 65236.5625
429.2435 81905.945312
429.251923 65281.03125
429.260345 36658.605469
429.268799 13781.644531
429.277222 2136.094238
429.707672 12621.90332
429.716095 37779.507812
429.724548 67746.679688
429.733002 109376.398438
429.741455 113279.023438
429.749908 81616.359375
429.758331 45023.828125
429.766785 13752.520508
429.775238 1235.963135
430.223358 5431.074707
430.231812 11737.472656
430.240265 17531.277344
430.248718 21144.414062
430.257202 20013.550781
430.265656 14207.919922
430.274109 7256.827148
430.282593 1513.178833
434.047821 3799.959717
434.056396 13737.955078
434.064972 27044.160156
434.073547 36126.667969
434.082123 32187.552734
434.090698 18813.777344
434.099274 5777.522461
434.107849 752.775696
434.700226 7010.842773
434.708832 40645.585938
434.717407 97183.25
434.726013 140315.34375
434.734619 129658.09375
434.743195 81652.273438
434.751801 30006.957031
434.760406 2843.51123
435.199097 4014.243164
435.207703 14211.588867
435.216309 26284.837891
435.224945 33215.414062
435.233551 27402.507812
435.242157 16474.351562
435.250763 6030.32666
435.259369 786.033813
438.68924 21049.619141
438.697937 98382.4375
438.706665 281326.4375
438.715363 506255.34375
438.724091 648221.3125
438.732788 532002.0625
438.741516 321423.6875
438.750244 124129.148438
438.758942 30802.880859
438.76767 2413.000488
439.020508 5775.286621
439.029205 25176.597656
439.037933 62836.726562
439.046661 108859.046875
439.055389 123099.273438
439.064117 90928.171875
439.072845 45716.835938
439.081573 14581.349609
439.090271 1528.686035
439.195007 2150.253906
439.203735 24133.597656
439.212463 64999.804688
439.221191 111266.15625
439.229919 122748.648438
439.238647 86523.296875
439.247375 42409.175781
439.256104 12241.672852
439.264832 2446.645508
443.193085 170.418259
443.201935 12939.174805
443.210785 62364.78125
443.219635 207542.578125
443.228485 471747.46875
443.237335 786261.375
443.246185 925621.375
443.255035 744320.125
443.263885 415672.21875
443.272705 157805.5625
443.281555 25869.546875
443.290405 1417.613647
443.697784 7525.847168
443.706665 58234.546875
443.715515 203455.359375
443.724365 424805.1875
443.733246 684022.9375
443.742096 737805.625
443.750977 527529.25
443.759827 274220.375
443.768707 94266.914062
443.777557 17175.015625
443.786438 1337.463257
444.203369 1650.882812
444.21225 30557.3125
444.2211 118145.632812
444.22998 283852.46875
444.238861 487066.5
444.247742 597909.8125
444.256622 503013.65625
444.265503 312098.5
444.274384 134049.90625
444.283264 28045.474609
444.292145 941.743713
444.700897 16091.662109
444.709778 40312.523438
444.718689 65507.949219
444.72757 101650.109375
444.736481 103224.84375
444.745361 93286.328125
444.754242 74629.875
444.763153 47486.144531
444.772034 20328.257812
444.780945 3332.868164
445.19928 8889.875977
445.208191 23572.3125
445.217102 39998.15625
445.226013 56169.105469
445.234894 45549.273438
445.243805 27161.572266
445.252716 8146.348145
445.261627 836.977905
448.216187 4566.538086
448.225189 8392.549805
448.234192 9403.173828
448.243195 7201.468262
448.252197 3441.994141
448.2612 568.172119
448.702484 12424.245117
448.711487 33972.804688
448.72049 67704.726562
448.729523 87085.828125
448.738525 70438.867188
448.747528 38873.824219
448.756561 15421.020508
448.765564 2438.051758
449.198578 2775.154541
449.207581 6920.952148
449.216614 10829.919922
449.225647 12182.569336
449.23468 10235.469727
449.243713 6423.796387
449.252747 1212.163818
451.691406 7127.827148
451.700531 14153.408203
451.709625 18478.431641
451.718719 17966.90625
451.727814 13000.816406
451.736938 2558.372803
452.219818 8670.453125
452.228943 44664.960938
452.238068 83442.226562
452.247192 106140.757812
452.256317 94478.695312
452.265411 60346.625
452.274536 18415.365234
452.283661 1681.485229
457.045349 3150.702393
457.054626 6227.710938
457.063904 7637.375977
457.073151 6854.051758
457.082428 4490.375977
457.091675 1142.72876
457.165833 11218.765625
457.17511 28425.546875
457.184357 44003.15625
457.193634 42721.402344
457.202911 93779.195312
457.212189 334303.65625
457.221436 934278.125
457.230713 1661853.375
457.23999 2148697.75
457.249268 1789022.125
457.258514 1098083.625
457.267792 435167.71875
457.277069 119545.46875
457.286346 27477.173828
457.295624 10841.844727
457.304901 5648.779785
457.314148 927.025452
457.694611 5426.442383
457.703888 64766.03125
457.713165 271327.125
457.722443 630915.5
457.73175 1037133.0625
457.741028 1176905.5
457.750305 867858.1875
457.759583 482883.78125
457.76889 173046.140625
457.778168 41983.570312
457.787445 5616.286133
457.796753 25.376701
458.205688 9620.208008
458.214966 41449.109375
458.224274 92564.796875
458.233582 147562.40625
458.242889 156520.859375
458.252197 110646.515625
458.261475 58650.324219
458.270782 16533.439453
458.28009 2144.083008
462.20285 2013.445312
462.21225 6705.171875
462.22168 10182.874023
462.23111 11062.319336
462.24054 8845.970703
462.249939 4273.132324
462.259369 639.84021
466.176178 3884.490234
466.185699 36981.621094
466.195251 81724.40625
466.204803 192542.296875
466.214355 708310.0625
466.223877 2323684.75
466.233429 4450801.5
466.242981 6414912.0
466.252533 5982800.5
466.262085 3955163.5
466.271606 1808788.0
466.281158 582952.875
466.29071 177801.109375
466.300262 98597.804688
466.309814 37386.628906
466.319366 4357.704102
466.691956 10383.998047
466.701538 29761.537109
466.71109 127937.5
466.720642 496073.6875
466.730194 1175204.375
466.739777 1961648.5
466.749329 2261746.75
466.758881 1694626.5
466.768463 946576.4375
466.778015 340793.875
466.787567 95803.65625
466.79715 36210.566406
466.806702 17803.521484
466.816284 3486.790771
471.188629 3945.07251
471.198334 24438.421875
471.208008 97394.570312
471.217712 292398.84375
471.227417 547961.375
471.237122 740192.1875
471.246826 641200.375
471.256531 396575.53125
471.266205 163012.6875
471.275909 46060.457031
471.285614 6345.209473
471.693329 2621.900146
471.703064 21570.984375
471.712769 101876.242188
471.722473 211052.125
471.732208 308068.40625
471.741913 297749.96875
471.751617 201376.71875
471.761353 90890.070312
471.771057 22777.568359
471.780762 1588.462158
479.710938 7570.228027
479.720886 38505.289062
479.730835 88156.789062
479.740814 121110.132812
479.750763 108888.054688
479.760742 70956.6875
479.770691 32483.863281
479.78067 4604.492188
480.129639 153497.140625
480.139587 28921.462891
480.159546 107058.234375
480.169525 366130.625
480.179504 1019316.0625
480.189484 1497693.875
480.199463 2388724.25
480.209442 7500443.0
480.219421 24844430.0
480.229401 48932424.0
480.23938 72899152.0
480.249359 70527592.0
480.259338 47389112.0
480.269318 22631188.0
480.279297 7493688.0
480.289276 2401387.25
480.299255 1543139.625
480.309235 864602.5625
480.319214 304195.5625
480.329193 43636.589844
480.339172 1164.332275
480.658783 28755.955078
480.668762 123892.210938
480.678741 330893.875
480.688751 525049.0625
480.69873 710070.0625
480.70874 2140124.0
480.718719 7487566.0
480.728729 15894728.0
480.738708 25198088.0
480.748718 26594950.0
480.758698 18658512.0
480.768707 9729795.0
480.778687 3356026.25
480.788696 1044752.75
480.798706 598057.0
480.808685 346973.59375
480.818695 124043.453125
480.828674 38048.757812
480.838684 4274.011719
481.218811 17970.914062
481.228821 54921.144531
481.238831 82586.585938
481.24884 84793.960938
481.25885 60779.8125
481.26886 22070.5
481.27887 3010.685059
493.240784 3736.734619
493.25119 7057.12793
493.261566 8503.4375
493.271973 7127.150391
493.282349 3976.967041
493.292725 482.855316
514.214233 1913.177002
514.225281 20482.570312
514.236328 51344.292969
514.247375 75938.257812
514.258423 77153.1875
514.269531 55488.824219
514.280579 23887.605469
514.291626 4485.698242
514.302673 249.649475
515.23291 8500.420898
515.244019 17259.140625
515.255127 21556.365234
515.266174 17483.796875
515.277283 8359.766602
515.288391 672.296692
542.208252 11068.164062
542.220215 28589.0625
542.232178 57427.097656
542.244141 77678.484375
542.256165 71885.523438
542.268127 41847.421875
542.28009 18534.357422
542.292053 517.644714
552.886475 9.03522
552.898804 5425.850098
552.911133 9270.334961
552.923462 10487.614258
552.935791 7985.541992
552.94812 3767.932617
565.422668 3271.096436
565.435425 5144.87207
565.448181 5830.079102
565.460938 4859.762207
565.473694 2766.387207
565.486389 61.041924
576.744934 40.077538
576.758057 9161.334961
576.77124 14117.448242
576.784363 16387.533203
576.797485 14350.676758
576.810608 9200.964844
586.197449 364.818115
586.210876 5356.88623
586.224365 7647.896484
586.237793 8998.261719
586.251282 8662.348633
586.264709 6298.034668
586.278198 2977.671631
587.221558 296.219971
587.235046 4283.852539
587.248535 6730.393066
587.262024 7677.700684
587.275513 6304.839844
587.289062 3232.885254
603.262146 1027.352295
603.276184 11189.419922
603.290222 17835.988281
603.30426 21123.509766
603.318298 18498.986328
603.332397 10816.655273
607.243713 295.061554
607.257874 3140.328857
607.272095 7369.861816
607.286255 11893.923828
607.300476 14342.352539
607.314636 13192.916016
607.328857 9036.451172
607.343018 4158.656738
610.262939 490.343719
610.277222 4529.56543
610.291504 7123.209961
610.305847 7970.287598
610.320129 6754.472656
610.334412 4128.422363
619.252441 2183.101807
619.267029 20273.5
619.281616 44287.488281
619.296265 64231.738281
619.310852 67888.75
619.3255 48421.609375
619.340088 24008.863281
619.354736 8838.296875
620.261841 433.614929
620.276489 3674.569824
620.291138 6798.06543
620.305786 7874.724609
620.320435 5981.147949
620.335083 2657.320068
630.163452 824.585938
630.178406 8349.291992
630.19342 13888.541016
630.208435 15900.086914
630.22345 12899.667969
630.238464 6862.551758
638.3573 424.549988
638.37262 5826.233398
638.387878 27023.554688
638.403198 64440.585938
638.418518 91893.304688
638.433777 97222.203125
638.449097 73875.109375
638.464355 35856.265625
638.479675 3949.678467
664.278259 3417.27417
664.294495 19228.308594
664.31073 30581.544922
664.326965 34672.441406
664.343201 29379.470703
664.359436 17708.71875
664.375671 5881.611328
672.288452 1757.753418
672.304993 9848.253906
672.321472 17258.78125
672.338013 20691.134766
672.354553 17280.001953
672.371094 8625.177734
678.278442 5397.03125
678.295227 33047.550781
678.311951 83317.664062
678.328735 138149.765625
678.345459 163941.359375
678.362244 125043.070312
678.378967 66225.453125
678.395752 20321.894531
678.412476 5144.376953
678.42926 961.614746
679.284607 876.156677
679.301392 4750.837402
679.318176 9031.081055
679.334961 12606.199219
679.351746 13092.365234
679.36853 9922.231445
679.385315 4694.905762
684.281006 664.3927
684.297974 3596.527832
684.314941 6961.182129
684.331909 9175.688477
684.348938 8388.180664
684.365906 4726.49707
690.260437 254.918777
690.277588 11391.428711
690.2948 56145.535156
690.312012 151931.203125
690.329224 252381.9375
690.346375 308942.1875
690.363586 246706.828125
690.380798 139070.828125
690.39801 40896.179688
690.415222 1661.099243
691.276062 717.045898
691.293335 4086.526367
691.310547 9254.389648
691.327759 14259.013672
691.345032 16243.390625
691.362244 13847.353516
691.379517 8163.060059
691.396729 1929.450684
702.280273 1224.780273
702.297913 6084.376465
702.315552 12802.208008
702.333191 18741.029297
702.35083 14704.175781
702.368469 9704.15332
702.386108 3843.849609
707.283264 2589.813477
707.301086 27703.953125
707.318909 120729.429688
707.336731 303544.6875
707.354614 520915.9375
707.372437 621928.9375
707.390259 471306.3125
707.408081 256358.75
707.425964 87321.65625
707.443787 12681.411133
707.461609 710.009705
708.300964 3750.186523
708.318848 21450.505859
708.336731 50932.378906
708.354614 81978.1875
708.372498 97616.367188
708.390381 74052.875
708.408264 33045.105469
708.426147 10559.216797
712.267761 3888.357178
712.285828 19301.814453
712.303833 37856.746094
712.321838 51358.707031
712.339905 49885.003906
712.35791 34217.589844
712.375977 14069.438477
713.278259 4582.708008
713.296326 19541.984375
713.314392 29393.041016
713.332458 31739.105469
713.350525 24790.761719
713.368591 11627.271484
715.32373 1297.744141
715.341919 5377.651855
715.360046 7833.374512
715.378174 8078.650879
715.396301 5843.786133
715.41449 2480.488281
717.305237 1516.125244
717.323425 6067.568848
717.341675 8350.089844
717.359863 8255.857422
717.378113 5808.418945
717.396301 2417.935791
718.271667 3698.505127
718.289917 17984.513672
718.308167 39180.808594
718.326416 63111.066406
718.344666 67560.414062
718.362915 53393.304688
718.381165 30431.910156
718.399414 10976.886719
719.294922 2123.286133
719.313232 9445.552734
719.331482 16343.78125
719.349792 21219.216797
719.368103 21076.908203
719.386414 15842.648438
719.404663 8613.314453
719.422974 2859.740479
726.278076 1025.510986
726.296631 4471.924316
726.315186 7519.52832
726.33374 8345.695312
726.352295 6379.823242
726.37085 2998.041992
730.247314 370.638519
730.266052 6354.683105
730.28479 34800.953125
730.303467 91715.578125
730.322205 161236.671875
730.340881 214875.765625
730.359619 187460.875
730.378357 111385.960938
730.397034 46104.160156
730.415771 7535.725586
731.296326 745.793945
731.315063 3031.30127
731.333801 4422.631348
731.3526 4625.72168
731.371338 3620.140869
731.390076 1773.871948
740.266357 1171.359375
740.285461 4662.178711
740.304565 7458.476562
740.323669 8543.783203
740.342773 7101.506836
740.361816 3465.47168
743.29303 1207.734375
743.312256 11481.145508
743.331482 38599.65625
743.350708 76194.296875
743.369934 108113.132812
743.38916 90968.609375
743.408386 46000.84375
743.427612 15171.856445
744.3125 1693.078735
744.331787 5993.356934
744.351013 8056.14502
744.3703 8373.775391
744.389526 6518.989258
744.408813 3087.936523
747.267212 4086.602783
747.286621 33177.011719
747.305969 126479.523438
747.325378 337973.0625
747.344727 595975.375
747.364075 753600.625
747.383484 620804.875
747.402832 350443.71875
747.422241 127101.421875
747.441589 19393.96875
747.460999 1188.946655
748.275452 914.992554
748.294861 8463.932617
748.31427 35494.898438
748.333679 85213.125
748.353088 132456.390625
748.372498 145061.171875
748.391907 104327.890625
748.411377 53433.058594
748.430786 14493.5
748.450195 1099.474487
755.311829 3364.588867
755.331482 14698.162109
755.351196 27700.865234
755.37085 34371.898438
755.390564 29497.783203
755.410217 16743.244141
755.429932 4852.524902
756.277222 3173.909668
756.296936 15594.702148
756.31665 42238.378906
756.336365 81758.140625
756.356079 104164.898438
756.375793 92379.53125
756.395569 56278.117188
756.415283 23408.302734
756.434998 7301.18457
758.253174 4864.312012
758.272949 27042.626953
758.292725 74939.203125
758.312561 140983.59375
758.332336 188353.828125
758.352173 180616.96875
758.371948 126547.429688
758.391785 61325.527344
758.41156 9758.231445
759.283691 2377.711914
759.303528 9067.662109
759.323364 14635.080078
759.343201 16933.384766
759.363037 14557.491211
759.382935 8447.982422
759.402771 2054.260742
762.328125 765.235352
762.348083 2861.567383
762.368042 4266.646484
762.388 4473.848633
762.407959 3507.928467
762.427917 1678.187378
763.286987 5765.021973
763.307007 29420.601562
763.327026 66175.6875
763.346985 98293.46875
763.367004 105229.5
763.386963 79476.4375
763.406982 40696.898438
763.427002 9091.251953
764.3078 1072.400757
764.32782 4338.948242
764.3479 7416.402344
764.36792 8159.404785
764.387939 6105.632812
764.40802 2565.121582
772.324524 7421.721191
772.344849 27492.027344
772.365234 47777.542969
772.385559 62149.5
772.405945 54848.785156
772.42627 33378.5625
772.446655 13939.817383
773.302307 4096.075195
773.322693 30488.787109
773.343079 81768.03125
773.363525 142395.875
773.383911 185199.09375
773.404297 158693.3125
773.424683 93202.515625
773.445068 35706.394531
773.465454 4501.374023
774.302429 1803.039917
774.322876 10416.044922
774.343262 27167.666016
774.363708 55245.03125
774.384155 80601.820312
774.404602 63289.410156
774.424988 30488.966797
774.445435 10643.992188
775.26355 8781.655273
775.283997 56934.585938
775.304443 199058.8125
775.324951 440950.84375
775.345398 672031.625
775.365906 720951.8125
775.386353 512260.0
775.406799 257592.078125
775.427307 82049.34375
775.447754 18140.650391
776.267456 273.149139
776.287964 6602.105957
776.308472 38728.984375
776.328979 103620.539062
776.349487 171467.234375
776.369995 200366.5
776.390503 156808.265625
776.411011 87144.078125
776.431519 32132.722656
776.452026 6198.144531
783.287354 993.133057
783.308167 12909.274414
783.328918 39499.222656
783.349731 61834.804688
783.370483 67365.984375
783.391296 49051.058594
783.412109 22466.847656
783.432861 3849.949951
784.286072 2570.062744
784.306885 13131.732422
784.327698 29126.054688
784.348572 40730.167969
784.369385 41398.75
784.390198 30076.085938
784.411072 12277.668945
790.339722 2129.494629
790.360779 8704.677734
790.381836 16557.5
790.402954 21426.339844
790.424011 19464.265625
790.445068 12093.383789
790.466125 3281.185791
798.663574 5587.54834
798.684937 20580.474609
798.70636 33566.222656
798.727783 40194.339844
798.749146 35648.878906
798.770569 22602.400391
798.791992 8246.141602
798.899048 1052.077637
798.920471 3641.493896
798.941833 5339.879395
798.963257 5941.933105
798.98468 4906.149902
799.006104 2311.824463
800.314026 9643.071289
800.33551 49403.640625
800.356995 115763.710938
800.378479 166085.359375
800.399902 158784.9375
800.421387 102410.578125
800.442871 43354.644531
800.464355 8851.629883
801.25946 1569.207397
801.281006 17849.681641
801.30249 76311.6875
801.323975 226481.65625
801.34552 472282.15625
801.367004 690608.875
801.38855 710823.9375
801.410034 481709.90625
801.43158 236298.46875
801.453064 59510.6875
801.474609 2677.986084
802.292786 1217.565674
802.314331 19351.228516
802.335876 68380.140625
802.357422 127750.070312
802.378967 165671.875
802.400513 147996.390625
802.422058 91954.585938
802.443604 40138.3125
802.46521 8969.027344
818.212585 1726.668335
818.234802 6194.427734
818.257019 24368.806641
818.279175 74484.523438
818.301392 175215.09375
818.323608 551480.125
818.345764 1620311.125
818.367981 3354415.25
818.390198 4877244.0
818.412354 4990112.0
818.43457 3415244.5
818.456787 1706480.625
818.479004 499396.875
818.501221 120321.039062
818.523376 48002.359375
818.545593 26453.037109
818.56781 4195.638184
819.27887 2817.436768
819.301147 24218.236328
819.323364 117178.867188
819.345581 375827.625
819.367859 850194.3125
819.390076 1309808.25
819.412292 1460389.875
819.43457 1062923.75
819.456787 560350.5625
819.479065 163314.171875
819.501282 23669.027344
819.52356 348.357941
820.369507 2418.622803
820.391785 16791.404297
820.414062 40450.441406
820.43634 55929.554688
820.458679 55602.863281
820.480957 38915.140625
820.503235 17587.646484
820.525513 2838.188477
828.313904 4976.708496
828.336548 21249.304688
828.359131 41716.976562
828.381714 52162.871094
828.404358 47493.863281
828.426941 30764.050781
828.449585 10982.950195
829.264099 1545.378784
829.286743 15091.490234
829.309387 66377.039062
829.332031 152552.171875
829.354675 232198.203125
829.37738 245854.953125
829.400024 177063.765625
829.422668 87629.820312
829.445312 25489.591797
829.467957 5452.535156
846.184265 315.089722
846.207642 19291.201172
846.230957 60624.136719
846.254333 100815.625
846.277649 150437.90625
846.301025 318076.1875
846.324341 1038491.875
846.347717 2565526.75
846.371033 4501691.0
846.394409 5693630.0
846.417725 4853893.5
846.441101 2870324.75
846.464417 1219864.125
846.487793 327262.75
846.511169 113625.78125
846.534485 77905.03125
846.557861 42260.777344
846.581177 16328.331055
846.604553 1559.022217
847.258972 8085.508789
847.282349 26055.425781
847.305725 86608.476562
847.329102 339343.375
847.352478 834527.9375
847.375854 1419601.875
847.399292 1727999.375
847.422668 1411144.0
847.446045 803427.125
847.469421 316200.4375
847.492859 74070.695312
847.516235 13274.907227
848.35907 2005.419312
848.382507 7744.070801
848.405945 15470.81543
848.429382 24087.425781
848.45282 24663.167969
848.476257 14895.229492
848.499695 6322.194336
848.523132 1455.232178
860.364014 8820.480469
860.387939 31327.539062
860.411865 64682.484375
860.435791 94595.835938
860.459778 91447.085938
860.483704 59129.632812
860.507629 27157.580078
860.531555 7944.941895
876.303528 1708.233032
876.328125 11821.051758
876.352722 51374.445312
876.377319 191784.25
876.401978 439747.34375
876.426575 692021.875
876.451172 746978.6875
876.475769 538220.1875
876.500366 270963.53125
876.524963 80317.203125
876.549561 11289.888672
877.337524 1170.327637
877.362183 15000.948242
877.386841 56702.210938
877.411499 119870.21875
877.436096 168395.765625
877.460754 159005.078125
877.485413 104313.796875
877.510071 43906.730469
877.534729 7058.814941
888.330994 2850.753662
888.356079 21003.318359
888.381165 63933.914062
888.406311 134299.796875
888.431396 195747.6875
888.456543 197270.90625
888.481628 131404.3125
888.506714 59693.207031
888.53186 11276.120117
888.556946 617.444702
889.386353 6666.939941
889.411499 18802.291016
889.436646 26921.759766
889.461792 27240.283203
889.486938 19323.287109
889.512085 6882.862305
END IONS
