BEGIN IONS
PEPMASS=916.28
CHARGE=1
MSLEVEL=2
SOURCE_INSTRUMENT=LC-ESI-qTof
FILENAME=f.daniel/Albis/XA_Frac_5.mzXML;
SEQ=*..*
IONMODE=Positive
ORGANISM=GNPS-LIBRARY
NAME=Carbamoyl-Beta-Methoxy-Albicidin M+H
PI=Roderich Suessmuth
DATACOLLECTOR=Daniel Petras
SMILES=C/C(C(NC1=CC=C(C(NC(C(OC)C#N)C(NC2=CC=C(C(NC3=C(OC)C(O)=C(C(NC4=C(OC)C(O)=C(C(O)=O)C=C4)=O)C=C3)=O)C=C2)=O)=O)C=C1)=O)=C\C5=CC=C(OC(N)=O)C=C5
INCHI=
INCHIAUX=
PUBMED=28876492
SUBMITUSER=daniel
TAGS=
LIBRARYQUALITY=3
SPECTRUMID=CCMSLIB00004681486
SCANS=753
277.166656 15.656423
277.666656 0.001434
280.166656 224.985397
280.916656 0.005996
285.083344 1773.145142
285.75 7.181954
286.25 0.000623
302.833344 7.648678
303.416656 0.000555
313.083344 84.22084
313.333344 30.445305
313.916656 0.001834
323.166656 393.82431
324.0 0.001849
328.083344 1243.70874
329.083344 0.007059
331.083344 3603.365967
331.916656 0.044271
332.416656 3e-06
340.166656 14.237609
340.666656 0.000765
347.083344 48.624474
347.75 0.002123
349.083344 356.178253
350.0 0.005278
365.166656 102.796181
365.333344 61.903645
365.916656 0.003427
369.083344 95.406334
369.833344 0.004068
373.916656 14.208497
374.5 0.000788
375.083344 18.988518
375.333344 49.694923
375.833344 0.004086
378.333344 31.317493
378.916656 0.001437
379.333344 10.005843
379.916656 0.00058
387.0 73.532852
387.416656 10.691013
388.0 0.000591
393.833344 17.3741
394.333344 123.205902
394.916656 0.006087
395.416656 1e-06
398.916656 30.592024
399.333344 37.248302
399.916656 0.002563
406.166656 1329.921509
407.0 0.012794
407.5 1e-06
411.083344 65.996407
411.416687 12.436457
411.916687 0.001084
413.25 13.207233
413.75 0.001278
417.083344 7.34764
417.666687 0.000492
421.166687 18.890667
421.666687 0.001296
424.25 25.463108
424.833344 0.001306
431.25 8.613317
431.75 0.000551
437.083344 23.684389
437.25 21.189465
437.833344 0.001121
449.166687 354.460571
449.833344 73.504303
450.25 258.157349
450.916687 0.002552
466.75 9.106987
467.083344 30.047949
468.25 13870.248047
469.166687 0.051764
469.666687 4e-06
480.25 33.270885
480.833344 0.002161
488.166687 719.069885
488.666687 22.676552
489.166687 0.001753
491.25 9.678081
491.833344 0.000837
492.166687 49.710129
493.166687 84.322754
493.833344 0.003802
497.25 13.638067
497.75 0.00127
511.916687 31.921291
512.416687 0.001824
518.25 52.531616
518.833313 0.003973
524.0 63.718227
524.5 4.422807
525.166687 612.732788
526.166687 0.006131
526.666687 1e-06
529.666687 51.616146
530.0 101.601822
530.333313 206.168839
531.0 0.006215
531.5 1e-06
533.75 34.372261
534.166687 429.07016
534.916687 0.006659
535.5 1e-06
536.083313 248.389679
536.333313 272.739929
536.75 25.654779
537.25 0.00159
543.25 93.729599
543.833313 0.004909
550.25 24.452179
550.75 0.001706
554.666687 26.863445
555.333313 26.54023
555.916687 0.00183
558.166687 28.95451
558.666687 0.002204
559.25 19.696573
559.416687 9.008564
560.0 0.000453
564.333313 6.591857
564.833313 0.000556
568.25 5688.931152
569.416687 56.102375
569.916687 0.003313
572.916687 24.064054
573.25 51.293049
573.833313 0.003268
575.75 23.788857
576.083313 170.121429
576.416687 118.639648
577.25 67.100876
577.833313 0.003622
585.166687 7.501543
585.5 27.679701
586.0 27.035028
586.416687 29.246368
586.916687 0.001995
592.25 14.160678
592.833374 0.001114
595.916687 12.502085
596.5 8.865384
596.833374 7.455441
597.333374 0.000616
614.333374 20.601746
614.916687 0.001165
645.916687 19.007338
646.5 0.001379
652.833374 33.060745
653.25 44.245094
653.833374 0.002728
657.75 26.937826
658.083374 42.133343
658.833374 0.001162
663.083374 151.862976
663.333374 161.080139
663.916687 0.009687
664.166687 15.730207
664.75 0.000831
669.833374 27.38913
670.416687 181.179657
670.833374 631.392273
672.083374 0.003213
675.333374 19.114212
675.916687 0.001174
680.666687 39.36314
681.416687 0.00046
690.25 395.473755
691.083374 0.008199
695.166687 1171.547974
696.166687 0.006474
696.75 1e-06
701.25 847.456116
702.25 0.004355
705.166687 13.947206
705.75 0.000851
713.0 32.711727
713.333374 20.647886
713.916687 0.001447
714.166687 37.391186
714.75 0.001907
715.333374 27.236401
715.916687 0.001564
716.333374 36.135567
716.916687 0.002028
719.5 10.635717
720.083374 0.000608
730.416687 14.730305
730.916687 0.001062
731.833374 23.250406
733.25 85516.054688
734.083374 37.491722
734.583374 0.002079
739.0 32.920116
739.583374 0.001672
747.083374 13.96804
747.666687 0.000876
751.0 421.478027
751.25 300.299683
752.166687 0.001253
777.25 18.530239
777.583374 60.277119
778.166687 0.003812
778.666687 37.506088
779.083374 31.018089
779.583374 7.605596
780.083374 0.000483
807.083374 48.284592
807.666687 0.004003
841.5 19.049969
842.0 0.001461
845.333374 13.274366
845.833374 0.001322
855.083374 68.664909
855.666687 0.003482
866.416687 56.898132
867.0 116.857559
867.333374 73.373848
867.5 51.545673
868.083374 0.002687
868.416687 13.672913
868.916687 0.00103
872.0 103.809647
872.416687 51.202675
872.583374 35.282318
873.083374 409.941742
873.333374 260.105774
874.083374 0.004643
884.166687 1226.283081
884.833374 37.601627
885.25 69.996109
885.916687 0.001421
897.25 23.854868
898.166687 2067.997314
899.083374 8.412782
899.666687 0.000496
907.0 49.508865
907.583374 0.002345
915.916687 15.502216
916.166687 63.829731
916.666687 0.003125
1279.75 24.835146
1280.333374 0.001362
1363.666748 19.06426
1364.166748 0.001296
1627.666748 22.434935
1628.25 0.001982
END IONS
