BEGIN IONS
PEPMASS=1091.59
CHARGE=0
MSLEVEL=2
SOURCE_INSTRUMENT=DI-ESI-Hybrid FT
FILENAME=f.mwang87/data/Yao_Streptomyces/DSM5940/napsamycin_MeOH_ziptip_data_dependent.mzXML;
SEQ=*..*
IONMODE=Positive
ORGANISM=GNPS-LIBRARY
NAME=Stenothricin-GNPS 2 M+H
PI=Pieter Dorrestein
DATACOLLECTOR=Yao Peng
SMILES=C[C@H]1OC(CN(C([C@@H](NC([C@@H](NC([C@@H](NC(/C(NC([C@@H](NC([C@@H](NC([C@H]1NC([C@@H](NC(CC(CCCCCCCCC(CC)C)=O)=O)CS(O)(=O)=O)=O)=O)C[OH2+])=O)CN)=O)=C/C)=O)C(C)C)=O)CO)=O)CO)=O)C)=O
INCHI=InChI=1S/C46H78N10O18S/c1-8-26(5)16-14-12-10-11-13-15-17-28(60)18-35(61)48-34(24-75(71,72)73)43(67)55-38-27(6)74-36(62)20-56(7)46(70)33(23-59)53-42(66)32(22-58)51-44(68)37(25(3)4)54-39(63)29(9-2)49-40(64)30(19-47)50-41(65)31(21-57)52-45(38)69/h9,25-27,30-34,37-38,57-59H,8,10-24,47H2,1-7H3,(H,48,61)(H,49,64)(H,50,65)(H,51,68)(H,52,69)(H,53,66)(H,54,63)(H,55,67)(H,71,72,73)/p+1/b29-9-/t26?,27-,30+,31+,32+,33+,34+,37+,38+/m1/s1
INCHIAUX=
PUBMED=
SUBMITUSER=mwang87
TAGS=
LIBRARYQUALITY=3
SPECTRUMID=CCMSLIB00000478654
SCANS=15
309.226166 0.38969
311.464325 4.041567
315.194214 5.822371
319.219421 1.919975
326.270721 2.547359
332.143188 0.883986
336.181122 3.562618
339.87915 1.829894
341.014832 1.946329
342.191986 0.732809
343.108643 0.920476
344.236206 1.047437
346.283691 0.351604
349.590393 6.14581
350.354523 2.453922
351.395538 3.005913
354.713562 3.282034
355.400208 0.606206
356.317688 2.249528
358.53299 4.244521
360.107117 2.442061
363.247437 3.950663
364.357269 2.112389
365.337494 0.596974
366.177185 0.494013
368.480499 3.058302
370.395935 6.897455
375.034851 1.022722
376.096191 3.455981
380.307434 2.345104
382.4021 0.776802
384.511475 1.117649
386.224792 2.131811
388.388977 0.423265
391.291016 2.668243
393.285828 0.384242
394.998627 3.346042
398.400421 9.147478
403.330322 1.049835
404.746277 5.692051
407.443054 1.244346
411.128967 2.979384
414.080841 4.225502
415.424011 0.797581
416.282654 4.64838
417.353149 4.146856
418.271545 5.969482
419.369629 6.67369
422.247437 4.386355
423.044983 1.124321
424.203217 1.565827
425.277954 1.324831
427.15863 0.952434
428.349121 0.818536
429.084717 2.091913
430.575806 1.673917
433.345337 2.319499
434.435791 0.870256
436.877594 6.010081
438.348083 4.306666
441.38916 6.632808
442.541351 5.946815
443.390381 11.027861
444.932526 1.07354
447.149475 5.943896
448.263489 0.623293
450.290344 0.714455
451.134613 0.518206
455.272797 4.041236
456.292297 1.918079
457.381653 1.723717
458.505737 0.600884
462.335236 3.246489
464.735535 0.625899
467.277222 9.829737
470.576874 2.960994
471.417419 2.052869
473.219482 4.396378
474.249512 2.921536
477.276123 7.224955
478.300629 2.762818
479.504822 1.044156
480.45282 4.356993
481.356171 4.332386
482.543579 1.580245
483.284637 0.914334
484.726562 1.375837
485.529877 2.12238
487.286682 2.165761
489.496216 2.528992
491.164856 4.269298
492.571899 1.875986
495.337769 10.347194
496.491577 2.467244
497.343994 3.887746
498.131653 2.100676
499.188446 1.853011
500.479187 2.433069
502.517944 1.632656
503.362488 2.250078
504.053345 1.963811
505.469788 1.745682
507.244934 2.06018
508.037415 1.055432
509.267822 1.911548
510.234558 6.758919
510.968079 5.379653
511.968475 4.928313
512.711975 3.657614
514.463257 4.856453
515.238647 4.336472
518.454895 2.784465
520.376282 0.982307
522.334595 4.190394
523.356201 6.050897
528.900391 4.351768
529.89917 6.582251
530.528442 12.876747
532.244629 9.613512
533.499878 2.591084
534.573425 0.391668
536.636597 3.172898
537.23999 0.756494
538.223755 1.856669
539.29895 5.21243
540.283569 5.067657
542.500793 2.098018
543.714844 0.580444
544.704163 6.464133
545.352722 0.850506
546.286743 2.264271
547.654785 5.454981
548.34436 2.181771
549.525635 5.429945
550.399414 2.422817
551.328674 4.039923
552.337891 4.191021
553.256714 0.394058
554.508301 3.147291
555.347656 3.459283
556.519531 3.469071
557.944702 4.443432
560.212158 27.387545
561.456543 7.621375
562.328247 8.716838
563.204773 10.430163
564.513184 10.125246
565.767151 3.024954
566.561523 2.171731
567.434937 0.894243
568.222168 1.84921
568.991028 0.86086
571.414917 1.347069
572.142151 3.47388
573.190979 6.960325
574.401001 4.36763
575.336426 3.230124
577.244629 10.692771
578.181763 12.471123
580.345947 39.903809
581.239624 3.283361
582.422058 6.426334
583.466919 3.738386
584.486206 6.300293
585.458252 4.137237
587.258667 0.634352
588.403442 2.387411
589.200073 2.63852
590.386719 2.22475
591.223022 3.340982
592.27417 2.552378
594.463745 8.643569
595.086792 3.847251
596.410645 4.851761
597.593018 1.01342
599.05896 11.110898
600.435547 2.759922
601.380798 16.005356
602.415466 6.862584
603.515381 3.264611
604.322815 3.778196
605.502197 1.636617
608.571899 1.73415
610.28894 0.915053
611.401367 0.844807
612.526489 7.06689
613.311523 7.125349
614.236328 3.18915
615.351379 6.362002
616.2229 3.146573
617.314331 4.070802
618.497925 0.239505
619.423584 31.515038
621.139526 0.368279
622.620117 1.984931
623.297119 0.545219
624.289917 4.191442
625.658569 14.078508
626.399414 8.074431
627.529419 1.769916
628.711792 4.833647
631.424316 4.406368
632.34845 3.59628
633.161621 2.870586
636.431519 5.090458
637.341309 8.560608
638.637146 12.258074
639.526672 1.581558
640.5271 5.529269
641.479736 9.501152
642.243591 1.073278
643.449341 2.074558
644.35437 5.737671
645.510925 8.190101
646.404053 3.281749
647.760742 6.560905
648.915405 12.664864
649.573364 8.127459
650.55658 2.864435
652.188599 3.186268
653.439087 4.768449
654.320312 9.125704
655.486023 6.372324
656.430908 0.508022
657.046265 0.511025
658.363403 3.342626
660.38501 2.636718
661.312866 7.096702
662.134033 0.964755
663.274048 5.978049
664.304199 13.320622
665.332886 25.151344
666.435547 19.743393
667.364929 15.003366
669.405701 6.975028
670.485229 13.176649
671.417114 16.888834
672.384033 2.456641
673.433716 7.953483
674.464539 0.677006
675.670776 0.650169
676.562927 2.103665
677.642822 5.86618
679.368164 27.725277
680.536743 4.657377
681.791748 4.949516
682.415649 16.333607
684.339539 107.77346
685.521729 11.589312
686.378906 0.650503
687.317627 8.110863
688.434814 16.441587
689.441162 0.546796
691.444702 5.938126
693.347046 6.134784
694.189636 3.440897
695.271851 4.54322
696.573364 3.087483
697.304443 1.158767
698.423828 12.041597
699.523071 13.073902
700.56366 7.219903
701.342285 7.012739
702.400024 174.584885
703.493896 6.312388
704.409851 5.171617
705.592224 0.996144
706.544434 4.369277
707.410095 7.957545
708.381592 1.177124
709.349792 3.22055
711.85022 8.293036
713.232971 11.85701
714.030396 14.404194
715.300049 7.055866
716.293579 26.554136
717.337769 17.05019
718.318054 12.406847
719.485596 4.142848
720.57019 4.593459
721.394897 1.332848
722.489136 3.778553
723.328491 2.782488
724.450745 7.802678
725.265747 5.732051
726.707581 0.98254
728.595459 2.038197
729.56665 4.706599
730.668213 1.866821
732.464722 4.239488
733.457764 7.73475
734.29248 5.230502
735.306152 18.957689
736.259766 22.099863
737.369873 6.928267
738.361328 5.725852
739.546875 0.557368
740.50061 2.602678
741.415161 9.913313
742.513062 1.691052
743.686401 1.400337
744.766174 1.61434
745.45813 4.594435
746.520142 15.005964
747.383057 3.563113
748.320007 6.14295
749.28363 9.524514
750.46106 3.604961
751.328857 2.980735
752.303223 3.948174
754.307739 24.775663
755.2854 1.830906
756.642212 0.554462
757.634644 1.850132
758.249023 2.192525
759.089722 3.576361
761.408264 2.121903
762.505371 4.26611
764.406433 39.283974
765.715942 3.145647
766.325073 6.906285
767.742554 4.157674
768.525146 6.63193
770.234253 1.586519
771.409058 14.844121
772.21521 13.684628
773.263794 3.091306
774.136841 4.059591
775.230713 8.813262
776.239319 6.267686
777.345886 3.388106
778.128357 4.097672
779.596741 0.876297
780.388794 0.897817
781.467041 2.127218
782.317322 14.740494
783.163757 2.308138
784.211121 5.992252
785.053711 2.993219
786.213257 12.342604
787.536255 7.584713
788.407837 0.461142
789.342285 43.265797
790.431641 7.1612
791.913818 12.479779
792.566162 7.197903
795.387329 3.161998
796.616333 13.568292
798.502502 9.960095
800.184448 69.121994
801.24585 9.727551
802.230103 8.364867
803.067627 6.974638
804.165405 15.979013
805.266724 8.756127
806.343872 14.716036
807.354248 5.194664
808.433838 9.606568
810.374146 15.821758
811.377686 7.735814
812.585815 2.287273
813.732788 8.103319
814.539185 1.301199
815.524658 8.338776
816.706421 32.005993
817.394165 175.705856
818.373047 100.08651
819.844849 11.674966
820.690796 16.593184
821.381958 21.854286
822.414429 12.141479
823.021118 0.796647
824.317505 4.655024
825.398926 6.239892
826.941284 9.631193
828.322998 22.820419
829.531128 5.175556
830.645752 9.18467
831.354126 16.170727
832.252441 6.877106
833.418579 13.515237
835.202515 230.280334
836.353394 58.509842
837.451782 15.639825
838.45166 11.82176
839.48291 38.530479
840.245483 0.725142
841.567139 6.442737
842.539062 4.597077
843.301392 6.993756
844.412964 10.392343
846.418213 11.09464
847.802856 10.758102
848.484741 2.261128
849.40686 19.885012
850.37085 5.785989
851.380737 11.079858
853.2948 813.009949
854.262817 2.504374
855.773193 9.001907
856.496704 15.810443
857.505127 3.522923
858.110229 1.74344
858.751099 0.641834
859.557373 1.098955
860.4198 0.775029
861.521484 12.484543
862.946655 9.466977
863.776733 1.557304
864.498535 0.894558
865.134644 1.181977
866.609619 9.040716
867.37439 74.138451
868.853516 21.669657
869.510376 2.284809
870.2052 3.600014
870.888062 2.745067
871.857178 7.124456
873.383667 19.639008
874.477539 11.286835
875.719238 0.776833
876.548218 5.581148
877.360474 3.915047
878.502686 1.193158
879.335938 4.914383
880.268921 5.445771
881.401489 1.181364
883.402222 6.685212
884.481201 15.147871
885.599976 16.487709
886.385254 3.895093
887.333862 16.353111
888.447632 10.689366
889.553711 8.613094
890.407471 4.332925
891.420166 14.168915
892.628662 2.344976
894.412842 15.750332
895.432495 5.48465
897.398071 4.928396
898.164062 4.445894
899.46936 11.585123
900.216797 6.749659
901.408081 7.414008
902.353394 16.435469
903.384644 19.807264
904.2948 1.698481
905.379639 20.582962
906.012207 1.197837
906.641479 2.624999
907.276489 4.784795
908.18689 10.497445
909.408203 50.964359
910.432373 12.059815
911.5896 2.454022
913.340332 10.652816
914.283081 4.022356
915.371216 31.672253
916.547485 21.149277
917.482422 106.671402
919.216309 14.042446
920.514893 82.882004
921.6875 5.560374
922.637573 20.905048
924.164307 14.453135
924.872803 7.478556
926.178223 7.383713
927.421509 15.100634
928.498901 7.359007
929.581055 7.336725
931.507202 1.301092
932.356812 1.23053
933.468018 6.747099
934.252563 22.947159
935.128174 12.728606
936.324219 3.40222
937.442749 2.955679
938.490845 7.713781
939.58667 44.753468
940.720581 7.839619
941.58374 7.88098
942.572754 5.792664
944.310913 9.44186
945.28479 7.139015
946.466675 6.274751
947.597412 3.428658
948.53125 1.29906
949.399414 0.373169
950.044556 4.088784
951.582642 4.063901
952.388306 10.591349
953.322021 14.732033
954.538086 8.152343
955.577148 6.35741
956.486572 30.941608
957.394165 27.768826
958.46814 5.435565
959.420654 5.503654
960.082642 12.710751
961.092285 2.204434
962.234131 10.815217
963.099854 17.720448
963.963135 9.414368
965.260864 9.139633
966.359619 24.023657
967.292358 12.143062
968.158081 3.73672
969.383545 13.53918
970.758423 8.292065
971.582397 2.507922
972.438232 7.113324
973.299927 19.696611
974.446655 21.759335
975.234131 21.722042
975.921021 3.549696
976.603516 3.648757
977.531616 3.208229
978.595093 8.511402
979.485718 4.596563
980.208862 1.716226
981.72937 12.486126
982.632935 16.452358
983.3479 3.660457
984.44165 44.521458
985.756592 11.749331
986.959229 13.597599
987.621216 8.179998
988.316162 7.269825
989.80896 10.749485
990.964966 26.510674
991.776611 17.867304
992.433472 58.228458
993.554077 2.802323
994.358032 1.615895
995.269409 3.161934
996.947632 2.290751
998.866943 4.281659
1000.03064 32.257179
1001.161865 8.620298
1002.369751 90.718994
1003.601074 12.778705
1004.458496 6.022679
1005.609497 1.27969
1007.269775 9.262789
1008.227051 8.059891
1009.405273 38.589504
1010.352905 65.362038
1011.531372 8.736874
1012.644409 9.979401
1013.516113 8.411638
1014.67334 5.500054
1015.380127 9.229602
1016.197998 17.134602
1017.410034 16.707958
1018.773682 6.596479
1019.831665 5.77153
1020.515015 6.509004
1022.468994 9.814042
1023.750366 10.263963
1025.376953 9.963089
1026.480225 20.402584
1027.457031 65.227051
1028.401489 57.520866
1029.381836 7.857413
1030.292358 14.369275
1031.775757 15.406303
1032.606445 9.930655
1034.392944 1.065571
1035.482666 12.794895
1036.592651 18.128241
1037.460571 93.06292
1038.395142 481.380768
1039.193359 6.328178
1039.909058 4.090824
1040.664917 6.233976
1041.731323 9.323805
1043.192017 20.917202
1044.644653 25.753942
1045.536255 43.713493
1046.352783 24.609339
1047.325439 6.249313
1048.292358 16.647381
1049.122559 11.45147
1050.597412 2.675187
1051.439575 6.737004
1052.866455 25.552105
1053.517822 40.572922
1055.398071 1145.744385
1056.397827 96.117233
1057.42688 7.725343
1058.351562 5.811117
1059.165771 5.719644
1060.13916 5.332096
1061.147949 15.88147
1062.370972 22.209469
1063.424561 76.57901
1064.582886 0.917016
1066.011963 3.456663
1066.634888 6.681454
1068.385132 16.657871
1069.279663 7.404819
1069.953857 5.199314
1071.362915 165.893753
1072.530518 176.916748
1073.484619 869.329102
1074.481567 41.420868
1075.308716 2.716752
1076.043335 2.323539
1076.730835 2.539304
1077.33667 4.102695
1078.095581 7.498187
1080.445435 2.767711
1081.384155 9.181391
1083.029541 4.079995
1090.23938 4.927291
END IONS
