BEGIN IONS
PEPMASS=695.264
CHARGE=1
MSLEVEL=2
SOURCE_INSTRUMENT=LC-ESI-qTof
FILENAME=f.Esposito/E-dendroides-ref/euphodendroidin J.mgf;
SEQ=*..*
IONMODE=Positive
ORGANISM=GNPS-LIBRARY
NAME=euphodendroidin J M+H
PI=Litaudon and Paolini
DATACOLLECTOR=Esposito
SMILES=C[C@@]1(O)C[C@](O)(C([C@@H](C)/C=C/C(C)(C)[C@H](OC(C)=O)[C@H](OC(C)=O)[C@@H](OC(C2=CC=CC=C2)=O)C([C@@H]3O)=C)=O)[C@]3([H])[C@H]1OC(C4=CC=CC=C4)=O
INCHI=
INCHIAUX=
PUBMED=
SUBMITUSER=Esposito
TAGS=
LIBRARYQUALITY=3
SPECTRUMID=CCMSLIB00004680103
SCANS=1
63.022755 10.22731
67.054695 13.72636
69.032127 61.99332
69.069214 32.02412
77.03743 45.020802
79.053673 16.375509
83.084236 22.02519
95.047974 27.625311
95.08532 24.492599
97.097984 17.60882
102.056648 12.07765
105.032928 588.099915
106.035973 17.19986
107.084274 37.210079
109.064041 44.783951
109.09948 29.723511
111.042572 18.802629
113.057426 36.799591
119.083725 12.94248
121.063873 13.07418
123.042229 110.556503
123.078987 42.230099
125.020958 11.4656
125.05764 24.14019
131.084503 26.24921
133.015045 11.44538
133.063416 21.501989
133.099762 71.524147
135.079041 75.685677
135.116165 20.284031
137.057602 15.50543
137.095581 25.387859
139.07489 13.49008
143.083649 10.74497
145.02478 65.783211
145.062943 10.9848
145.098923 12.40567
147.079559 30.12409
147.115738 18.180149
149.09346 34.250351
151.073669 57.075588
154.091492 11.89344
155.067978 16.50082
155.083755 16.4498
157.099655 22.49157
159.078827 44.403229
159.114853 32.164211
161.09465 52.113781
161.131393 50.65897
163.073837 46.361038
163.149048 22.151791
165.067993 13.89458
165.087494 10.24888
169.101379 18.24427
171.077667 22.703831
171.115723 128.0056
173.092911 12.56113
175.075287 15.09093
176.073563 10.52331
177.089111 51.32037
181.082077 26.634199
181.098007 12.87409
183.113007 26.79674
185.092819 46.527981
185.129318 27.276291
187.033859 15.40288
187.070648 31.145809
187.11026 88.564552
188.116974 15.80436
189.052185 23.642429
189.088715 39.68726
189.126678 123.280701
190.127731 10.99104
191.104385 27.13949
193.083771 17.2614
193.098221 13.33028
195.11554 24.217911
197.130127 40.049191
198.102493 11.12694
199.108215 53.016251
199.146057 14.04559
201.089005 24.41843
201.123184 18.08082
203.069687 18.256121
203.103317 31.082239
205.084473 54.946091
205.120865 24.14621
207.113876 20.22225
209.096848 12.86727
209.131058 19.506161
210.100662 10.90441
210.133423 23.89139
211.108719 49.03854
213.126343 22.60091
215.066635 21.37812
215.104568 39.5205
215.139542 24.297701
217.082016 27.566219
221.129745 16.567341
223.109543 76.608978
223.146133 52.47406
225.123184 40.35165
227.10437 48.257061
227.140839 56.79372
229.11908 25.86577
232.124771 10.07634
233.077332 17.50563
235.107437 40.163589
237.124969 45.531139
237.16069 53.29266
238.126816 11.07796
239.140945 19.36784
239.178864 13.83102
241.121033 67.229927
241.156937 52.800282
243.100372 11.09445
245.114487 10.32587
247.091156 19.116541
247.146698 25.43738
249.126846 14.89077
249.146896 36.715759
250.128738 12.58953
251.10527 18.01268
251.140686 69.161423
253.113831 15.88549
254.122635 13.56708
255.102539 11.08056
255.134674 119.625999
255.170746 100.754204
257.115509 33.44791
259.165344 11.60586
265.157349 227.246506
266.16275 17.27989
267.127106 10.89914
267.138153 23.01219
267.168243 10.50041
268.14032 11.56724
269.115417 11.88969
269.15097 41.555519
271.12854 45.51226
273.149445 10.86443
273.180695 23.469521
275.141815 30.59403
277.147278 12.22165
278.127228 19.12537
281.150269 10.08398
283.167358 404.06369
284.169922 12.41849
285.141632 12.00228
287.091064 10.29969
287.162231 32.649441
293.152283 216.097198
294.154327 25.610769
297.06781 13.10233
297.144226 12.6988
298.080139 10.6111
301.177185 107.395203
302.177246 12.18915
311.16275 509.787506
312.166138 30.25688
319.097351 17.36121
323.156403 13.58265
325.175995 32.776649
329.173492 297.119507
330.174744 17.92116
331.149109 93.430687
333.144165 152.572098
335.161438 41.437389
343.188629 114.484802
347.179535 23.62429
351.154694 74.437378
352.15799 19.34483
353.167664 87.685951
361.202179 27.15559
365.168396 43.704899
371.183929 224.749496
372.184021 21.14332
375.155518 24.29501
385.198639 18.45455
389.194611 75.665176
393.165649 426.659912
394.16806 46.951
409.192932 20.839451
411.177094 226.324097
412.180145 20.30242
413.191498 16.8165
415.18399 10.36176
416.196625 12.99412
425.189941 42.772739
427.182678 14.41727
431.205933 69.473511
433.19693 35.227921
434.202606 10.10438
435.172607 36.531071
443.208832 11.90364
445.218414 18.7673
449.216431 31.097309
453.187164 952.255981
454.18869 107.273399
455.181671 76.494614
456.180176 19.53496
471.198975 142.770706
472.202148 18.13327
473.200653 20.455709
479.16037 11.87305
491.226501 82.249939
493.219635 15.9579
505.180176 10.35608
513.208679 619.953491
513.658264 10.01723
514.209045 84.649742
515.203003 406.196899
516.204529 47.102139
531.223999 32.067532
532.221985 14.96543
535.223083 10.47018
557.215149 18.368031
573.229736 213.255798
574.228088 20.417721
575.224365 2997.478027
575.321289 13.61701
575.35968 26.65518
575.512024 17.411949
575.594299 16.284639
575.637756 18.075211
575.67627 10.1638
575.710999 17.013201
575.749268 14.06772
575.831665 14.1734
575.875977 11.71355
575.920288 10.75148
576.005005 11.39768
576.062683 15.22754
576.226868 336.955414
576.323059 12.76026
576.363647 14.46887
593.227112 12.76776
613.262207 250.371704
614.264343 19.27038
635.245605 6340.398926
635.347656 30.14274
635.383484 41.787861
635.459106 22.93796
635.507385 20.95682
635.56311 32.850498
635.606689 15.15073
635.646606 24.70196
635.677368 26.422529
635.731323 56.82679
635.799622 24.390551
635.855469 22.384899
635.915649 27.549629
635.95105 26.65057
635.994507 25.108379
636.035889 34.909279
636.078979 21.114691
636.123474 16.65023
636.160522 11.42238
636.249207 887.957825
636.370239 14.18346
636.413757 11.46398
636.445435 12.77416
636.512085 15.00553
636.648926 14.16162
636.68927 16.131769
636.770569 13.09868
636.859619 16.97496
636.911621 10.68359
637.043762 13.63446
637.309509 13.65457
637.354309 13.66021
637.748535 10.87361
695.267212 5085.633789
695.40979 37.189011
695.467163 14.69607
695.516235 21.027349
695.550476 15.88137
695.607605 17.330601
695.668762 34.52177
695.733337 45.31818
695.800781 33.442719
695.870667 24.19363
695.942261 45.303791
695.996155 14.23251
696.042542 21.34528
696.077454 25.43593
696.149475 15.05985
696.208679 25.77718
696.269592 610.782776
696.333984 21.612301
696.389465 19.78706
696.431519 20.128281
696.477905 17.687571
696.526794 11.18835
696.573181 20.743259
696.818665 11.30337
696.907959 20.77721
696.984863 13.61054
697.062744 11.88274
697.12616 11.55069
697.238098 13.92921
END IONS
