BEGIN IONS
PEPMASS=803.392
CHARGE=1
MSLEVEL=2
SOURCE_INSTRUMENT=LC-ESI-Orbitrap
FILENAME=f.ktahlan/KT-1/MUN/Methanol/SC/3 SC onTSB mrth-pos.mzXML;
SEQ=*..*
IONMODE=Positive
ORGANISM=GNPS-LIBRARY
NAME=tunicamycin I M+H
PI=Tahlan
DATACOLLECTOR=lfnothias
SMILES=CC(C)CCCCCCCC=CC(=O)NC1C(C(C(OC1OC2C(C(C(C(O2)CO)O)O)NC(=O)C)CC(C3C(C(C(O3)N4C=CC(=O)NC4=O)O)O)O)O)O
INCHI=
INCHIAUX=
PUBMED=
SUBMITUSER=lfnothias
TAGS=
LIBRARYQUALITY=3
SPECTRUMID=CCMSLIB00005435940
SCANS=4132
70.029114 11701.80957
70.065437 59775.25
71.013138 16716.257812
71.049484 24360.443359
71.085854 26589.316406
72.044724 22524.171875
73.065033 17999.458984
74.096848 3124.25708
79.054443 65174.289062
80.049667 29852.251953
81.033707 80594.523438
81.070068 211486.65625
82.065285 60650.304688
83.012863 3687.303467
83.049355 83606.835938
83.085693 258112.984375
84.044548 1342616.375
84.08107 5987.280762
85.028625 26733.433594
85.064941 38027.179688
85.10125 24644.238281
86.096489 18388.910156
91.05423 16857.605469
93.033585 5771.179199
93.069962 103069.390625
94.065079 13986.907227
95.012695 50353.472656
95.049225 13453.69043
95.085571 341899.5625
96.007767 4583.989746
96.044411 670854.0625
97.028511 106865.296875
97.064926 49367.273438
97.101219 245870.125
97.107727 3129.255859
98.024048 5149.342773
98.060074 153858.046875
99.044037 24557.794922
99.08046 14654.09375
101.023468 3659.804932
103.054222 4676.341309
104.442039 3238.306641
105.069962 6405.549805
106.065285 13242.885742
107.049103 16271.541016
107.08551 80694.945312
107.349808 2586.475098
108.044373 26836.970703
109.028442 77638.601562
109.052139 5459.15332
109.101242 105220.21875
110.060081 88045.421875
111.038345 3099.352539
111.044106 123682.257812
111.080582 23163.095703
111.116898 107936.671875
112.039207 38251.042969
113.034554 418968.21875
113.09594 3244.311768
114.05497 6456.339355
116.070801 6905.413086
118.065193 4039.657227
120.044189 6725.54248
120.081085 14196.000977
121.028252 25673.943359
121.101227 234940.75
122.059952 33607.132812
123.043907 15145.666016
123.116455 23438.8125
124.039253 18017.482422
124.075066 8591.575195
125.096306 24825.181641
125.132301 30721.435547
126.054955 501922.28125
127.039055 39367.933594
127.058243 3316.938965
128.970459 3324.588135
130.065277 13660.198242
131.049332 17160.724609
133.027573 3400.330322
134.060074 28670.439453
135.044174 11444.841797
135.116898 99981.539062
136.039093 7267.031738
136.075745 4217.678711
137.023575 11628.992188
137.132629 15691.289062
138.054962 2660506.5
139.038971 153782.0625
139.058167 14320.741211
139.111801 16814.652344
140.071106 21859.529297
141.029251 4260.822754
144.065552 491942.4375
146.059937 11575.936523
148.039322 31296.996094
148.075562 31684.630859
149.059738 16179.487305
149.13205 3982.746826
150.055161 24806.046875
151.039139 6290.300781
151.147919 4427.010254
151.621124 3092.772949
152.070435 15762.376953
155.045349 23201.308594
156.065552 81627.734375
157.04953 19969.076172
158.060211 27201.369141
159.04454 11699.239258
160.039429 6262.081055
160.076096 4158.426758
162.055344 33396.609375
163.038849 24960.982422
164.033951 4289.737793
164.070938 4160.314941
165.055405 3709.863525
166.086288 3747.753906
168.065582 498628.40625
174.055176 4119.01416
176.046814 5044.91748
176.070602 83242.789062
177.054977 18328.855469
177.163925 98548.171875
178.049805 33395.675781
180.065308 21514.320312
184.07489 17590.275391
186.076126 436730.46875
187.038406 5425.317383
194.081161 19796.873047
195.174347 236357.6875
198.075882 5621.97168
201.101776 12745.55957
204.066101 180203.25
204.086792 763263.875
205.049561 54465.179688
205.089203 5616.085449
212.200851 248255.578125
222.076187 185027.34375
222.097839 5166.178711
223.060776 15582.65625
229.154892 5664.151367
233.055023 4981.318359
236.201263 16352.515625
240.086685 146626.046875
244.128677 3571.079346
248.199905 3163.268066
249.796616 3711.946289
254.212479 3478.290771
258.09729 12148.041992
262.216888 56851.882812
263.140442 3483.321533
269.075745 23847.246094
278.211182 1167163.5
279.214447 15772.448242
287.087585 4241.473145
288.19577 66749.835938
290.211212 49796.1875
304.225555 39124.003906
306.206146 12494.574219
314.21048 6463.035156
316.092255 7031.023926
326.208069 4885.002441
328.226379 15544.344727
332.222076 244755.359375
334.103027 21792.332031
344.222992 3569.765137
346.238281 14636.40625
350.232544 107730.046875
352.114105 137872.265625
356.221252 3781.588867
368.243866 6272.448242
370.240723 6127.699707
372.21582 28642.507812
376.248138 3524.699219
388.250977 3565.346924
392.243988 4292.633301
398.232178 52218.246094
416.243256 100182.992188
417.242523 2929.44458
434.253723 694172.5625
435.257751 16786.744141
447.346161 19846.716797
448.349365 5900.749023
452.266785 17111.408203
470.275299 47235.605469
488.750427 3141.684326
510.259796 22020.353516
521.485352 3291.076416
528.272278 47992.609375
546.280823 337093.90625
547.285706 5585.17041
582.302124 442724.09375
583.304993 13371.368164
584.391418 4392.16748
END IONS
