BEGIN IONS
PEPMASS=1098.0
CHARGE=1
MSLEVEL=2
SOURCE_INSTRUMENT=DI-ESI-Hybrid FT
FILENAME=Nordidemnin_B_FT_1098mz.mzXML
SEQ=*..*
IONMODE=Positive
ORGANISM=GNPS-LIBRARY
NAME=Nordidemnin B M+H
PI=Dorrestein/Moore
DATACOLLECTOR=Roland Kersten
SMILES=O=C(N1CCC[C@H]1C(=O)N(C)C(C(=O)N[C@@H]2C(=O)N[C@@H]([C@@H](O)CC(=O)O[C@H](C(=O)[C@@H](C(=O)N[C@H](C(=O)N4[C@H](C(=O)N(C)[C@H](C(=O)O[C@@H]2C)Cc3ccc(OC)cc3)CCC4)CC(C)C)C)C(C)C)C(C)C)CC(C)C)[C@@H](O)C
INCHI="InChI=1S/C56H87N7O15/c1-29(2)25-38-53(72)63-24-16-18-40(63)55(74)61(13)42(27-36-19-21-37(76-14)22-20-36)56(75)77-35(11)46(59-50(69)41(26-30(3)4)60(12)54(73)39-17-15-23-62(39)52(71)34(10)64)51(70)58-45(31(5)6)43(65)28-44(66)78-48(32(7)8)47(67)33(9)49(68)57-38/h19-22,29-35,38-43,45-46,48,64-65H,15-18,23-28H2,1-14H3,(H,57,68)(H,58,70)(H,59,69)/t33-,34-,35+,38-,39-,40?,41?,42-,43-,45+,46-,48-/m0/s1"
INCHIAUX=N/A
PUBMED=22458477
SUBMITUSER=mcruesemann
TAGS=
LIBRARYQUALITY=3
SPECTRUMID=CCMSLIB00000075324
SCANS=30
300.273651 79.360939
301.834808 58.746738
304.266113 65.114433
304.616608 73.477486
305.415497 62.626244
305.567413 75.82885
305.809357 82.790596
306.151123 72.183105
307.241394 71.88871
307.383575 59.762821
307.38504 55.918331
308.215912 83.57782
308.606018 68.564163
309.128204 82.048271
309.220459 62.611969
309.425873 59.480366
309.769073 56.377331
309.919189 70.70681
310.194855 56.68298
310.671021 91.675156
310.845032 76.421379
311.5914 70.990402
312.50293 60.520412
312.92923 77.226036
313.681519 80.195602
314.400024 74.411278
314.732513 57.408012
315.560852 77.271072
316.87561 61.473869
317.952454 70.510368
318.654572 60.666199
319.199432 77.223625
319.487976 72.435799
319.68396 81.944199
321.595978 71.330414
323.329834 66.240227
323.799438 66.046989
323.970184 70.475586
325.460144 76.121391
325.729492 62.64872
325.813141 64.094696
326.187103 65.587395
326.842285 76.969368
327.165344 59.944702
327.570831 67.404549
327.97348 55.256744
328.714783 75.211411
329.498871 66.245735
330.603607 63.248684
331.154816 81.119232
331.660461 71.05072
331.741089 59.154121
332.083191 67.560219
332.583466 61.629704
333.021271 51.303085
333.652496 72.572189
333.923523 62.307869
334.139923 60.254723
334.270172 59.975384
334.282654 81.282074
334.780792 62.875118
334.84964 73.798256
335.135681 70.415947
335.413605 79.73436
338.665009 61.968975
338.955414 76.531425
339.118683 68.529068
339.840149 74.609512
339.893829 57.013477
340.385864 62.919254
340.732574 86.24147
341.085785 65.074417
342.566071 71.63311
345.144501 73.236076
345.308136 67.898705
347.154541 69.676704
348.074127 64.927986
348.613251 59.570183
348.823456 58.125202
349.149384 67.639412
350.200195 74.11837
350.416077 59.285202
350.929199 71.079193
351.045441 82.150642
351.827789 67.463989
352.555176 59.097733
352.843048 66.825462
353.756317 66.391037
353.809326 59.489086
353.999817 54.855633
354.926361 66.411629
355.010437 71.000809
355.145111 61.09483
355.161041 71.728394
355.313721 64.68528
355.873444 72.3498
356.313965 74.473251
357.736603 73.977074
358.188904 73.099243
359.31839 62.489529
359.447418 63.568031
359.464386 80.924202
360.652222 89.098907
362.156189 63.435589
364.007874 70.189232
364.334259 72.137444
364.408478 66.146011
365.208893 76.98571
366.263916 77.49324
367.6073 73.186729
367.769653 88.123817
369.478607 59.953953
369.64621 69.138573
369.804291 78.913506
370.494965 69.963066
372.01474 61.008251
372.059814 65.906052
372.356171 65.51931
372.473633 72.315857
376.449127 73.204628
377.240448 76.631165
377.83667 101.657822
378.820007 65.213272
379.155212 69.763245
379.339661 61.052818
379.772552 62.239197
381.192902 69.857895
381.567749 87.742622
381.914581 73.106544
381.923035 77.249237
384.517883 55.015995
385.900208 53.610054
386.051666 70.404633
386.495239 71.408745
387.076813 62.104427
387.623138 66.045433
388.338379 64.312408
388.431488 81.929718
388.632263 69.008003
389.148987 64.132866
389.365692 61.609688
389.873627 82.182449
390.249146 71.383163
390.9021 63.26569
391.851196 69.323624
392.385712 74.003311
392.888336 78.395706
392.956635 72.146049
393.899139 59.545216
394.009766 64.608246
395.241791 72.482727
396.689331 56.7752
397.280365 64.761925
397.457397 65.207397
398.832642 68.767845
399.670715 74.250557
399.729919 69.667747
400.478241 60.511074
401.010864 85.623657
401.306427 72.28241
402.952057 60.500633
405.756836 67.099434
407.648651 72.820541
408.828827 69.469772
409.321136 76.072784
409.634552 69.329582
409.709961 60.791264
410.595978 62.40572
410.97525 62.065323
411.143188 67.790176
411.575226 67.209618
412.663849 64.569206
414.647491 74.945862
415.33548 61.960674
415.870239 76.70929
416.067596 75.149429
417.206573 92.442398
417.551666 74.164238
417.982422 75.242264
418.644379 63.330082
420.874084 60.289806
422.008667 89.639862
428.494537 59.988956
429.865875 58.567219
430.431793 69.575966
430.811157 109.305847
434.625916 60.309856
435.178192 66.507988
435.23941 63.564194
435.348328 65.315872
435.430817 59.671734
435.647919 85.770943
436.309265 72.137695
436.786072 66.682297
436.848114 74.689453
441.405426 72.061317
441.873596 59.756634
441.877106 68.680084
441.974823 74.288521
444.197449 64.271233
449.648346 65.017189
449.953705 57.392231
450.049805 63.558971
450.318512 61.336945
451.410553 72.531479
451.435455 71.689102
452.512817 62.660561
453.173553 93.591995
453.240906 80.303474
453.895599 78.456329
456.067017 69.146919
456.435699 78.225121
456.452942 69.147667
456.80661 74.520149
456.896667 59.449398
457.441986 90.876373
457.571777 70.005264
457.875702 55.93063
458.02005 68.218803
459.08136 68.985786
459.129852 78.485817
459.609131 68.455078
460.658051 64.174332
461.828125 65.547417
463.340027 72.924164
463.843353 71.730309
464.202606 81.057358
464.678314 76.585052
465.04007 80.891769
465.370972 84.584564
465.436279 82.800529
465.569427 76.021759
465.695099 63.079018
470.500397 65.014412
472.633118 71.967804
473.7565 68.13633
474.663727 67.467422
476.005035 75.561699
478.034515 83.484581
478.405823 62.269001
478.625671 66.071602
480.109833 92.234962
480.930298 76.507675
481.172424 64.443115
481.66687 76.261757
482.619843 65.666901
482.778595 66.195923
484.114166 64.424789
485.147003 70.603409
485.674622 65.559044
486.183685 53.09808
486.19104 71.779114
487.187103 60.956379
487.88028 58.760284
488.53772 73.94194
488.73877 73.752892
489.261597 69.710449
489.437866 77.866814
490.730682 72.427452
492.355804 83.637177
492.745544 66.67646
494.176178 71.983078
495.576996 69.304123
496.607361 64.490211
496.96521 79.265976
497.058228 71.759155
497.895752 86.161385
498.879059 64.994873
500.116486 68.466805
501.618225 64.265945
501.636749 68.166779
502.15033 67.286972
502.379974 59.765392
503.283722 78.407867
505.652954 66.739189
505.812683 78.807518
505.935913 63.080772
508.081024 85.200874
509.632538 71.540428
511.225891 57.500477
511.476959 66.073624
512.470032 68.448318
512.792358 64.854988
514.722534 73.839905
515.950806 83.75235
516.866394 64.147766
517.069275 69.258682
517.54187 69.681549
517.662903 83.164925
519.461365 62.590366
523.213135 73.759438
523.401001 88.570625
524.559448 78.763977
524.622498 80.042336
525.394897 72.552673
525.511475 88.05127
527.038635 70.979645
528.38916 59.851662
530.127136 64.691872
531.475464 77.023529
532.143555 96.434845
532.199585 56.385372
532.555298 73.015305
532.599243 72.807701
532.929504 76.396835
533.595947 59.168709
534.582275 76.648331
535.136902 84.323395
535.346802 83.575928
536.247375 82.312897
536.272461 90.008827
536.332764 66.266083
537.328064 68.951355
538.436584 69.09848
539.601318 67.08474
540.090271 79.253784
540.310486 89.926704
542.106628 67.606133
542.376587 72.671158
542.888428 70.813385
544.594299 76.113716
545.075256 84.556396
545.832825 88.685081
546.701111 55.821125
547.529846 61.828125
547.650879 71.548714
548.883606 73.173447
549.414246 65.848946
550.441223 71.631874
550.550659 101.039032
550.612793 67.84079
550.74884 73.332802
552.993225 70.568466
553.511475 64.981934
554.03064 73.891075
556.290771 81.593132
556.371704 67.510101
556.815308 62.020237
560.357056 71.272972
560.376221 78.412949
560.587891 62.966698
560.672668 70.070549
561.373962 74.4515
562.079834 72.80249
562.265259 68.056168
562.974731 64.324028
563.240662 76.284874
565.677307 83.496307
566.967896 62.632202
568.224792 64.263321
568.406982 71.419228
568.90918 80.142105
569.815796 136.758392
569.822754 71.822845
569.831299 135.643448
569.842773 70.368843
571.611694 84.671112
571.984375 77.938568
572.0177 119.620636
572.203308 87.104614
572.867615 76.510612
572.879883 98.093346
573.098633 70.655846
573.117493 323.723175
573.12793 117.476616
573.147766 141.084839
573.222778 130.678772
573.245728 189.013168
573.25415 184.845261
573.26062 175.877869
573.279602 116.851173
573.295654 369.004272
573.311646 260.159058
573.329041 148.950821
573.35614 75.03437
574.414551 67.907532
574.52655 82.774925
574.540222 105.98465
574.570374 77.358658
574.582947 91.700142
575.328308 92.95829
575.649658 60.103992
576.473999 75.070564
576.641602 73.318489
577.254761 79.371475
577.672546 67.689148
578.042114 67.692902
579.280029 74.592392
579.831055 69.916275
579.857605 97.844749
580.41571 62.10276
580.92334 75.966125
581.897461 73.393341
583.691528 76.788406
583.708313 79.56884
584.25177 86.88327
584.266602 78.850197
585.922791 65.660591
586.328735 92.336517
586.477234 175.808472
586.74585 82.287003
587.913025 121.144142
588.162598 70.149002
592.122253 63.840515
592.138794 71.337715
592.427307 71.906944
592.811829 59.119598
593.224365 63.522633
593.257507 111.092941
593.692322 63.493351
593.868652 69.031929
594.230896 80.356758
594.481995 178.314224
594.493713 133.644623
594.511047 147.241104
594.523804 271.749481
594.5354 260.570465
594.557556 141.395493
595.866333 96.981529
595.874878 86.308182
595.902283 106.467918
596.064392 70.748611
596.700439 72.668053
596.827576 89.928482
596.833191 84.762207
597.108643 108.270439
598.116699 96.602715
598.135254 76.848175
598.150757 123.531158
598.81897 64.833046
600.119995 72.556076
600.610596 72.51593
600.64563 77.092583
600.748596 71.206673
601.988953 62.184227
602.046936 108.127396
602.302002 78.120323
604.415466 141.996216
604.433105 186.671753
604.739868 62.270775
605.916809 69.735405
606.273315 93.886696
606.8349 62.780464
607.42865 85.486115
607.547852 90.1381
610.058044 65.698936
610.609314 72.409409
611.336853 136.544846
611.508667 61.395969
611.841248 76.834923
612.783875 91.858589
613.229919 73.571678
614.540405 72.078415
615.143311 83.97448
615.152771 103.311401
615.878723 83.145775
615.921021 96.708649
615.930359 75.960075
615.94635 73.686256
616.63916 67.243553
617.361084 144.768341
617.398376 147.309387
617.424927 70.547043
617.441772 89.951279
617.615784 61.912365
618.297241 65.862495
618.695801 67.201363
618.880371 85.364464
618.989685 107.85553
619.002991 109.169441
619.123718 61.146606
619.749451 63.550358
620.548462 73.274117
621.256104 85.60302
621.30426 61.640755
621.811096 82.401604
621.825623 70.728935
622.208008 79.076447
622.343811 66.836899
622.604187 70.19841
622.896362 69.649017
623.19812 81.969574
624.137573 88.998764
624.469543 64.514549
625.520569 71.102676
625.648865 98.3209
626.47998 82.547821
626.550354 109.46196
626.557861 131.182373
627.127991 97.988663
627.162231 314.700439
627.179626 98.291916
629.342346 74.95948
629.480347 100.940536
629.497925 143.889481
629.555237 87.756485
629.815063 64.260063
630.043335 70.859467
630.514648 70.760109
630.553589 124.482857
630.860535 253.648956
631.164307 158.16571
631.177612 172.871582
634.911865 143.090729
635.718506 86.601494
635.81366 89.529877
636.032715 76.919289
637.908142 78.582092
638.710815 94.607544
640.070618 64.65667
641.516846 70.931953
642.045776 73.878471
642.0979 93.114693
642.11438 88.075523
642.781616 88.568596
642.82782 96.785591
642.846375 119.932594
642.858093 167.690781
642.872192 299.421478
643.172668 135.302063
643.200867 98.114799
644.038818 63.706814
644.789185 70.479073
647.052795 74.377823
647.092285 66.33493
647.398499 129.712555
648.746338 76.218857
649.219238 65.7528
649.957214 90.680405
650.868408 113.136299
650.895264 127.415215
651.018433 92.88324
651.735168 72.558105
652.699158 70.067474
653.484375 83.298584
656.813171 68.98616
658.697205 71.485916
659.710632 92.269531
660.048706 178.692215
660.061401 117.077675
660.079224 98.661583
663.042725 65.185661
663.496765 79.714012
663.661316 85.717995
663.729858 78.925476
664.348694 81.241463
664.504395 101.603798
664.761719 73.413948
665.083618 63.438793
665.614502 71.00985
667.679932 58.293362
668.649902 90.901718
668.819336 85.25032
669.38855 58.337986
670.994263 62.168442
672.853882 78.389954
672.959229 73.795952
673.171387 96.799088
673.202881 85.880638
676.332947 73.02446
676.398926 104.257622
680.307739 75.277718
681.223938 67.791229
681.785645 91.681808
683.04895 67.454361
683.487549 81.590813
683.57373 63.766293
683.963562 67.66188
685.906677 72.295128
686.876465 152.719238
686.900208 101.154861
686.923279 68.402313
686.928101 70.387924
687.266357 121.940498
688.701477 90.106651
690.682678 65.55851
693.550293 66.567879
694.369934 65.68045
694.907776 73.327766
696.15448 99.32402
696.572571 293.258728
696.591309 131.81665
696.606445 89.567001
696.93866 155.127838
696.960754 178.741089
696.975769 124.185204
696.985291 88.632233
697.913391 75.826904
698.249268 66.002327
699.33844 90.386597
700.780884 85.908127
701.152344 85.104904
705.08197 71.750031
706.158203 91.242165
709.112488 63.169941
709.125244 69.72963
710.852966 106.337875
711.26239 88.584938
711.471191 64.054146
711.477417 64.561699
711.650757 83.509056
713.303223 74.653259
713.425781 129.698273
713.446716 80.937912
713.458069 83.720444
713.818481 66.673767
714.12738 69.950851
714.739807 81.159637
715.36908 70.636002
716.005615 69.866974
716.434631 104.005219
717.305176 65.248787
721.342773 65.386276
721.355347 81.043007
721.637878 75.672096
722.047974 448.160156
724.270508 92.537453
726.950134 74.605476
728.339783 78.447685
730.844482 81.735397
731.210266 82.581078
731.526428 86.290405
732.343567 75.83194
732.538391 80.424149
733.462158 87.525879
736.20697 75.218903
737.396362 82.535759
737.509094 67.467598
737.799622 92.624504
737.815247 106.472046
738.417603 69.140884
740.693604 70.956123
742.472534 113.148056
742.497864 171.232529
742.519165 195.922302
742.929016 82.474846
742.94751 141.544815
743.345581 85.826607
745.537292 72.891441
746.638428 73.00705
746.863037 79.700722
747.950256 93.040428
748.058777 89.255363
748.121277 77.2463
748.140808 70.829834
748.992676 124.750923
749.408447 73.250893
751.474365 65.57077
752.678223 64.525711
753.843506 293.87262
754.41571 83.362686
755.010864 67.847366
757.921265 82.057907
758.507019 75.77906
759.182251 85.181259
760.071228 109.017044
760.488831 81.059937
761.487793 106.409424
762.591064 68.158371
764.257019 70.89872
764.36438 212.911163
764.396057 222.624222
764.416931 132.98912
765.52832 167.140579
765.568665 78.584274
766.385498 67.725266
766.434692 77.531303
770.955566 67.76458
771.993347 130.290894
773.718323 64.638687
774.464172 134.88208
778.284912 70.850395
781.456238 114.969299
781.965881 62.210709
783.59198 85.519493
784.447754 614.352356
785.561218 80.543564
788.451111 88.317635
788.479492 1620.63562
789.453308 378.28653
789.483276 4154.432617
790.486145 896.447266
792.357727 85.569023
792.476562 105.360252
793.138184 76.573875
793.943542 75.414474
795.387695 75.152168
795.409119 82.882996
795.430176 119.678123
796.230042 78.907661
798.464172 281.391327
799.467773 651.846741
800.143188 77.434601
800.469788 138.758194
801.148315 71.018974
801.312866 76.568039
801.737183 62.863544
801.86084 313.671783
801.877808 356.354523
801.901489 188.685501
802.458862 438.696991
804.222778 67.401688
804.830566 74.195732
807.653076 71.913422
808.69751 67.620407
816.778259 61.75275
817.644043 70.070793
820.054016 69.472893
821.535339 97.241272
823.106201 75.125
823.8302 79.414749
824.108704 69.107628
825.62085 69.138138
826.063843 81.144424
828.508911 95.814095
829.34375 92.714882
829.470703 141.957626
829.89917 67.305893
833.504944 73.082626
836.701294 77.204247
836.744446 76.379578
842.131592 90.387444
842.54126 96.208603
844.210815 79.019623
846.490173 91.752769
847.078613 75.641312
847.480713 119.786827
849.153687 65.683784
849.99646 85.126389
852.778748 65.085197
855.07428 78.497917
856.66217 63.460007
859.843933 86.183273
859.985168 87.379776
863.898682 106.762321
863.958008 75.111671
864.365173 77.072922
866.266785 79.255226
867.227417 64.525139
867.235535 64.921974
867.357483 67.9683
870.376953 82.102203
871.502136 76.077995
871.541443 99.834953
872.001526 89.75882
872.092712 81.484894
872.137085 247.271301
872.15509 231.274841
872.242554 100.353333
873.248413 75.413422
873.472046 75.387741
874.788391 61.620174
875.81958 77.419342
876.210327 65.856682
878.294189 63.085667
879.267395 95.145279
879.302124 284.389832
879.391663 82.957649
879.911438 90.07309
880.662964 77.989594
882.147034 66.541168
885.494934 113.034317
885.53125 486.043762
886.49646 290.768982
886.535095 2068.166504
887.537415 535.861145
889.627136 93.350983
891.2052 89.138672
891.65448 78.799225
891.742859 75.023567
892.318665 83.109283
895.917053 97.849663
898.486328 80.12822
900.19104 72.198715
903.542908 186.198471
904.483337 159.934402
904.54657 732.536255
905.351196 72.375031
905.488525 110.361084
905.549255 176.121323
907.018921 75.929657
911.1427 89.618263
912.424744 96.448174
914.069885 68.980362
914.096191 75.1306
918.245972 75.769302
918.27417 69.565483
925.731506 78.174591
926.566284 215.30632
927.83136 71.717064
929.396057 70.980881
929.557129 274.171356
930.308716 67.560669
930.513855 97.115479
931.347656 76.311592
931.828003 78.440048
932.519348 59.853374
933.063477 71.875183
935.775024 95.686829
937.059326 125.724083
937.48999 80.77961
939.47522 76.832321
942.169312 73.326271
946.013794 86.601799
946.042542 112.04023
946.995911 72.783615
947.928528 81.3181
950.374329 70.650757
952.745667 82.723557
953.15564 62.752163
953.717407 99.789093
955.003113 81.351006
955.183594 219.842453
955.214539 206.202042
955.857422 78.792427
955.897705 144.973511
955.988953 101.424484
956.097351 72.975258
956.811707 71.768036
960.753357 72.529335
961.951416 77.860435
964.533447 109.236183
966.119995 108.32814
968.178528 63.587757
973.245239 101.69442
974.02948 157.808929
975.999084 86.248589
981.355103 74.611252
983.563904 77.624718
984.73999 126.756172
985.491516 80.879578
993.974609 80.453102
996.61908 77.358917
998.330322 67.235664
999.088562 86.572418
1001.072876 77.035812
1002.953979 89.395981
1008.353516 85.315643
1008.390625 89.945984
1010.156189 95.249901
1011.881287 81.488739
1012.59552 75.068352
1013.150146 76.891312
1014.212036 69.092865
1016.105469 78.071503
1016.226868 87.595215
1016.793701 86.156792
1018.874756 71.975441
1019.404968 80.433655
1019.539368 73.823868
1019.848083 71.33625
1019.911499 77.494614
1021.553833 74.11834
1022.92157 213.014252
1022.952026 121.139885
1025.646362 70.403076
1027.662964 75.668755
1032.901245 75.887199
1037.029663 90.479492
1042.00293 67.540382
1042.907593 73.45266
1044.515991 78.641106
1045.799194 78.678574
1047.455933 76.039368
1049.632812 404.033173
1050.635132 112.845322
1052.86145 80.571724
1052.895752 66.440651
1055.720703 118.515823
1056.374146 63.802505
1056.463501 63.256004
1056.597046 138.59288
1059.295532 81.811066
1060.788208 85.051369
1062.609253 211.831421
1064.869995 81.361855
1065.453369 78.136482
1066.640991 75.290749
1070.583374 145.138748
1070.63623 1881.016479
1073.9823 76.982704
1074.378174 71.466858
1074.56311 76.534073
1077.23291 80.93869
1077.573608 595.885193
1077.629395 8625.658203
1077.730103 86.679466
1078.577637 209.509949
1078.632568 2578.414062
1079.632812 231.362473
1080.621338 876.835083
1081.627441 80.8256
1089.144775 92.626396
1090.599365 81.36039
1091.971191 76.095978
1101.366211 67.195824
1101.594482 71.442863
1102.019165 73.290207
1102.199951 66.651352
1102.40625 74.576721
1102.897461 117.111382
1109.088623 74.298622
1110.513916 73.769653
1110.783813 79.531593
1113.180908 68.968338
1114.66626 68.265755
1116.2677 74.668228
1117.969727 90.117287
1119.429321 95.80162
1120.830933 70.973907
1124.993286 73.527252
1126.122559 81.829834
1127.099976 73.883522
1127.426636 77.149208
1127.738281 79.834824
1128.069336 77.177704
1129.335571 77.776794
1129.524414 79.293793
1131.677246 78.102051
1131.869629 76.37767
1137.526733 67.958008
1137.553101 89.877373
1138.53833 87.383224
1138.651978 75.023476
1145.491333 79.420052
1145.627075 81.086662
1145.695801 62.955158
1147.497437 83.49617
1147.903442 74.866692
1149.813965 74.348312
1151.619019 74.447617
1153.612427 85.720596
1161.438477 71.302505
1166.565918 75.990639
1167.01062 104.35244
1169.688965 84.709389
1173.55249 73.308937
1177.861938 73.642357
1182.590454 73.405327
1184.441772 65.468346
1185.226562 79.671127
1186.501831 106.646202
1189.807983 84.869148
1191.635742 77.155296
1193.107422 448.205475
1194.38147 89.627258
1196.059448 70.492348
1198.25061 76.269791
1200.985718 76.457962
1201.523315 102.835831
1209.305786 75.180717
1212.040161 80.236855
1219.437134 72.43045
1223.789917 184.844345
1226.990479 79.904449
1231.40625 71.182106
1233.817139 88.881958
1234.748535 88.47142
1234.789917 84.276016
1236.730957 78.05098
1238.055908 72.50901
1238.092529 120.270409
1239.093628 78.693092
1239.176392 169.331314
1239.801514 79.436241
1247.194092 94.763634
1255.424927 89.22924
1260.535522 80.464424
1269.741089 62.433731
1270.763794 71.058578
1271.100586 93.729042
1272.314087 93.855797
1274.499146 73.804382
1276.302368 70.21685
1281.777954 77.891129
1282.096069 80.904457
1285.731201 90.097321
1286.341309 156.259186
1286.380859 100.577621
1286.855957 83.546761
1297.668091 83.762306
1301.774902 75.2248
1309.277588 78.803062
1313.050903 86.466743
1313.571655 76.064507
1318.484497 76.255661
1319.523193 109.747078
1319.611816 119.948059
1323.10498 89.925766
1335.150513 98.169716
1336.347046 93.229454
1337.099609 94.800308
1337.893555 93.656479
1338.70813 78.819229
1338.865967 87.998795
1341.791138 77.347473
1342.633667 69.646965
1348.143311 124.538765
1351.883789 104.197891
1353.19104 84.925629
1354.179688 102.52417
1356.85083 81.323929
1357.289795 89.400078
1357.335205 81.519707
1358.320068 90.901016
1358.449341 90.045128
1359.422241 83.760094
1359.485107 90.006348
1368.881714 65.070198
1374.473511 203.395721
1376.965454 72.332336
1379.128052 101.605759
1381.137939 78.277931
1382.027466 64.625916
1382.922119 70.340691
1388.320801 87.686455
1390.269287 69.072929
1390.315063 79.776154
1390.528564 90.489006
1392.48645 87.889328
1395.806885 90.870087
1395.969482 69.038307
1396.041626 71.360558
1398.286499 105.879265
1398.470337 96.510315
1399.404907 75.836922
1400.331177 73.55101
1401.393311 68.743843
1403.445435 64.971428
1404.548706 71.502876
1406.012085 96.01696
1407.178101 77.287117
1408.661865 100.814735
1412.21814 421.986694
1412.277466 196.03067
1416.227295 84.432037
1423.01001 70.128151
1424.270386 95.457512
1428.291992 85.347115
1429.786133 85.86454
1429.958618 69.321037
1431.183716 108.131317
1431.525513 77.500786
1440.536621 104.943237
1440.727905 110.870583
1440.947021 95.539062
1444.337646 63.70594
1449.295654 85.593903
1449.829468 100.165443
1452.221313 276.852509
1452.649048 155.743698
1454.225342 83.004929
1459.94519 124.860382
1464.136841 94.575333
1464.789307 70.215416
1465.816284 84.274277
1467.105225 129.650314
1469.520386 75.78788
1469.926514 71.309319
1471.428589 62.888878
1472.972046 80.383476
1476.095947 87.011398
1476.203369 124.823174
1483.165527 73.530266
1493.196411 97.933044
1494.063477 75.543953
1496.181152 67.448753
1496.317139 71.909096
1504.308472 88.006447
1506.210693 78.159401
1512.533203 63.585041
1513.547119 111.534439
1519.056519 84.512146
1519.201538 108.425873
1520.104248 67.432495
1520.984985 131.052185
1521.022827 146.931931
1521.800903 83.279655
1523.770996 78.304756
1527.845581 83.695274
1527.868652 82.461487
1528.712402 122.224472
1531.780273 66.467201
1533.952026 140.414047
1538.54895 82.141663
1541.273438 78.97361
1546.717773 98.784157
1546.907715 73.882339
1547.01062 68.366699
1548.99646 66.75769
1549.053955 86.064384
1549.919189 82.981407
1551.400269 90.788162
1555.295166 68.891953
1569.314209 78.105339
1572.371826 85.638359
1572.794312 72.743263
1575.137085 80.710869
1576.719727 75.043999
1577.301636 66.227478
1577.372681 78.11557
1577.999878 73.996231
1579.683105 89.361023
1581.304443 64.646584
1581.354492 66.18158
1582.661133 78.830734
1584.120728 115.873405
1585.55542 90.62587
1589.056885 93.09536
1589.322388 74.702965
1590.58374 67.83503
1590.798706 63.584682
1591.275391 70.947578
1592.469604 665.06012
1600.581421 103.300995
1605.134155 352.712738
1605.209351 253.638809
1607.84375 75.101875
1616.892456 86.981911
1618.831177 125.741188
1626.567627 68.372581
1630.261963 72.776062
1635.078125 80.371483
1645.82373 101.284164
1647.450684 84.677841
1651.092407 79.603447
1652.394409 78.393944
1652.615112 94.158455
1653.294678 70.764687
1654.106567 66.435097
1655.981812 87.01725
1657.265137 101.389633
1658.297119 66.318321
1665.340576 96.428352
1666.74353 86.505508
1667.664551 83.45607
1668.536255 89.818848
1669.098755 85.015678
1669.781006 102.444992
1671.463623 76.050438
1677.669922 77.758469
1678.5979 74.659447
1680.775146 78.950363
1683.315552 87.447594
1689.631592 165.890076
1692.892212 101.657753
1699.119751 76.759201
1699.573608 75.479149
1702.258911 192.154129
1703.924683 83.831505
1707.061768 59.166225
1707.123657 77.81385
1711.596313 74.293373
1713.69812 75.054977
1719.304565 68.690849
1719.967651 102.304321
1723.541016 78.361061
1727.690674 85.453346
1730.052002 94.372093
1730.625122 66.959267
1732.244629 78.771614
1735.434326 72.555534
1742.811523 87.25515
1744.060425 111.53447
1744.450806 73.798225
1752.263062 91.899277
1756.518921 75.428726
1758.550415 366.565857
1760.963013 79.90815
1761.03186 80.64695
1764.451782 88.603943
1775.414795 86.551895
1777.80542 97.219612
1782.539673 106.421722
1790.673218 94.713356
1791.714233 74.140488
1793.921509 83.576447
1794.537231 129.956345
1795.535034 92.284386
1798.432739 111.442566
1814.327271 90.880997
1825.719604 105.176865
1826.165649 175.908661
1826.281738 92.303581
1826.41272 148.141815
1835.515503 82.144524
1842.367798 79.507439
1846.093384 81.861351
1856.541748 102.350563
1857.513184 86.546135
1857.731934 124.928032
1863.938965 80.35881
1869.476318 74.18808
1871.839722 93.877449
1875.349609 93.877792
1882.261353 110.150688
1885.702637 86.704369
1886.779541 86.575714
1888.265869 99.121902
1890.3479 72.616425
1891.42395 90.622742
1892.74292 85.330635
1896.715576 97.618134
1897.945923 70.191933
1899.285767 76.023743
1904.226196 105.23262
1909.19165 89.219055
1911.609131 81.360939
1912.733765 75.769981
1917.997803 86.124924
1918.525879 84.432434
1921.009766 84.176643
1923.420288 84.91938
1928.118042 81.173256
1930.077637 74.770988
1932.196655 75.549873
1935.964233 76.686493
1937.889526 77.572197
1940.756836 85.78521
1943.248291 86.699455
1951.046387 101.116997
1952.983154 101.58564
1956.999268 75.353767
1957.967041 85.822983
1963.304321 89.918503
1964.07019 66.763161
1975.078003 95.692528
1978.813477 77.43203
1991.689331 73.075768
1995.574097 100.988129
END IONS
