BEGIN IONS
PEPMASS=751.0
CHARGE=1
MSLEVEL=2
SOURCE_INSTRUMENT=LC-ESI-qTof
FILENAME=f.chenliangyu/B2-2separate/2/SH11/B2-2DEA-H8.mzXML;
SEQ=*..*
IONMODE=Positive
ORGANISM=GNPS-LIBRARY
NAME=Monactin M+Na
PI=Dorrestein
DATACOLLECTOR=Liangyu Chen
SMILES=O=C(OC(C)CC2CCC5O2)C(C)C1CCC(CC(C)OC(C(C3OC(CC(OC(C(C)C4OC(CC(CC)OC(C5C)=O)CC4)=O)C)CC3)C)=O)O1
INCHI=
INCHIAUX=
PUBMED=169015
SUBMITUSER=chenliangyu
TAGS=
LIBRARYQUALITY=3
SPECTRUMID=CCMSLIB00000839969
SCANS=1369
167.104645 2448.0
168.102829 496.0
181.119156 740.0
185.117203 3604.0
186.121246 1240.0
199.133606 1048.0
203.128906 404.0
207.101639 2316.0
221.114792 692.0
327.184509 332.0
347.226929 512.0
349.167328 364.0
351.22226 652.0
352.229279 680.0
369.234741 4496.0
370.238525 2772.0
371.246643 700.0
383.247528 1440.0
384.251007 876.0
391.218292 28356.0
392.223572 6548.0
393.220642 748.0
405.234924 28912.0
406.237488 5824.0
407.242157 840.0
531.343201 400.0
533.272827 364.0
545.361694 372.0
554.348999 556.0
568.366638 376.0
575.331543 14872.0
576.333801 6004.0
577.339539 904.0
589.346252 28696.0
590.348083 8884.0
591.349243 2352.0
592.35614 380.0
729.47467 1192.0
730.47229 812.0
769.49646 708.0
770.49823 516.0
771.461487 368.0
772.485229 644.0
772.73761 824.0
772.963257 1028.0
773.463806 461016.0
773.823242 1040.0
774.014343 1184.0
774.153931 928.0
774.465332 273588.0
774.789917 1020.0
775.062988 476.0
775.465698 55036.0
776.470459 7996.0
777.473083 520.0
END IONS
