BEGIN IONS
PEPMASS=679.309
CHARGE=1
MSLEVEL=2
SOURCE_INSTRUMENT=LC-ESI-Hybrid FT
FILENAME=f.lfnothias/140221_LF_015_AcOEt_ASE-cpd-10.mzXML;
SEQ=*..*
IONMODE=Positive
ORGANISM=GNPS-LIBRARY
NAME=5,7-diacetoxy-3-benzoyloxy-14,15-dihydroxy-8-(2-methylbutyryloxy)-9-oxojatropha-6(17),11E-diene  M+Na
PI=Louis-Felix NOTHIAS-SCAGLIA
DATACOLLECTOR=Louis-Felix NOTHIAS-SCAGLIA
SMILES=C=C([C@@H]1OC(C)=O)[C@H](OC(C)=O)[C@@H](OC(C(CC)C)=O)C(C(C)(C)/C=C/[C@@H](C)[C@@H](O)[C@]2(O)[C@]1([H])[C@@H](OC(C3=CC=CC=C3)=O)[C@@H](C)C2)=O
INCHI=InChI=1S/C36H48O11/c1-10-19(2)33(41)47-30-29(45-24(7)38)22(5)28(44-23(6)37)26-27(46-34(42)25-14-12-11-13-15-25)21(4)18-36(26,43)31(39)20(3)16-17-35(8,9)32(30)40/h11-17,19-21,26-31,39,43H,5,10,18H2,1-4,6-9H3/b17-16+/t19?,20-,21+,26-,27+,28?,29?,30-,31-,36-/m1/s1
INCHIAUX=
PUBMED=24926807
SUBMITUSER=lfnothias
TAGS=
LIBRARYQUALITY=3
SPECTRUMID=CCMSLIB00000424726
SCANS=1
196.45929 260.011353
196.46138 2259.641113
196.463455 3216.287598
196.46553 2649.744141
196.467621 1441.833374
196.755127 1333.847046
196.757202 2070.030273
196.759293 2562.123047
196.761383 2724.57959
196.763458 2542.651855
196.765549 1900.917603
197.275482 782.399048
197.277573 2059.208496
197.279663 2624.608398
197.281754 2189.009766
197.283859 1140.174438
200.600189 479.053955
200.602341 2849.28125
200.604492 4057.82373
200.606628 3390.34082
200.60878 1720.466187
201.925034 1975.954468
201.9272 2184.658203
201.929367 2503.526367
201.931534 2772.93457
201.933701 2266.385742
201.935867 1100.735718
209.632843 1283.91394
209.635132 2104.766602
209.637436 2508.034668
209.639725 2492.086914
209.642014 2165.273926
209.644318 1622.889771
211.108566 1116.896606
211.110886 2105.005371
211.113205 2748.902832
211.115524 2430.145508
211.117844 1558.24353
218.221115 1724.338501
218.223557 2344.61084
218.225983 2498.86084
218.228424 2232.89209
218.230865 1547.644409
225.118713 950.567627
225.121262 2081.490723
225.123825 4205.382324
225.126373 5513.866211
225.128922 4573.562012
225.131485 2048.369629
227.192825 2063.416016
227.195404 2340.452637
227.197998 2483.127441
227.200577 2354.235352
227.203171 1794.926392
235.143707 1208.141479
235.146423 2500.934082
235.149155 2827.322754
235.151871 2156.274902
235.154602 1253.566528
235.840088 500.224487
235.842834 2255.664551
235.845566 3533.779297
235.848312 3418.879883
235.851044 2112.592285
235.853775 619.000366
243.775162 1178.765015
243.778046 2693.866699
243.780914 3255.869629
243.783798 2483.705078
243.786667 1123.947876
249.155014 1037.416138
249.15799 4839.645508
249.160965 9307.292969
249.163925 11180.405273
249.166901 8860.791992
249.169876 4314.813965
249.172852 784.717407
252.678162 682.512695
252.681183 2127.664551
252.684219 2815.616211
252.687256 2354.859375
252.690292 1038.218872
255.669968 1231.52063
255.67305 2674.275391
255.676132 3297.825684
255.67923 2820.397461
255.682312 1624.021606
267.165375 2655.625977
267.168671 10504.295898
267.171997 17956.310547
267.175293 18951.369141
267.178589 12639.910156
267.181885 4550.071289
267.185181 6.276001
275.513824 887.840942
275.517273 2072.227539
275.520721 2748.874512
275.5242 2434.392578
275.527649 1334.446411
277.148804 458.320312
277.152283 4692.314941
277.155792 9234.147461
277.159271 10600.661133
277.16275 7635.637695
277.16626 2867.893555
277.770508 1811.838745
277.773987 2826.102539
277.777496 3226.492188
277.781006 2972.394043
277.784485 2215.507812
277.787994 1275.942017
285.174683 1939.638062
285.178314 5648.741699
285.181946 10068.167969
285.185577 11315.025391
285.18924 8116.686523
285.192871 3162.028809
291.095459 2002.402954
291.099213 2556.28125
291.102966 2700.366211
291.10672 2283.935059
291.110474 1313.504517
295.157166 1674.037476
295.161011 10939.102539
295.164825 23192.148438
295.168671 29531.183594
295.172485 24564.392578
295.176331 12667.680664
295.180176 2859.503418
301.539581 1768.180542
301.543549 2476.994141
301.547485 2626.964355
301.551453 2299.91748
301.55542 1630.228638
311.897308 1218.118042
311.901459 2986.148926
311.90564 3599.501953
311.90979 2643.730957
311.91394 974.05896
313.170807 5187.291992
313.174988 12960.390625
313.179169 17616.228516
313.18335 15108.027344
313.187531 7589.226562
313.191742 1197.405884
317.136566 410.418091
317.140839 5689.578125
317.145081 14250.083984
317.149353 20870.615234
317.153625 19926.142578
317.157898 11780.195312
317.16217 2659.245117
321.696381 1216.507202
321.700745 2112.666016
321.705109 2750.632812
321.709473 2782.625488
321.713837 2228.659668
321.71817 1373.27771
327.185547 1869.563599
327.190033 3320.027344
327.194489 3696.78418
327.198975 2380.902344
327.20343 347.112915
331.170715 1754.188599
331.175293 2115.945801
331.17984 2394.816895
331.184387 2831.060059
331.188934 3233.078613
331.193512 2955.254395
331.198059 1713.035278
335.15033 571.8302
335.154968 2429.064941
335.159607 3979.964355
335.164246 3894.306641
335.168884 2195.571777
335.173523 212.087646
338.537415 1151.569458
338.542114 2488.34668
338.546814 2918.603027
338.551544 2306.479004
338.556244 1047.445679
349.165314 1422.09729
349.170258 5422.553223
349.175171 8513.28418
349.180115 8224.885742
349.185028 4925.694824
349.189972 1337.68689
355.178284 290.525146
355.18335 4472.94043
355.188416 7954.705078
355.193481 7829.524414
355.198517 4425.737793
355.203583 733.450317
371.740997 1941.347534
371.746399 2803.126465
371.751831 2888.379395
371.757233 2264.664062
371.762665 1303.222046
377.156281 11451.462891
377.161804 38927.464844
377.167328 69115.15625
377.172882 78919.476562
377.178406 59670.453125
377.18396 27487.826172
377.189484 5060.506348
385.055176 1346.820679
385.060883 3034.10498
385.066589 4112.780273
385.072296 3776.492188
385.078003 2506.597168
385.08371 1331.27771
395.162445 1768.131958
395.168365 7811.388672
395.174316 16965.517578
395.180237 23470.691406
395.186188 21823.332031
395.192108 13022.697266
395.198059 3660.388184
406.303497 525.187988
406.309692 2294.236816
406.315857 2872.51123
406.322052 2422.904297
406.328247 1557.224243
406.359192 1209.026978
406.365387 2319.640625
406.371582 2880.755859
406.377777 2780.708496
406.383972 2232.010254
406.390137 1469.681519
409.184265 1924.442749
409.190521 5721.237305
409.196777 8447.021484
409.203033 7760.619141
409.20929 4236.548828
409.215546 643.292603
415.198303 363.821655
415.204681 3131.239746
415.21109 4767.933105
415.217468 4258.656738
415.223877 2430.588867
415.230255 634.598999
437.163361 767.559692
437.170288 11762.368164
437.177185 65846.234375
437.184082 149337.015625
437.19101 206727.984375
437.197906 189939.25
437.204834 113296.273438
437.211731 36927.394531
437.218628 1379.622192
439.173431 1872.086548
439.180389 3922.462891
439.187347 4896.797852
439.194305 4119.520996
439.201263 2028.063599
455.177429 924.185913
455.184784 9651.370117
455.192108 27526.808594
455.199463 43224.738281
455.206787 43837.039062
455.214142 28684.804688
455.221466 10200.419922
455.228821 130.588135
457.180176 1237.981812
457.187561 4010.15918
457.194946 5679.098633
457.202332 4878.967773
457.209717 2202.838867
497.184387 6139.121582
497.192749 51963.277344
497.201141 138657.953125
497.209503 214663.796875
497.217896 217749.40625
497.226257 144848.90625
497.23465 55969.070312
497.243011 6612.498047
499.184296 4523.171387
499.192719 16101.457031
499.201141 29167.386719
499.209564 33868.679688
499.218018 25971.962891
499.22644 12092.063477
499.234863 2265.887207
515.194031 587.599243
515.20282 4355.362793
515.21167 11073.973633
515.22052 15676.560547
515.22937 13917.6875
515.23822 7098.995605
515.247009 1448.262573
517.18811 1116.303345
517.197021 9885.498047
517.205872 26391.832031
517.214783 40601.476562
517.223694 40956.886719
517.232544 27167.681641
517.241455 10439.164062
517.250366 1170.504028
531.208435 1331.212769
531.217651 5515.617188
531.226929 10509.717773
531.236206 12354.046875
531.245422 9279.326172
531.2547 4100.884766
531.263916 1345.605835
533.221863 1835.193726
533.231201 3974.664062
533.240479 6711.837891
533.249817 7890.456055
533.259094 6323.419434
533.268433 3147.068359
533.27771 584.754028
541.962891 1623.912476
541.972473 2775.828125
541.981995 3140.609375
541.991516 2297.731445
542.001038 700.056396
549.224243 1617.116577
549.233948 3604.038086
549.243713 4559.736816
549.253418 3547.399902
549.263184 1281.562378
557.198608 4058.80127
557.208557 33980.289062
557.218506 94640.03125
557.228455 153664.0
557.238342 164474.046875
557.248291 117211.820312
557.25824 50570.90625
557.268188 8096.335938
557.278137 1696.275513
559.181885 171.537231
559.191833 3712.022949
559.201843 41234.679688
559.211853 126662.585938
559.221863 217369.65625
559.231812 242386.296875
559.241821 179570.78125
559.251831 81771.882812
559.261841 16109.257812
559.27179 88.722046
572.806091 1905.467651
572.816467 2217.543945
572.826782 2496.354492
572.837158 2542.019531
572.847534 2313.995605
572.85791 2054.087891
577.192749 549.559937
577.203186 3269.552734
577.213684 30043.3125
577.224182 79153.4375
577.234619 120942.0625
577.245117 121423.554688
577.255615 80055.835938
577.266113 30402.414062
577.27655 2979.649902
577.287048 996.506958
591.223816 5750.615723
591.23468 23640.380859
591.245544 45278.171875
591.256409 53962.886719
591.267273 41961.476562
591.278137 19410.458984
591.289001 2493.823242
591.299866 1259.237915
618.952698 1795.446655
618.964355 2909.067383
618.976013 4251.172363
618.98761 5674.810059
618.999268 1761.965698
619.010925 4065.42041
619.022522 3288.78418
619.03418 4818.706055
619.045837 4420.726562
619.057434 6696.115723
619.069092 4106.996094
619.08075 7114.614258
619.092407 3207.73877
619.104004 5517.180176
619.115662 6996.08252
619.127319 9598.06543
619.138977 4623.243164
619.150574 7844.726562
619.162231 6692.496582
619.173889 7924.71875
619.185547 3465.982422
619.197144 3878.357422
619.208801 48223.757812
619.220459 360145.03125
619.232117 960982.6875
619.243713 1507931.625
619.255371 1560743.0
619.267029 1070430.875
619.278687 438817.6875
619.290344 65781.554688
619.301941 14095.679688
619.313599 1487.446655
619.325256 5269.842773
619.336914 8826.8125
619.348572 5543.412109
619.360229 8797.708008
619.371826 4654.88623
619.383484 6300.784668
619.395142 7449.223633
619.406799 8993.28125
619.418457 3832.872559
619.430115 6725.266602
619.441772 2877.424316
619.45343 5127.866699
619.465027 2928.974121
619.476685 3324.486328
619.488342 5197.112305
619.5 6543.864258
619.511658 900.484497
619.523315 2682.343262
619.534973 3127.500977
619.546631 3867.907715
619.558289 2905.148926
619.569946 3602.999023
619.581604 2324.662109
619.593262 4088.401367
619.604919 273.272705
637.221802 14969.199219
637.233948 70299.226562
637.246094 151849.609375
637.25824 204189.46875
637.270447 182956.4375
637.282593 106051.367188
637.294739 33015.382812
637.306885 1203.502075
661.231262 2407.287598
661.24408 7057.495605
661.256958 10151.541992
661.269775 9285.68457
661.282654 5229.978027
661.295471 1165.528931
END IONS
