BEGIN IONS
PEPMASS=1156.66
CHARGE=1
MSLEVEL=2
SOURCE_INSTRUMENT=LC-ESI-Ion Trap
FILENAME=f.wildelis/CUM13APR19-2_H4_24.mzXML;
SEQ=*..*
IONMODE=Positive
ORGANISM=GNPS-LIBRARY
NAME=Loggerpeptin B M+Na
PI=Caro-Diaz, Eduardo
DATACOLLECTOR=Marie and Wildelis
SMILES=OC1=CC=C(C[C@H]([N-]C([C@@H](N(C([C@@H](NC([C@H](CCC)NC2=O)=O)CC3)=O)[C@@H]3O)CC4=CC=CC=C4)=O)C(N[C@@H](C(C)C)C(O[C@@H]([C@@H]2NC([C@@H](NC([C@H](C)NC(CCC)=O)=O)[C@H](C)OC([C@H](C)NC(CCC)=O)=O)=O)C)=O)=O)C=C1
INCHI=
INCHIAUX=
PUBMED=
SUBMITUSER=wildelis
TAGS=
LIBRARYQUALITY=3
SPECTRUMID=CCMSLIB00005436092
SCANS=284
424.516724 44080.0
460.955444 83910.0
528.261963 73645.0
555.246094 28854.0
602.140137 60264.0
620.421875 19024.0
638.518311 60215.0
656.019531 44918.0
686.49292 92018.0
690.19458 244276.0
690.800903 10.0
703.45459 156462.0
721.268555 36776.0
732.290527 220254.0
737.686035 19576.0
748.430664 34768.0
749.07251 2.0
773.373535 319928.0
774.473145 116997.0
834.45874 83916.0
836.710449 55338.0
856.18689 65000.0
862.364624 48473.0
866.488159 44387.0
879.252686 81916.0
880.519287 1723810.0
881.347778 22.0
898.394531 263440.0
907.034058 34875.0
935.912354 80879.0
953.409546 557355.0
954.28833 3.0
969.40979 17798.0
979.590942 1324793.0
980.416016 5.0
995.171509 146920.0
996.797729 296631.0
997.523804 51023192.0
998.254395 12254.0
1007.611816 12982.0
1009.528564 16781.0
1015.551025 96021.0
1021.14209 131413.0
1025.686768 64546.0
1038.953857 421614.0
1039.635254 2733020.0
1040.69043 64198.0
1057.407227 415137.0
1067.510986 17717.0
1110.480957 34931.0
1128.633301 165607.0
1138.404297 3865040.0
1139.40332 16.0
1156.37085 163197.0
END IONS
