BEGIN IONS
PEPMASS=740.1
CHARGE=0
MSLEVEL=2
SOURCE_INSTRUMENT=LC-ESI-Ion Trap
FILENAME=f.jkharbush/GNPS_JenanKharbush/16.0_Phosphoglycerol_pos.mzXML;
SEQ=*..*
IONMODE=Positive
ORGANISM=GNPS-LIBRARY
NAME=16:0 PG (1,2-dihexadecanoyl-sn-glycero-3-phospho-(1'-rac-glycerol) (sodium salt)) M+NH4
PI=Aluwihare
DATACOLLECTOR=Jenan Kharbush
SMILES=[H][C@@](OC(CCCCCCCCCCCCCCC)=O)(COC(CCCCCCCCCCCCCCC)=O)COP([O-])(OCC(CO)O)=O.[Na+]
INCHI=
INCHIAUX=
PUBMED=
SUBMITUSER=jkharbush
TAGS=
LIBRARYQUALITY=3
SPECTRUMID=CCMSLIB00000078675
SCANS=1
200.193558 0.348042
201.255508 0.180517
203.003769 0.376813
207.210587 0.388733
210.080399 0.468584
213.157501 0.775634
215.219452 0.414595
219.416031 0.263819
221.290909 2.503975
221.938766 1.414582
223.272446 0.488608
226.356903 0.724698
227.161789 5.710072
233.202713 0.835522
233.88324 0.311495
234.924988 6.619462
236.225143 3.372519
237.160339 1.947291
239.133621 0.353051
240.36908 0.889734
241.110321 0.30531
243.297607 1.224981
247.35054 0.422172
249.132538 0.552045
250.074463 1.010447
252.135773 0.296973
253.255692 0.521575
254.027679 0.58529
255.099701 0.431728
257.320862 1.773235
258.04599 0.940609
259.122803 0.650336
260.233765 0.362022
261.141663 0.821735
262.311615 0.254739
262.9729 0.610372
264.174133 0.798132
265.290344 0.361653
266.155182 1.184105
267.190399 1.39276
268.143188 0.544656
269.344421 1.179891
270.135986 0.200422
271.174683 0.953333
272.319489 0.374645
273.364471 0.730044
277.218506 0.164887
279.23288 0.945027
279.765137 0.528551
280.43515 0.835293
281.34079 1.847255
282.307434 2.619349
283.241425 7.983577
284.214874 0.949972
285.173035 2.837987
286.223846 0.939876
287.090729 0.81223
288.041443 2.498133
289.088226 2.594842
290.287994 1.778971
291.357483 1.101475
292.182159 0.698274
295.336395 2.486079
297.137848 1.206533
298.230896 0.840779
299.085449 0.128883
299.950348 1.44262
301.489258 1.197482
303.255249 1.047487
306.157471 0.645608
308.598022 1.383849
309.30188 9.58611
311.356598 4.782265
312.104431 2.311975
313.336853 4.62592
316.353668 1.346735
317.146881 1.255957
318.299469 1.523985
320.370148 1.099301
320.98877 0.287131
321.491211 1.407531
322.443207 0.395238
323.258667 0.815168
324.110565 0.893311
325.17218 1.307326
326.282745 3.629883
327.302582 5.1574
328.272675 1.401719
329.129272 1.293363
330.277008 0.798422
331.38623 0.884832
332.220306 1.182225
333.245117 1.238248
333.827271 1.206049
335.304565 0.987235
336.302277 1.481141
337.233032 1.68724
338.401886 2.843966
339.181702 0.533556
340.137421 1.311193
341.125 2.330827
342.319427 0.570691
343.293976 1.469022
344.347473 0.626865
345.316559 0.753721
346.418793 0.214483
347.386627 2.368082
348.304016 0.589512
350.114105 0.515907
352.062805 0.747218
352.791443 1.664905
353.320282 2.521729
354.098389 0.221756
355.452423 3.553028
356.583618 1.880635
357.469116 0.120272
359.154724 1.651298
360.264648 0.878724
361.337128 1.011908
362.274963 0.588408
363.295929 2.173523
365.243042 1.228161
367.263794 3.946406
368.010864 0.264505
369.111267 2.560493
370.434265 0.234672
371.177643 0.85069
372.2966 0.842268
373.195404 1.985901
376.301453 0.234679
379.033478 1.0128
380.187592 1.366374
381.319336 5.882716
382.400299 0.750853
383.30957 8.128487
384.134766 0.228116
385.366028 3.642661
386.184692 0.602563
387.256104 1.549437
388.89859 2.500853
390.661682 2.173851
391.375519 3.074142
392.21875 0.851837
393.12854 1.577436
394.004333 1.770551
395.33432 10.98141
396.371277 5.837662
397.282196 2.143237
398.308868 1.497006
399.352081 1.599643
399.966736 0.1496
401.322571 2.045154
402.477417 2.787089
403.157776 1.646589
404.358704 1.775999
405.281891 5.367775
406.470428 1.533804
407.056396 0.308865
408.381317 0.704879
409.428802 10.717108
410.28595 2.771395
411.264313 10.239997
412.329041 1.969075
413.452332 2.023443
414.445526 2.140869
415.186615 5.712615
416.303406 1.029302
417.082825 0.416508
418.137939 0.724904
419.329712 1.980127
421.436584 0.302489
422.150757 3.427045
423.475372 1.6721
424.380005 1.236055
424.986816 0.510937
425.487732 4.053067
426.526123 0.340687
427.128845 4.496123
427.712036 1.236627
428.445526 2.040658
429.301392 0.858252
430.214233 0.211626
431.632904 1.878763
432.213776 2.118839
433.011078 2.35439
434.404449 1.355956
435.311829 1.929808
436.467743 1.28585
437.430878 19.019096
438.476227 1.652945
439.402222 136.219101
440.546356 8.824826
441.542297 13.24591
442.585876 1.868312
443.237122 3.094372
444.253418 0.964197
445.28302 3.014075
445.899902 0.502015
447.201141 3.29852
448.414032 2.350075
449.380554 3.266289
450.512512 1.556319
451.47464 2.10285
452.357635 2.05371
453.505005 15.637972
454.398407 6.477484
455.406921 9.907855
456.476624 24.272005
457.492249 8.573746
458.506805 5.335793
459.337219 4.501306
460.362244 1.560649
461.369843 2.963522
462.503662 1.645182
463.685303 2.813972
464.281342 1.349642
465.449585 55.116653
466.308746 5.703019
467.415192 278.013702
468.631836 3.518295
469.368835 4.51277
470.093811 0.795698
471.194427 5.608964
471.834564 1.925351
473.196838 0.557408
473.738098 0.456478
474.545959 11.658736
475.427795 12.548014
476.005737 1.054224
476.625183 0.862002
477.316223 2.229621
478.152557 2.436219
479.554718 5.975549
480.316223 2.530498
481.541443 46.636299
482.488861 44.822948
483.492004 14.626272
484.369629 5.425646
485.438843 5.441148
486.41626 7.488054
487.013367 1.979399
487.923615 3.161052
488.555878 1.099669
489.309937 1.399277
491.40271 0.357963
492.443176 3.57681
493.4888 36.795383
494.23291 5.235293
495.463501 192.516296
496.411377 3.32267
497.466339 4.046851
498.44577 2.960852
499.234009 1.504983
499.817627 1.332509
500.542358 15.431808
501.439941 8.710727
502.338867 4.018686
503.200653 1.043064
504.438843 0.49953
505.343262 0.720989
506.116821 4.16029
507.100403 8.701325
507.767609 2.966897
508.464417 1.749118
509.341278 26.997414
510.515411 9.313913
511.431824 2.267008
512.241272 1.985278
513.348267 1.0054
514.12915 0.332544
515.127197 3.496494
516.260315 0.391034
516.76355 1.64265
518.346191 0.396467
519.481262 5.004544
520.381165 1.774558
521.521851 25.354841
522.408508 2.001062
523.472778 112.018074
524.47229 1.728313
525.201782 3.913299
526.176392 0.925426
526.825745 9.683158
527.414368 6.387132
528.401855 1.753079
529.359253 1.11473
531.124939 0.746114
533.359863 1.936156
534.431763 1.233602
535.385376 7.078002
536.433655 1.991275
537.768494 6.353136
538.509277 1.419143
539.360413 5.288821
541.275269 2.06505
541.961365 3.070208
543.342957 4.515626
544.256775 0.339951
544.96051 12.078861
546.392395 2.910587
546.909851 3.796679
547.622986 2.933613
548.39209 2.200118
549.566956 27.153595
551.513245 2843.817627
552.391357 14.743398
553.575684 36.875088
554.247742 1.119503
554.883301 1.355814
555.408508 0.933924
556.396301 2.078232
557.300537 2.538467
558.357971 0.679527
561.262207 2.021604
562.051636 0.500391
563.255981 2.116712
563.962402 0.808689
564.577209 7.236314
565.606934 9.768436
566.532593 5.880078
567.156921 5.10738
568.103638 2.733862
569.432007 5.315229
571.48822 5.18906
572.989136 4.226803
573.582397 2.832795
574.235229 0.641705
574.823853 0.489789
575.417847 2.243958
575.949036 1.091214
576.677246 0.255951
577.608643 25.727165
578.586487 1.441497
579.519714 17.585314
580.30957 1.995605
581.379089 3.077616
582.049744 2.531925
583.417114 3.699149
584.654602 2.580679
585.842285 5.172788
586.461365 0.190223
587.107788 1.636584
588.432861 0.265809
589.290161 4.394373
590.226379 0.759086
591.536987 3.367054
592.513306 3.385826
593.657288 12.707851
594.529419 3.525849
595.318298 2.811874
596.527405 4.286628
597.31488 4.54163
598.143494 2.138843
598.837585 0.12266
599.482544 3.365021
600.249207 2.034453
601.182434 4.866385
602.931885 5.147584
603.832336 4.928432
604.838684 4.805486
605.541138 14.938534
606.159729 0.694183
607.133301 14.84422
607.878418 7.003726
608.675049 8.580906
609.512817 9.284674
610.47522 1.597821
611.423401 0.28761
612.076233 1.91642
612.702332 2.549552
613.492126 1.850649
614.346191 0.706624
615.175537 1.129805
616.512695 5.504351
617.26001 3.194256
618.252991 1.13277
619.503235 9.986717
620.400146 4.19527
621.316589 3.175356
622.225708 5.368238
623.350952 2.002628
624.260437 7.093348
625.141235 21.542572
625.806335 3.869973
626.965942 8.797097
628.115051 1.616868
629.121033 4.259698
631.256714 4.545395
632.389648 3.511343
633.086365 0.297498
634.013428 3.81248
634.658325 0.279691
635.175415 2.596773
635.850281 1.028679
636.683777 0.468954
637.485229 11.354109
638.293457 1.125232
638.908875 4.163629
639.645447 4.912446
640.505066 3.022119
641.396484 5.791619
642.514465 0.58678
643.305298 4.113853
644.237793 0.300164
644.809143 4.709603
646.383301 2.538759
647.237427 9.395698
648.136536 2.598508
649.193604 3.164651
650.277588 4.291699
651.119812 0.263353
651.67157 20.398191
652.579346 6.814524
653.770874 12.761715
654.391357 2.69704
655.256958 2.976687
655.818359 1.065634
656.614502 3.000974
657.401123 2.725691
658.483337 1.450516
659.308472 4.376542
660.630737 3.326711
661.649719 3.374239
663.455566 10.517137
664.549622 7.866587
665.425232 40.519241
666.307495 4.590348
667.290466 4.00758
668.060608 0.424156
668.654663 3.835396
669.338623 3.66114
670.322388 3.860964
671.171265 3.632017
671.950317 0.558738
673.191467 4.149297
673.745117 0.675226
674.299927 1.052554
674.991272 6.628352
676.271606 4.183308
676.787537 0.886061
677.600647 1.865653
678.596436 27.07896
679.596497 26.630802
680.396545 11.824636
681.326416 16.996361
682.869141 6.8816
683.552246 2.429522
684.494629 4.598703
685.285583 14.285061
686.521362 3.980995
687.35614 3.301329
688.864685 1.892673
689.387268 4.163146
690.567627 3.893596
692.265137 2.799485
693.079163 18.908913
693.922241 9.171723
694.72345 9.736197
695.53717 18.789669
696.53009 11.90417
697.344971 8.719627
697.888611 2.799879
698.747314 2.920529
699.624939 7.959387
700.808777 6.699341
701.545471 1.360453
702.901489 49.118347
703.760437 29.794319
704.799744 33.581295
705.55603 13.772547
706.458069 6.40878
707.492065 8.140408
708.353516 5.127659
709.003723 3.799365
710.57373 4.088044
711.402222 18.315172
712.200745 12.180197
713.556274 2.633483
716.658081 0.944569
717.502502 1.16881
718.067932 0.922535
718.921265 3.147767
720.164795 26.814461
720.820435 221.333099
721.757324 167.793137
722.829895 1050.697388
723.493958 31.609703
724.371521 3.06301
725.455444 7.201757
726.307678 4.357504
726.842896 0.281059
727.433105 6.678761
729.808411 5.42576
730.50531 1.224482
731.625793 7.516768
732.396118 2.892528
733.179382 2.502374
734.044556 0.646102
738.070007 1.269521
738.62854 48.824276
739.657288 44.963306
740.916077 26.254656
741.791626 11.427666
743.103455 1.549794
756.687927 0.534343
767.978088 1.076393
781.033264 3.471056
783.418274 0.313256
785.985046 0.922844
797.971619 1.124926
798.724182 0.310346
END IONS
