BEGIN IONS
PEPMASS=789.331
CHARGE=1
MSLEVEL=2
SOURCE_INSTRUMENT=LC-ESI-Orbitrap
FILENAME=Cpd_14_789_terracinolide.mgf
SEQ=*..*
IONMODE=Positive
ORGANISM=GNPS-LIBRARY
NAME=terracinolide J M+Na
PI=LITAUDON/TOUBOUL
DATACOLLECTOR=Esposito
SMILES=O[C@]12[C@@]([C@@H](OC(C)=O)[C@@](OC(C)=O)(C)C2)([H])[C@@H](OC3=O)[C@](CC3)(OC(C(C)C)=O)[C@H](OC(C(C)C)=O)[C@@H](OC(C)=O)[C@@H](OC(C)=O)C(C)(C)/C=C/[C@H](C)C1=O
INCHI=
INCHIAUX=
PUBMED=N/A
SUBMITUSER=lfnothias
TAGS=
LIBRARYQUALITY=1
SPECTRUMID=CCMSLIB00000840547
SCANS=1
207.208694 7628.670898
232.989288 6210.40625
247.380997 8238.569336
273.311523 6937.538086
282.432007 8247.120117
282.91687 7965.004883
290.241241 7447.234375
311.913544 9445.504883
323.166046 31435.900391
339.697906 8920.942383
341.178955 14490.886719
345.607758 12443.251953
351.1604 31294.966797
369.170288 38272.703125
382.701569 7691.604492
385.071808 8694.03125
387.181854 9906.894531
398.056824 9646.5625
407.624451 7270.53418
410.689087 8037.426758
416.434448 8252.183594
429.191803 12861.665039
431.709167 11373.048828
433.163422 19248.064453
439.207642 14344.216797
457.223907 15921.265625
487.362183 10762.591797
493.186676 122891.625
511.195892 38777.226562
521.219543 38100.257812
528.176758 7822.688477
537.244934 35418.15625
553.203918 421202.96875
564.069397 12874.233398
571.213257 81989.242188
581.237244 343418.84375
597.265808 124355.84375
599.245239 13180.103516
609.268738 98156.34375
613.220093 637402.4375
631.234131 71346.210938
640.969299 8712.388672
640.993835 7674.540039
641.042908 9734.700195
641.067383 8443.610352
641.091919 11334.461914
641.116455 13028.361328
641.140991 16591.855469
641.251465 2745599.0
641.325073 11630.305664
641.361877 12352.071289
641.386475 13506.021484
641.411011 11983.339844
643.268738 31316.208984
647.269653 16297.451172
657.290466 76549.3125
669.282654 1237391.0
670.291321 9652.331055
693.168335 7365.194336
693.223511 8070.682617
701.279297 1153639.625
707.324768 352256.40625
724.742004 17857.640625
727.655396 13795.273438
727.685059 8539.744141
727.744385 12117.407227
727.774109 7993.601562
727.803772 13948.753906
727.833435 9076.584961
727.863098 12752.179688
727.922485 15020.585938
727.952148 9951.538086
728.011536 15252.701172
728.041199 9568.446289
728.100586 14926.660156
728.13031 13059.056641
728.159973 12068.460938
728.189697 19864.060547
728.249084 21154.050781
728.278809 14177.111328
728.308533 18934.015625
728.338196 16583.335938
728.36792 18405.482422
728.397644 18785.291016
728.427368 19013.222656
728.457092 16120.1875
728.486816 27107.941406
728.516479 25006.923828
728.546204 26006.261719
728.575928 19384.044922
728.605652 27247.015625
728.635376 29077.833984
728.6651 22224.554688
728.694885 32578.548828
728.724609 27512.953125
728.754333 35434.609375
728.784058 32512.279297
728.813782 37771.953125
728.843506 37960.632812
728.873291 44397.53125
728.903015 42162.84375
728.932739 52506.914062
728.962524 52546.21875
728.992249 54415.78125
729.021973 62028.78125
729.051758 65771.28125
729.081482 76189.992188
729.111267 86434.648438
729.140991 88493.796875
729.170776 106797.109375
729.200562 101830.726562
729.304688 15539758.0
729.408936 77469.523438
729.43866 100655.351562
729.468445 99715.648438
729.49823 90005.914062
729.528015 78766.890625
729.5578 74188.492188
729.587585 64026.0
729.617371 57199.0625
729.647156 55261.929688
729.676941 44493.414062
729.706726 53047.984375
729.736511 35158.476562
729.766357 45918.242188
729.796143 37658.054688
729.825928 31066.099609
729.855713 34505.59375
729.885559 35325.65625
729.915344 24137.929688
729.945129 33350.21875
729.974976 22665.609375
730.004761 27025.21875
730.034546 25483.759766
730.064392 24073.113281
730.094177 20841.693359
730.124023 21387.726562
730.153809 27008.705078
730.213501 20907.181641
730.243286 22212.476562
730.302979 36476.335938
730.392456 17900.708984
730.422302 17049.341797
730.452148 10263.132812
730.481995 16429.861328
730.51178 11560.37207
730.601318 13749.833984
730.631165 10709.422852
731.467651 9355.62793
731.497559 6492.938477
732.006165 8205.092773
732.036133 10119.77832
733.925659 11861.960938
738.25708 12227.1875
743.499512 8064.327148
783.780762 9055.442383
END IONS
