BEGIN IONS
PEPMASS=723.281
CHARGE=1
MSLEVEL=2
SOURCE_INSTRUMENT=LC-ESI-qTof
FILENAME=3b_5a_15b-O-triacetoxy-7b-14b-O-dibenzoyloxymyrsinol.mgf
SEQ=*..*
IONMODE=Positive
ORGANISM=GNPS-LIBRARY
NAME="3_,5_,15_-O-triacetoxy-7_-14_-O-dibenzoyloxymyrsinol " M+Na
PI=LITAUDON/TOUBOUL
DATACOLLECTOR=Esposito
SMILES=C[C@H]1C[C@@]2(OC(C)=O)[C@]([C@@H](OC(C)=O)[C@@]([C@H](OC(C3=CC=CC=C3)=O)C=C[C@@H]4C(C)=C)(CO5)[C@]4([H])[C@]5(C)[C@@H]2OC(C6=CC=CC=C6)=O)([H])[C@H]1OC(C)=O
INCHI=
INCHIAUX=
PUBMED=N/A
SUBMITUSER=lfnothias
TAGS=
LIBRARYQUALITY=1
SPECTRUMID=CCMSLIB00000840356
SCANS=1
51.02301 184.012207
53.039421 202.216904
57.068916 152.008301
59.048954 97.012497
67.102524 66.171883
69.031799 25.941179
71.048187 134.928894
77.038986 1095.187988
77.084457 21.72024
81.033211 95.001068
81.069672 413.781097
83.008827 195.146896
83.036118 15.45
85.065559 113.421501
91.052567 61.121269
91.214478 16.56818
91.771957 39.125
93.06913 361.000397
94.07328 205.3629
95.048996 66.800003
95.088531 58.34259
95.244209 52.92046
95.310463 56.390629
97.065155 107.633797
97.206146 35.840111
99.080391 160.455795
100.011978 25.36364
104.52034 42.539181
104.726799 30.157049
104.898087 19.013889
105.034302 13863.75
105.067963 1242.415039
105.093376 329.633209
105.131821 33.333328
105.163368 25.01786
105.189415 20.889709
105.216728 73.289284
105.265419 25.405001
105.319405 16.0
105.33429 19.75
105.375999 18.285721
105.420715 47.799999
105.433479 33.035709
105.519333 20.28125
105.612366 70.297287
105.761345 22.200001
105.883591 15.24039
106.035316 108.8507
106.056099 18.01136
106.1437 15.25
106.156273 30.5
106.303314 24.603571
106.569336 24.245689
106.921387 46.148151
107.085777 287.339691
107.300003 17.5
109.063721 157.045395
109.102364 62.0
109.109932 47.044998
109.274879 30.01786
117.06842 78.388893
121.06469 64.791656
125.058411 204.639999
129.068832 123.163597
131.086258 728.071777
133.100479 275.307709
133.893494 64.919121
135.081772 581.816589
135.610947 16.0
135.860428 38.694439
141.071701 173.855499
141.376602 26.17308
142.508606 21.375
143.050781 41.48077
143.085114 614.59552
143.32576 19.6
143.432419 25.80357
145.026321 466.000397
145.063797 35.91848
145.101776 405.181213
145.402252 22.005951
145.435837 21.30682
145.599564 26.54167
147.081787 109.022202
147.391754 24.08333
149.094833 213.097397
149.562775 17.107759
152.059677 138.003998
153.090622 214.938293
155.085495 160.0168
155.649338 24.5
157.102188 353.061005
157.158768 41.209999
158.070908 69.84375
158.482849 43.390629
159.083206 303.556
159.456772 20.32143
160.0867 74.00338
161.095444 199.029907
161.591644 31.07267
163.072891 140.025406
163.11026 44.013889
166.095367 59.22575
167.086761 81.594391
169.100388 34.32692
173.096542 519.165894
174.100708 93.859703
175.109589 121.0
178.079117 223.956497
179.085953 111.120796
180.095428 181.541702
181.101791 470.281586
182.108337 45.120762
182.916992 56.012501
183.116943 488.497406
183.445816 77.01844
184.11879 23.44022
185.095428 422.160706
187.110031 297.496185
191.084473 162.796402
191.107758 201.127502
191.521881 31.75
192.092819 30.66667
193.102844 682.916016
193.569138 25.48214
194.109589 467.280212
195.083405 37.48214
195.116318 302.355103
195.432861 20.360291
195.67569 18.0625
196.058136 25.0
197.096191 252.592804
198.886688 16.32143
199.11264 193.111298
199.673599 18.160721
199.774094 38.375
201.090408 92.695511
204.09404 51.0
205.101044 474.340088
205.293915 41.484852
205.778244 25.605
206.108887 439.791901
207.080505 210.627899
207.117416 1682.30896
207.694397 22.011909
207.769638 38.08036
208.030579 30.112499
208.119537 223.347794
209.131927 514.166687
209.589569 17.04891
210.139206 17.009609
211.113831 125.960098
212.111816 40.236698
212.227844 29.32181
215.087692 104.720001
217.100479 355.891205
217.549026 34.51524
218.109055 137.438995
218.519165 49.721149
218.668045 19.78125
219.117905 1426.435059
219.204361 34.852268
219.406311 59.60714
219.81839 31.206631
220.123856 196.003098
220.207199 21.84091
220.256363 24.444441
220.372543 22.96196
220.572372 38.027439
221.096817 654.545227
221.130707 493.813385
221.291397 40.16
221.364044 33.680561
222.10495 20.13587
222.530457 17.245001
223.114044 212.449905
223.148178 242.753403
223.425995 56.336109
224.153503 95.00219
224.846344 25.066179
225.126343 397.583313
225.161652 194.0401
225.233475 20.02083
225.468155 31.190479
227.106888 41.625
229.100723 272.643585
230.107498 92.284088
231.112457 89.810966
231.323227 59.491379
232.089279 49.36742
232.125 839.958679
232.509094 36.0
233.087006 53.840111
233.133713 2122.717041
233.575989 21.595591
233.752594 19.69231
234.141541 1124.307007
234.370331 50.80645
234.409973 17.008329
234.567322 20.521549
234.625961 39.00893
234.977188 76.132248
235.112717 230.086304
235.148773 5737.907227
235.234543 66.778572
235.335495 29.210529
235.400452 18.225
235.558502 26.075001
235.640259 49.92593
235.757462 19.560181
235.805542 17.125
236.1185 68.035713
236.150375 329.4599
236.196533 22.14286
236.474045 16.027781
237.127625 767.112427
237.164307 1228.057007
237.245972 20.00403
237.298981 48.23148
237.595032 28.35
238.139404 114.265404
239.103821 34.375
239.141754 122.012497
241.19545 122.143898
243.29248 20.25
243.335922 32.0625
244.124634 217.028503
245.126373 89.454536
245.922684 28.01667
246.501312 21.408331
247.112961 104.144096
247.148972 9592.333984
247.236221 49.408329
247.347946 29.01786
247.387817 33.671299
247.457977 47.003052
247.518677 50.765629
247.59787 84.905487
247.6436 23.015631
247.720276 15.36364
247.808136 42.209999
247.830002 52.422409
247.85997 19.125
248.047546 26.0
248.122009 239.003494
248.152283 642.010681
248.295654 36.038792
248.811508 22.058821
249.128662 220.847198
249.164322 2173.50293
249.256775 29.816669
249.421616 39.115742
249.537338 30.96983
249.601974 21.28125
249.732071 28.57143
249.775467 46.54546
250.004181 16.44022
250.170624 135.160706
250.407761 20.72024
250.497543 16.04167
251.142593 553.140625
253.158188 820.425415
253.255798 18.004999
253.300095 30.49128
253.477371 18.375
253.627014 40.223209
253.781754 17.32143
254.120483 124.319702
254.155594 109.1483
254.242447 18.009609
255.137894 68.598396
255.175095 50.55682
259.1492 1131.150024
259.317596 16.56818
259.659821 44.625
259.721375 28.0947
259.766113 24.720591
259.794006 27.012501
260.047363 26.66667
260.151398 42.23077
260.332794 29.761909
260.619232 50.571201
261.128571 371.965515
262.135437 169.188202
262.820099 27.225
263.139404 163.960403
263.430359 46.090912
265.123352 128.044098
265.158997 4247.643066
265.242706 63.595242
265.298645 22.445
265.314484 18.125
265.382751 37.041672
265.416718 21.18561
265.443268 54.14286
265.615204 41.71627
265.71701 30.01136
265.757904 21.33333
265.869537 25.625
266.081146 30.680559
266.126801 102.367401
266.162781 321.555511
266.506683 56.401669
266.648743 26.816669
267.098053 18.625
267.176605 582.0177
267.665131 24.111839
268.002747 30.066669
268.178162 31.125
269.133911 112.920502
269.149719 112.073799
269.247131 15.78125
271.166626 108.173103
273.126923 22.53289
275.138275 71.283447
275.628021 34.46944
276.114136 82.0
276.913757 50.456821
277.159424 7193.494141
277.277527 118.038803
277.375305 48.157051
277.457855 48.760422
277.474274 34.004631
277.515137 23.07143
277.587494 26.360291
277.619995 24.23077
277.654114 106.0047
277.735199 20.0
277.799011 27.004629
277.87439 40.206631
277.948883 19.339279
277.979279 92.144051
278.008545 38.68145
278.130524 64.08654
278.160614 560.222473
278.350647 32.083328
278.441345 38.900002
278.611664 20.15
278.647461 52.172871
279.131561 93.558144
280.417664 37.555561
281.100433 48.79348
281.156006 35.0
281.185181 28.0
283.168365 59.80278
284.151947 87.240196
285.18515 16.0
289.120697 151.378098
290.180389 22.57065
291.100861 25.23077
293.110382 29.13306
293.150757 60.00893
295.126495 38.727268
295.170959 1908.936035
295.559052 71.034477
295.575256 76.094231
295.92215 42.96154
296.175812 234.7901
296.620544 17.44643
297.096619 33.002781
297.333099 24.39674
299.142487 548.140503
299.778015 37.034481
300.146576 52.810001
307.170166 1049.119019
307.271973 21.04891
307.39624 15.33333
307.564972 29.07692
308.640015 26.07622
309.184418 21.01667
312.165802 27.6
313.181274 445.001801
314.124542 160.106598
314.172943 18.04167
315.171509 28.889709
318.127563 39.165539
318.153229 47.57095
319.171661 146.047501
327.136139 114.890602
327.190277 119.033302
329.147675 63.036018
329.455658 17.226851
330.1586 73.88372
331.420715 53.263161
333.163208 108.9608
337.180389 1432.968018
337.284088 16.125
339.169891 84.775642
340.159882 28.27174
341.147614 202.006607
341.189026 141.680603
341.69046 56.941181
349.510559 16.009609
353.188721 154.160706
355.191071 340.906311
356.177429 176.440994
357.185089 467.121796
359.162079 646.0
360.167969 80.927467
367.190826 53.529411
369.185425 5261.39209
369.289276 41.185612
369.346649 48.009998
369.389526 41.028851
369.706238 46.20454
370.145935 36.799999
370.188385 563.688477
370.326599 44.934319
370.527771 40.13636
370.805511 15.25
370.846069 56.049999
371.334045 109.371902
373.197296 38.32143
375.191833 46.10746
377.174225 82.84375
377.194 88.470589
381.184052 77.183823
381.547791 17.405001
382.184113 63.75
389.16629 92.858513
390.168152 30.04348
391.16745 537.486328
391.248169 16.07143
392.15976 69.909477
397.202637 359.807404
399.052521 58.60445
399.194885 1061.337036
399.476593 36.215431
399.700409 35.841221
400.199249 269.006409
413.8284 28.890631
416.983582 22.41667
417.206543 477.194092
419.182892 4414.278809
419.302917 34.721149
419.31839 26.69231
419.424744 15.48214
419.587524 41.799999
419.745514 27.002781
419.845032 22.52083
419.859589 26.0
419.90863 54.160709
419.973694 28.036289
420.002167 32.01786
420.139465 114.9412
420.185242 214.343201
420.244751 26.259609
420.451691 24.21121
420.476715 30.205
420.617249 47.58036
421.178253 568.11261
421.615021 58.25
422.172974 53.089291
429.206146 1611.573975
429.48407 57.041672
429.649933 20.25
429.709045 27.81818
429.845367 87.001472
430.111725 38.273651
430.230316 53.785709
430.30069 64.102562
430.674988 24.68145
435.216248 51.307209
437.197235 315.446411
440.132538 51.923908
447.042236 45.00893
448.037201 46.941181
451.186859 129.032196
459.216187 615.756226
459.278137 15.45
468.861755 40.049419
481.197906 1562.07605
481.34259 19.654409
481.762146 20.45455
482.149292 24.408779
482.199646 108.173897
486.760132 35.083328
487.241058 68.694229
488.967194 20.4
491.221191 125.449699
499.21051 33.23214
503.222229 22.02083
511.208588 68.880211
519.243103 222.669403
519.903137 27.44907
520.241577 45.002449
532.384949 42.246948
532.780212 74.5728
538.126099 26.941179
538.35968 22.066179
539.806458 29.132351
540.46344 44.010422
540.753052 35.100811
541.128235 29.57143
541.22052 14913.05957
541.350403 119.092903
541.401611 101.108101
541.45282 35.0
541.509277 57.612499
541.60498 95.171608
541.685608 126.628899
541.740784 37.289291
541.797241 43.3913
541.87677 39.520828
541.936462 55.235291
541.977356 29.125
542.029358 72.719337
542.085632 56.6129
542.137878 26.05357
542.222351 1759.968018
542.362915 48.720589
542.420776 100.666702
542.53479 23.390631
542.941162 17.32143
542.964478 21.04891
543.053711 33.96011
543.09137 18.00658
543.208191 88.431038
543.240234 37.002911
543.52417 46.694439
543.71228 41.555851
544.051819 24.6
544.401306 65.04808
546.709839 17.72024
559.233887 578.648682
559.995972 39.120369
560.138 47.125
560.227966 53.16346
560.350159 28.51524
565.180176 39.594391
575.038635 30.01786
601.236816 197.864807
603.236023 318.509186
603.842712 15.77885
604.22406 20.72024
604.316528 43.145409
621.243469 25.013889
636.442932 23.242649
641.272095 561.781677
642.281494 140.011597
649.339539 16.008329
659.420776 19.04167
662.153381 31.41346
663.257202 15221.519531
663.399475 108.134399
663.444153 73.01461
663.495239 31.16667
663.537964 59.272732
663.586609 57.004028
663.688416 55.416672
663.765625 18.53289
663.843018 94.198532
663.871094 126.580597
663.908447 50.259621
663.97998 57.021221
664.038208 118.141403
664.106689 36.165539
664.183289 150.490204
664.258728 1777.300049
664.416016 104.451599
664.461121 87.189392
664.54834 42.512501
664.614929 18.160721
664.714722 66.034088
664.970886 89.01786
665.042114 50.778061
665.138428 30.3125
665.246155 18.15
665.327393 63.04348
665.436035 77.136108
665.663635 51.520828
665.723083 71.084457
665.757263 49.510422
665.915955 37.008339
666.108093 19.05357
666.166748 29.075001
666.436646 22.92045
667.367615 21.33333
672.816528 30.347219
673.616516 22.6875
676.481079 18.777781
681.177185 17.55682
715.087463 20.05357
720.482971 39.0
721.454773 31.0
722.562622 36.764709
723.279419 1216.144043
723.406494 244.2323
723.45282 283.959198
723.524475 61.31522
723.567932 36.852268
723.802979 23.347219
724.019165 48.133339
724.074585 31.84012
724.283142 271.578613
725.49646 39.45565
732.112915 23.0
796.552979 33.027439
END IONS
