BEGIN IONS
PEPMASS=735.262
CHARGE=1
MSLEVEL=2
SOURCE_INSTRUMENT=LC-ESI-Hybrid FT
FILENAME=f.lfnothias/140221_LF_015_AcOEt_ASE-cpd-7.mzXML;
SEQ=*..*
IONMODE=Positive
ORGANISM=GNPS-LIBRARY
NAME=2,3,5,7,15-pentaacetoxy-8-benzoyl-9,14-dioxojatropha-6(17),11E-diene  M+Na
PI=Louis-Felix NOTHIAS-SCAGLIA
DATACOLLECTOR=Louis-Felix NOTHIAS-SCAGLIA
SMILES=C=C([C@@H]1OC(C)=O)[C@H](OC(C)=O)[C@@H](OC(C2=CC=CC=C2)=O)C(C(C)(C)/C=C/[C@@H](C)C([C@]3(OC(C)=O)[C@]1([H])[C@@H](OC(C)=O)[C@](C)(OC(C)=O)C3)=O)=O
INCHI=InChI=1S/C37H44O14/c1-19-16-17-35(8,9)32(44)30(49-34(45)26-14-12-11-13-15-26)29(47-22(4)39)20(2)28(46-21(3)38)27-33(48-23(5)40)36(10,50-24(6)41)18-37(27,31(19)43)51-25(7)42/h11-17,19,27-30,33H,2,18H2,1,3-10H3/b17-16+/t19-,27+,28?,29?,30?,33?,36?,37?/m1/s1
INCHIAUX=
PUBMED=24926807
SUBMITUSER=lfnothias
TAGS=
LIBRARYQUALITY=3
SPECTRUMID=CCMSLIB00000424723
SCANS=1
198.98468 1605.390137
198.986801 2363.518799
198.988922 2526.611328
198.991043 2088.391846
198.993164 1405.572754
200.600189 771.522827
200.602341 2924.050537
200.604492 4815.397461
200.606628 4937.03418
200.60878 3195.393066
200.610931 1135.576172
204.260941 1358.568848
204.263138 2192.966553
204.26535 2594.662109
204.267563 2279.20752
204.26976 1203.18457
204.316101 1646.137451
204.318314 2550.432861
204.320511 2770.823486
204.322723 2088.979492
204.324936 903.496582
209.655777 1566.550049
209.658081 2179.72168
209.66037 2454.695068
209.662659 2385.475586
209.664963 1878.887939
222.37207 713.369019
222.374573 2257.1875
222.37709 3098.009766
222.379593 2788.293213
222.382095 1835.150879
235.829147 1015.940918
235.831879 2272.04126
235.834625 2840.183594
235.837357 2317.155029
235.840088 1056.089844
250.509827 1611.712402
250.512817 2186.347412
250.515823 2341.376709
250.518814 2074.875732
250.521805 1613.525146
253.152328 1809.658691
253.15538 4344.54834
253.158417 5526.181152
253.161469 4070.96875
253.164505 1164.92627
259.939697 2074.04126
259.942871 2278.785645
259.946045 2562.33667
259.949219 2843.416504
259.952362 2673.997803
259.955536 1884.934326
263.135956 1350.046631
263.139191 5570.310547
263.142426 8623.557617
263.14566 8277.257812
263.148865 5100.300781
263.1521 1639.506104
270.687988 1993.952148
270.691376 2319.791504
270.694733 2402.455078
270.69809 2171.336182
270.701477 1363.386719
273.674164 1338.797607
273.677582 2357.121094
273.681 2752.829102
273.684418 2491.328857
273.687836 1841.638672
278.517181 1409.929443
278.520691 2353.103027
278.5242 2931.912842
278.52771 2852.628174
278.531219 2369.541504
278.534729 1800.994873
281.141937 984.346191
281.145508 8557.188477
281.149048 20086.273438
281.152618 27691.369141
281.156189 24870.154297
281.15976 14038.466797
281.1633 3677.611816
282.892059 1096.212646
282.89566 2494.525146
282.899261 3114.631348
282.902863 2681.760254
282.906464 1608.506592
291.129242 1123.05127
291.132996 2612.580322
291.136749 3782.719238
291.140503 3668.314453
291.144257 2277.848633
291.14801 606.929321
299.148041 1925.366455
299.151947 2327.102539
299.155853 5313.863281
299.15976 11124.139648
299.163666 14382.270508
299.167572 11781.070312
299.171509 5568.427734
299.175415 1093.178955
307.083466 216.964966
307.087524 4355.712891
307.091583 10071.237305
307.095673 13492.425781
307.099731 11851.595703
307.10379 6489.508301
307.10788 1373.382812
309.135132 625.835571
309.139252 10957.066406
309.143372 27616.199219
309.147461 39108.179688
309.151581 35847.21875
309.15567 20677.896484
309.15979 5461.34375
309.16391 215.264282
323.15329 879.185791
323.157684 2551.962646
323.162079 3715.544922
323.166473 3525.255859
323.170868 2030.042969
327.145294 1743.489014
327.14978 9139.740234
327.154236 19318.845703
327.158722 24887.582031
327.163177 21061.501953
327.167664 11163.519531
327.172119 2690.814941
332.619202 1422.811035
332.623779 2175.383301
332.628357 2718.823975
332.632965 2834.458008
332.637543 2416.737305
332.64212 1715.566406
341.160339 260.255127
341.1651 5339.899902
341.169861 11619.333008
341.174622 14551.43457
341.179382 11958.105469
341.184143 6260.727051
341.188904 1600.407227
350.262482 1194.542969
350.267426 2417.228516
350.2724 2750.838623
350.277344 2394.925537
350.282288 1819.177002
351.145935 1521.874756
351.150909 4133.158691
351.155884 6233.984863
351.160858 5988.827637
351.165833 3464.264648
351.170807 666.631348
367.440125 1577.945312
367.445435 2336.997314
367.450775 2577.210449
367.456085 2239.44458
367.461426 1272.716797
369.149323 100.894531
369.154694 2530.971924
369.160034 10817.254883
369.165405 19420.302734
369.170746 21928.931641
369.176117 16343.941406
369.181488 7394.104492
369.186829 1136.925293
375.176971 1128.647217
375.182465 3065.629395
375.187958 6544.581543
375.19342 9055.452148
375.198914 8160.306641
375.204407 4401.147949
375.2099 725.386841
385.038025 323.251709
385.043732 2324.229492
385.049469 4342.847168
385.055176 4956.316895
385.060883 3615.534668
385.066589 1311.096191
387.113251 1868.48877
387.119019 2263.890869
387.124786 2404.161621
387.130524 2209.005859
387.136292 1629.443359
387.170837 1797.986816
387.176575 3270.056152
387.182343 3427.414551
387.18811 2489.87793
387.193848 1417.594238
403.171478 1326.390381
403.177582 7206.666992
403.183716 16021.261719
403.189819 21121.275391
403.195953 18147.589844
403.202057 9845.241211
403.208191 2659.792725
409.115479 876.991455
409.121735 2554.624023
409.127991 3553.141602
409.134247 2833.588379
409.140472 1126.774902
411.16803 694.216064
411.174347 3285.627441
411.180634 4596.169922
411.186951 3742.249512
411.193237 1917.654053
413.16626 2626.119873
413.172607 4968.347168
413.178955 5141.683105
413.185303 3397.249512
413.19165 1327.574951
414.789398 1363.425293
414.795807 2425.237305
414.802185 2895.572021
414.808563 2798.516602
414.814941 2211.013184
414.82135 1244.066162
421.182526 100.106689
421.189056 3044.686523
421.195587 5876.054199
421.202118 6535.030273
421.208649 4497.162598
421.215179 1531.115723
421.437408 1699.573486
421.443939 2447.095215
421.45047 2781.742188
421.457001 2469.764648
421.463562 1614.839355
431.161163 1088.877441
431.167938 11997.503906
431.174713 31766.318359
431.181458 48972.164062
431.188232 49832.367188
431.195007 33329.40625
431.201782 12577.962891
431.208527 833.037476
431.675812 2144.355957
431.682587 3843.604492
431.689392 4119.933105
431.696167 2457.235352
431.702942 220.317017
443.193054 5084.032715
443.200104 11061.365234
443.207153 13422.476562
443.214203 10372.579102
443.221252 4645.124023
443.228302 194.630127
444.549927 2057.799561
444.557007 2495.019775
444.564087 2657.658936
444.571167 2262.600342
444.578247 1415.419434
449.175659 1236.996338
449.182831 7242.785156
449.190033 13754.044922
449.197235 15798.675781
449.204437 11571.719727
449.211609 4455.722168
463.192932 90.025879
463.20047 3021.271729
463.208008 5180.572266
463.215546 4637.693848
463.223083 1908.570557
473.175049 1261.533936
473.182831 3102.568848
473.190613 5068.540039
473.198395 5133.963867
473.206177 2689.860596
491.182159 9259.53125
491.190369 34523.726562
491.198608 64829.6875
491.206818 77820.523438
491.215057 62496.09375
491.223297 31944.783203
491.231506 8230.801758
495.154816 142.85022
495.163147 2491.961426
495.171478 5021.862793
495.179779 5436.837891
495.18811 3097.630371
495.196442 50.745117
509.193542 1213.566406
509.202209 4025.751953
509.210907 7093.995605
509.219574 7911.265625
509.228271 5703.755371
509.236969 2374.987061
509.245636 247.326294
511.817261 1223.668457
511.826019 2243.173584
511.834747 2811.427246
511.843506 2408.135498
511.852264 1185.373535
513.158691 805.051147
513.16748 10395.432617
513.17627 26277.720703
513.185059 37843.3125
513.193848 35706.273438
513.202637 21845.09375
513.211426 7186.551758
533.175354 880.213013
533.184631 3648.280273
533.19397 14933.548828
533.203247 33964.65625
533.212585 48979.570312
533.221863 47726.5625
533.231201 31256.152344
533.240479 12621.789062
533.249817 2399.194092
533.259094 157.670166
551.194397 38.130005
551.204163 2652.572266
551.213928 10393.202148
551.223694 16512.029297
551.233521 16153.345703
551.243286 10023.573242
551.253052 3464.058594
551.262817 760.184692
554.455505 2137.097656
554.465393 3112.556152
554.475281 3228.669434
554.485107 2212.395752
554.494995 620.560059
555.156677 1670.789551
555.166565 5278.98877
555.176453 21856.621094
555.18634 46839.945312
555.196228 62386.453125
555.206116 55234.507812
555.216003 31472.037109
555.225891 9370.539062
564.080261 2104.746094
564.090393 2873.181152
564.100525 3526.586426
564.110657 2887.542725
564.120728 1536.00415
593.195129 1276.662842
593.205994 3118.278809
593.216919 9355.132812
593.227844 17382.455078
593.23877 20688.761719
593.249695 16057.878906
593.26062 7201.789062
593.271545 400.149902
615.13031 2026.789551
615.141846 3670.777832
615.153381 2176.577393
615.164917 3049.497559
615.176453 9323.493164
615.187988 131869.71875
615.199524 403241.40625
615.21106 684665.25
615.222534 756208.3125
615.23407 555390.5625
615.245605 250579.015625
615.257141 48291.304688
615.268677 4305.617188
615.280212 1469.782715
615.291748 922.612793
615.303284 2902.517822
615.314819 2542.005859
615.326355 5207.777832
615.337891 550.708008
615.360962 500.744019
615.372498 2387.572266
615.384033 2177.633057
615.395569 4470.256836
653.209839 67.202148
653.222473 6606.183594
653.235046 27305.871094
653.247681 52255.265625
653.260315 63006.695312
653.272949 50471.671875
653.285522 25514.544922
653.298157 6256.306152
674.177734 1768.763672
674.190979 4011.478027
674.204224 2245.378906
674.217468 2836.512207
674.230652 706.72876
674.28363 1176.453857
674.296814 4869.036621
674.310059 2226.262207
674.323303 3585.627441
674.336548 838.407227
674.389465 1384.53418
674.40271 5666.316895
674.415955 2525.702881
674.429199 4415.272949
674.442383 1379.956787
674.468872 1610.861572
674.482117 6350.003418
674.495361 2858.114746
674.508606 5238.971191
674.521851 1590.853027
674.535095 7117.313965
674.54834 3583.335449
674.561523 4928.966309
674.574768 1055.70752
674.588013 8031.762695
674.601257 3725.418945
674.614502 6150.514648
674.627747 2460.490234
674.640991 7087.834473
674.654236 2511.633789
674.66748 8055.394531
674.680725 3508.635254
674.69397 8605.111328
674.707214 3603.165039
674.720459 8448.200195
674.733704 3348.393066
674.746948 9305.907227
674.760193 4108.374023
674.773438 9408.169922
674.786682 4088.344727
674.799927 9887.148438
674.813171 3930.76709
674.826416 11127.041016
674.839661 4730.429199
674.852905 11789.582031
674.86615 5627.629883
674.879395 11302.367188
674.8927 3763.095703
674.905945 15772.421875
674.919189 8564.726562
674.932434 11952.583984
674.945679 4362.210449
674.958923 17872.912109
674.972168 8926.001953
674.985413 16675.447266
674.998657 8038.18457
675.011902 18446.378906
675.025208 7540.608398
675.038452 22834.072266
675.051697 12129.959961
675.064941 21273.029297
675.078186 8728.136719
675.091431 27733.730469
675.104736 12272.736328
675.117981 30827.585938
675.131226 17204.378906
675.14447 20690.15625
675.157715 6942.409668
675.171021 13210.581055
675.184265 17462.574219
675.19751 292727.59375
675.210754 1442316.75
675.22406 3190912.5
675.237305 4363012.5
675.250549 3975550.5
675.263794 2362184.0
675.2771 783409.6875
675.290344 54859.804688
675.303589 26881.980469
675.316833 9362.916016
675.330139 28989.445312
675.343384 16132.181641
675.356628 28405.789062
675.369934 12473.4375
675.383179 26111.535156
675.396423 9042.321289
675.409729 27646.572266
675.422974 12862.918945
675.436218 20432.4375
675.449524 8687.384766
675.462769 19313.052734
675.476013 7090.441406
675.489319 19329.091797
675.502563 9261.326172
675.515808 15586.738281
675.529114 6406.217285
675.542358 14562.806641
675.555664 5320.043945
675.568909 14367.228516
675.582153 5824.177734
675.595459 13440.135742
675.608704 6833.992188
675.622009 10494.679688
675.635254 4349.902832
675.648499 11678.367188
675.661804 3918.902832
675.675049 11594.482422
675.688354 5962.397461
675.701599 7566.50293
675.714905 2625.044189
675.728149 10185.777344
675.741455 3948.177246
675.7547 9130.230469
675.768005 3788.410645
675.78125 7922.90918
675.794556 3191.436523
675.8078 7682.667969
675.821106 2983.019775
675.834351 7667.373047
675.847656 3140.626465
675.860901 6333.158691
675.874207 1807.446777
675.887512 7425.748047
675.900757 2252.834229
675.914062 7721.419922
675.927307 4363.356934
675.940613 4484.637695
675.953857 1522.104492
675.980469 876.333862
675.993713 7599.179688
676.007019 4143.350586
676.020325 3583.115234
676.033569 1022.234375
676.060181 1075.490479
676.073425 5838.810547
676.086731 2268.194092
676.100037 5068.096191
676.113281 2234.304199
676.126587 3774.011719
676.139893 877.513794
676.153137 5582.919434
676.166443 2666.904785
676.179749 3035.077881
676.192993 471.530396
679.286377 800.917358
679.299805 2617.579102
679.313171 3416.487793
679.326538 3389.018555
679.339905 4066.137695
679.353333 4293.395996
679.366699 1931.728271
679.647766 1946.965088
679.661194 2670.009766
679.674561 2975.227539
679.687988 2377.246826
679.701355 2165.769287
693.804077 1309.651123
693.817932 2308.422607
693.831726 2719.170166
693.84552 2328.656006
693.859314 1386.894287
698.0495 1006.359375
698.063416 2415.849121
698.077332 3249.327148
698.091309 3156.192383
698.105225 2202.833984
698.119141 814.920654
END IONS
