BEGIN IONS
PEPMASS=849.343
CHARGE=1
MSLEVEL=2
SOURCE_INSTRUMENT=LC-ESI-qTof
FILENAME=euphodendroidin_S.mgf
SEQ=*..*
IONMODE=Positive
ORGANISM=GNPS-LIBRARY
NAME=euphodendroidin S M+H
PI=LITAUDON/TOUBOUL
DATACOLLECTOR=Esposito
SMILES=C[C@@]1(OC(C2=CN=CC=C2)=O)C[C@](OC(C)=O)(C([C@@H](C)/C=C/C(C)(C)[C@H](OC(C3=CN=CC=C3)=O)[C@H](OC(C)=O)[C@@H](OC(C(C)C)=O)C([C@@H]4OC(C)=O)=C)=O)[C@]4([H])[C@H]1OC(C)=O
INCHI=
INCHIAUX=
PUBMED=N/A
SUBMITUSER=lfnothias
TAGS=
LIBRARYQUALITY=1
SPECTRUMID=CCMSLIB00000840330
SCANS=1
65.461655 21.025
70.401115 24.595591
105.032166 118.2453
105.144707 19.148809
109.100227 177.138504
111.076149 129.378098
124.038933 390.675415
124.074371 27.240391
124.10305 15.40833
139.073792 52.008339
146.021545 534.517517
146.070282 26.111111
146.09108 14.11111
147.474197 16.625
149.093719 58.3125
158.961578 85.680557
171.112778 131.970901
187.143295 96.068817
189.511642 34.0
191.480667 31.68145
194.699219 40.5
196.380234 28.148809
197.094147 91.648529
209.737564 19.200001
213.689484 31.117649
222.876236 45.46944
225.086121 86.862068
228.065918 112.004898
228.109161 179.615204
231.134079 39.01136
231.331772 44.52174
241.153625 211.163498
243.638596 21.875
250.044006 26.75
263.121796 30.612499
283.365814 21.44643
293.147644 95.339287
305.147766 17.30769
310.10318 52.654072
311.152679 21.16346
311.963806 22.6
316.115631 54.799999
333.136566 30.26042
337.854034 79.528313
351.154877 88.476486
352.512573 14.32237
352.82431 20.18561
352.854492 41.570648
359.16275 113.639297
374.363098 66.815002
379.124542 29.06579
393.170471 201.0
399.216644 24.89286
411.172211 185.991898
416.186798 29.8811
421.187164 54.924999
427.187622 16.48214
428.174286 121.379303
434.188354 24.889709
437.490723 74.612289
439.202667 52.58036
455.18219 94.360847
465.166656 17.81818
474.184967 165.240295
488.198517 51.5625
515.19751 127.669098
516.197632 112.347198
525.220459 107.560204
537.904541 40.63636
543.225037 22.89286
544.226379 32.025002
550.203186 20.45455
570.584351 189.123001
575.238525 16.245001
578.212891 43.160709
598.230896 150.222198
603.262451 137.045197
603.500977 15.40833
604.030762 21.025
604.260193 236.053299
604.734375 26.55682
605.311096 22.816669
610.238403 62.612499
617.239868 91.777924
620.220093 75.007347
622.260193 42.090912
638.234192 1908.509033
638.337097 25.08654
639.235229 375.429413
639.314819 26.125
639.36615 20.01923
639.804993 18.5
639.970581 20.89286
640.087952 24.160721
640.220032 21.125
640.320312 34.0625
640.426941 23.375
656.278015 50.07267
701.294189 72.720238
704.304138 382.243805
704.707458 28.20833
706.744812 23.445
720.175049 29.032141
722.23114 21.066669
722.57074 25.125
722.614685 14.02273
724.093506 21.0625
725.958252 14.0
726.287842 13599.700195
726.431274 101.324203
726.483459 29.245001
726.540283 41.07143
726.598267 139.006897
726.685913 95.136192
726.723755 57.5625
726.845764 62.941181
726.882874 49.375
726.996155 111.675003
727.098755 34.07143
727.121948 30.05357
727.190918 74.556824
727.289795 2836.082031
727.450317 58.240082
727.507385 20.2663
727.575928 20.45455
727.689209 69.049423
727.777588 65.045464
727.802795 69.671303
727.881836 37.209999
727.929565 23.844999
728.125916 19.02273
728.169678 66.702713
728.233154 65.360847
728.28479 34.090912
728.528198 53.11364
728.698792 30.01786
728.764832 41.041672
729.084045 37.0
729.437195 19.57143
737.745483 35.31522
752.841919 55.020451
761.268921 164.473694
761.509216 78.308144
762.264465 146.334503
762.862793 18.0
764.286194 17.65761
845.719849 24.00658
846.23761 42.5625
847.542664 15.2663
849.319885 10159.929688
849.474976 56.035709
849.634155 89.573982
849.741333 105.510399
849.905579 47.040089
849.997314 45.164471
850.077087 79.148148
850.145325 96.408333
850.325317 2571.354004
850.487122 67.041656
850.546997 122.449097
850.583191 101.224998
850.65918 35.570648
850.718506 81.405899
850.797974 19.075001
850.950378 15.07692
851.12323 22.009609
851.191956 53.020828
851.386353 19.075001
851.433777 54.890629
851.668884 118.451897
851.805359 102.702797
852.118103 19.027781
852.260742 16.72024
852.382202 27.058821
853.353149 48.45454
853.669373 41.89286
855.004517 16.025
855.534912 28.926279
857.959167 24.140631
859.783325 21.0625
863.216003 26.164471
868.107727 25.205
END IONS
