BEGIN IONS
PEPMASS=844.291
CHARGE=1
MSLEVEL=2
SOURCE_INSTRUMENT=LC-ESI-qTof
FILENAME=f.jess_cleary/siderophore_standards/Coprogen.mzXML;
SEQ=*..*
IONMODE=Positive
ORGANISM=GNPS-LIBRARY
NAME=ferric coprogen M+Na
PI=Sanchez
DATACOLLECTOR=Cleary
SMILES=[Fe+3].[H]\C(=C(\C)CCO)C(=O)N([O-])CCC[C@]([H])(N=C(C)O)C(=O)OCC\C(C)=C(/[H])C(=O)N([O-])CCC[C@]1([H])N=C(O)[C@]([H])(CCCN([O-])C(=O)C(\[H])=C(/C)CCO)N=C1O
INCHI=1S/C35H53N6O13.Fe/c1-23(11-17-42)20-30(45)39(51)14-5-8-27-33(48)38-28(34(49)37-27)9-6-15-40(52)32(47)22-25(3)13-19-54-35(50)29(36-26(4)44)10-7-16-41(53)31(46)21-24(2)12-18-43;/h20-22,27-29,42-43H,5-19H2,1-4H3,(H,36,44)(H,37,49)(H,38,48);/q-3;+3/b23-20+,24-21+,25-22+;/t27-,28-,29-;/m0./s1
INCHIAUX=
PUBMED=
SUBMITUSER=jess_cleary
TAGS=
LIBRARYQUALITY=3
SPECTRUMID=CCMSLIB00005435971
SCANS=1206
45.572533 66.0
45.676846 16.0
45.940243 16.0
46.719719 16.0
47.253242 16.0
49.413151 16.0
50.758621 16.0
51.223305 16.0
52.13829 16.0
52.16478 16.0
52.255825 16.0
52.599976 16.0
54.267147 16.0
54.601345 16.0
54.825794 82.0
55.500725 16.0
55.934002 70.0
56.91169 16.0
57.386753 16.0
57.844379 16.0
58.281902 16.0
58.641068 30.0
58.877625 16.0
59.256359 104.0
59.683201 16.0
60.211742 16.0
61.180962 16.0
61.841442 16.0
62.303875 16.0
63.051399 16.0
63.96656 16.0
64.37542 16.0
64.495766 16.0
64.926865 16.0
65.038498 136.0
65.873611 16.0
66.760727 16.0
66.855896 16.0
67.054665 350.0
67.224167 16.0
68.937592 16.0
69.931709 16.0
70.064407 368.0
70.941109 44.0
71.049477 106.0
72.083 68.0
72.842484 52.0
72.935432 98.0
73.174896 16.0
73.3592 16.0
73.480835 16.0
74.691666 16.0
74.793701 16.0
75.329857 16.0
75.368622 16.0
76.161346 16.0
76.357735 16.0
76.947014 16.0
77.783134 16.0
78.499367 16.0
78.799232 16.0
79.031601 16.0
79.412056 36.0
80.021393 40.0
80.032089 132.0
80.15287 16.0
80.504524 16.0
81.100952 16.0
81.261902 16.0
81.954575 48.0
81.976562 68.0
82.026649 198.0
82.190475 16.0
82.225182 16.0
83.047501 422.0
83.18541 16.0
83.415405 16.0
84.053314 72.0
84.167297 16.0
84.473404 16.0
85.064148 216.0
86.08004 82.0
87.23233 62.0
87.998314 16.0
88.127037 16.0
88.754494 36.0
88.883308 16.0
89.676361 88.0
90.640022 32.0
91.039192 160.0
91.375702 16.0
91.465591 40.0
91.711433 16.0
91.974731 36.0
92.026085 38.0
92.046921 324.0
92.390869 16.0
93.029694 44.0
93.053162 58.0
93.288361 16.0
93.693954 16.0
94.02597 170.0
94.065392 108.0
94.717224 16.0
94.918869 38.0
95.032486 78.0
95.047905 380.0
95.582253 16.0
95.597191 22.0
95.903748 16.0
96.050224 172.0
96.06337 72.0
96.079468 208.0
97.083542 52.0
98.060493 66.0
98.720032 16.0
99.045341 90.0
100.1259 16.0
101.406746 16.0
101.713898 50.0
101.869843 16.0
101.964569 54.0
102.425987 16.0
102.799202 16.0
103.026726 124.0
103.109932 16.0
104.047935 80.0
104.866493 16.0
105.016785 86.0
105.041237 58.0
105.053055 76.0
105.273582 16.0
105.409454 16.0
106.023651 34.0
106.215836 36.0
106.452637 22.0
107.034302 132.0
107.056183 66.0
107.423325 16.0
107.446686 92.0
107.569206 52.0
108.042084 538.0
108.079102 64.0
109.049217 162.0
109.930946 74.0
110.096092 52.0
110.913017 70.0
111.042313 74.0
111.053604 58.0
111.178375 16.0
111.318199 48.0
111.906075 16.0
111.921494 132.0
112.077324 62.0
112.966599 60.0
113.059731 1446.0
113.938515 32.0
114.973976 16.0
115.065735 136.0
115.087143 46.0
115.600769 16.0
115.979813 88.0
116.072678 80.0
116.088303 16.0
116.349663 16.0
116.769821 16.0
117.040543 70.0
118.078072 62.0
119.031822 56.0
119.045982 42.0
119.669319 16.0
119.733887 78.0
119.882278 16.0
119.934341 66.0
120.016541 70.0
120.042435 308.0
120.07798 124.0
121.011101 102.0
121.025589 312.0
121.052773 196.0
121.089363 22.0
121.244781 16.0
121.844391 16.0
121.93605 20.0
122.034378 196.0
122.057564 662.0
122.096069 130.0
123.041962 508.0
123.066238 104.0
123.107224 88.0
123.948174 144.0
124.005188 84.0
124.077911 60.0
124.11058 48.0
124.191864 16.0
124.999886 98.0
125.068398 76.0
125.73233 16.0
125.937851 60.0
125.95079 46.0
125.96347 70.0
126.053909 56.0
126.161919 16.0
126.39492 16.0
126.907227 136.0
127.85154 16.0
127.981789 110.0
128.834503 16.0
128.893799 74.0
128.95282 72.0
128.986954 40.0
129.961517 56.0
130.024796 64.0
130.082809 42.0
131.035522 96.0
131.71167 20.0
131.976242 72.0
132.042191 322.0
132.07547 36.0
132.9319 26.0
132.956772 68.0
133.027832 118.0
133.049026 378.0
133.179184 18.0
133.228882 16.0
133.776215 16.0
133.934921 16.0
134.031128 58.0
134.058914 278.0
134.095932 56.0
135.004181 74.0
135.041641 3010.0
135.098846 46.0
135.257858 46.0
135.77182 36.0
135.833603 52.0
136.038605 1078.0
136.075623 68.0
136.112244 126.0
136.226898 24.0
136.399582 26.0
136.545441 20.0
136.654602 16.0
136.762756 16.0
136.953079 76.0
137.02269 72.0
137.043457 134.0
137.067947 240.0
137.098053 144.0
137.118317 64.0
137.34375 28.0
137.930557 62.0
137.953094 62.0
137.963516 76.0
138.013901 74.0
138.025696 58.0
138.053116 52.0
138.092682 34.0
138.57991 16.0
138.954788 72.0
139.916351 26.0
139.943436 28.0
139.988342 78.0
140.418701 58.0
140.647263 16.0
141.039093 84.0
141.30629 16.0
141.997147 138.0
143.483597 16.0
143.974915 46.0
144.060745 60.0
144.653854 38.0
144.987564 60.0
145.03923 46.0
145.077744 46.0
145.899475 62.0
146.001144 16.0
146.024399 66.0
146.058929 160.0
146.091827 66.0
147.0168 60.0
147.053299 186.0
147.101196 62.0
147.783432 16.0
148.00235 66.0
148.036423 84.0
148.07283 1826.0
148.894577 16.0
148.98996 20.0
149.04599 112.0
149.07016 872.0
149.098328 114.0
149.231461 16.0
149.976501 50.0
150.052872 364.0
150.086182 116.0
150.122681 60.0
150.291321 16.0
150.956192 74.0
150.994095 16.0
151.038925 228.0
151.066833 100.0
151.084381 172.0
151.347076 18.0
151.977264 50.0
152.069061 264.0
152.108276 134.0
152.41835 16.0
152.916626 64.0
152.950119 194.0
152.973312 36.0
153.053864 418.0
153.108902 96.0
153.887299 52.0
153.956604 380.0
153.99968 56.0
154.097717 22.0
154.121078 54.0
154.939636 62.0
154.978928 32.0
154.994476 48.0
155.046188 70.0
155.062454 82.0
155.501648 16.0
155.974304 102.0
156.077148 38.0
156.573517 16.0
156.828812 56.0
156.98082 46.0
157.003876 132.0
157.101547 48.0
157.320816 16.0
157.953537 52.0
158.029404 64.0
158.060608 138.0
158.08989 66.0
158.962296 104.0
159.052231 116.0
159.065155 104.0
159.088074 70.0
159.549225 16.0
159.921906 38.0
159.96904 82.0
160.075043 580.0
160.950363 26.0
161.033585 52.0
161.06781 350.0
161.081818 440.0
161.115936 36.0
161.14476 16.0
161.720108 82.0
161.80954 16.0
161.987656 124.0
162.053223 474.0
162.090256 666.0
162.733978 16.0
162.960083 26.0
163.048767 300.0
163.085938 122.0
163.097809 192.0
163.673309 16.0
163.6978 16.0
163.958908 146.0
163.982117 58.0
163.995071 46.0
164.039612 44.0
164.068542 512.0
164.105667 236.0
164.126129 70.0
164.666489 16.0
164.905075 18.0
164.933151 56.0
164.962006 46.0
164.981232 104.0
165.008072 68.0
165.074966 198.0
165.212479 24.0
165.625732 16.0
165.952698 38.0
165.983292 88.0
166.046906 174.0
166.067032 36.0
166.085785 110.0
166.099823 66.0
166.930267 50.0
166.961319 70.0
166.975967 124.0
166.999969 132.0
167.05542 70.0
167.090805 54.0
167.536057 16.0
167.597382 50.0
167.870667 16.0
167.924393 16.0
167.94519 56.0
167.985229 136.0
168.019638 108.0
168.067703 102.0
168.263535 16.0
168.947861 38.0
169.053238 84.0
169.187531 16.0
169.932877 54.0
169.963898 74.0
169.987778 102.0
170.013733 74.0
170.442902 16.0
170.973251 118.0
170.991791 98.0
171.005875 122.0
171.074478 96.0
171.372864 16.0
171.64859 16.0
171.773987 16.0
171.947617 32.0
171.963928 48.0
171.993362 42.0
172.007675 74.0
172.075195 544.0
172.992157 62.0
173.048553 40.0
173.076935 160.0
173.223587 16.0
173.437759 16.0
173.837082 16.0
173.952301 74.0
173.968048 40.0
174.054565 210.0
174.087692 586.0
174.296997 20.0
174.987701 58.0
175.050217 98.0
175.074554 102.0
175.094894 252.0
175.134384 60.0
175.194 16.0
175.527557 30.0
175.939957 50.0
175.964767 102.0
175.996643 42.0
176.014359 70.0
176.068085 710.0
176.097397 128.0
176.972595 116.0
177.022797 72.0
177.063309 3016.0
177.112442 132.0
177.377701 40.0
177.552582 16.0
177.77475 16.0
177.864075 24.0
177.919678 64.0
177.952148 80.0
177.979034 228.0
178.051056 448.0
178.084473 986.0
178.140701 16.0
178.441437 30.0
178.499435 24.0
178.709763 32.0
178.910233 22.0
178.952286 70.0
178.983307 120.0
179.018677 100.0
179.046356 64.0
179.079117 11042.0
179.121429 176.0
179.158508 40.0
179.385101 24.0
179.408386 20.0
179.809296 16.0
179.829559 18.0
179.973358 326.0
179.995926 176.0
180.039551 154.0
180.063736 282.0
180.080948 834.0
180.099854 550.0
180.128815 34.0
180.32724 16.0
180.344376 18.0
180.410858 28.0
180.703232 26.0
180.943726 54.0
180.981354 196.0
181.002747 40.0
181.028885 88.0
181.052841 36.0
181.086182 192.0
181.253403 38.0
181.321396 18.0
181.545837 22.0
181.864029 16.0
181.948334 162.0
181.969238 58.0
181.986267 162.0
182.014359 84.0
182.051025 36.0
182.076508 74.0
182.111649 52.0
182.699539 16.0
182.971207 74.0
182.987503 92.0
183.020447 286.0
183.050705 60.0
183.08316 84.0
183.51535 16.0
183.731476 16.0
184.002304 216.0
184.038605 34.0
184.076599 72.0
184.094727 102.0
184.722977 16.0
184.976456 50.0
184.982193 28.0
184.988617 46.0
185.001938 72.0
185.037796 144.0
185.070602 108.0
185.106674 80.0
185.983276 112.0
186.006195 36.0
186.038895 76.0
186.0858 228.0
186.527618 18.0
186.798492 168.0
186.980469 62.0
187.05809 108.0
187.084427 896.0
187.122055 118.0
187.180649 16.0
187.37709 16.0
187.946381 20.0
187.98526 62.0
187.999481 66.0
188.042053 62.0
188.070358 196.0
188.102005 94.0
188.553528 20.0
188.962112 44.0
188.999008 86.0
189.060898 156.0
189.099197 890.0
189.955887 52.0
189.976624 170.0
190.05719 142.0
190.083878 414.0
190.101807 266.0
190.845337 22.0
190.947495 52.0
190.961777 98.0
190.98494 78.0
191.019226 40.0
191.080185 192.0
191.111908 170.0
191.283447 16.0
191.83783 24.0
191.914856 16.0
191.932922 68.0
191.970734 220.0
192.067596 64.0
192.099335 1066.0
192.137222 36.0
192.474289 16.0
192.980392 126.0
193.007858 100.0
193.031723 66.0
193.05423 176.0
193.072861 146.0
193.098755 116.0
193.121414 54.0
193.147797 70.0
193.413101 38.0
193.486847 16.0
193.571152 16.0
193.628052 58.0
193.937149 44.0
193.963989 366.0
193.991653 82.0
194.022736 68.0
194.0755 96.0
194.112213 46.0
194.290802 20.0
194.962158 132.0
194.992081 42.0
195.036392 44.0
195.079712 260.0
195.111298 286.0
195.72963 16.0
195.963715 128.0
196.017242 74.0
196.046204 60.0
196.077576 60.0
196.127777 70.0
196.442322 34.0
196.748718 50.0
196.896149 16.0
196.972351 252.0
196.997879 184.0
197.066544 102.0
197.08577 162.0
197.413574 24.0
197.778915 16.0
197.957825 66.0
197.986542 88.0
198.01825 24.0
198.075104 16.0
198.117661 74.0
198.263519 40.0
198.992172 126.0
199.0168 188.0
199.077118 56.0
199.872833 38.0
199.967651 52.0
199.991058 38.0
200.019135 44.0
200.046265 86.0
200.068466 150.0
200.091217 118.0
200.126541 74.0
200.766113 46.0
200.971329 66.0
200.999191 68.0
201.03299 42.0
201.080719 202.0
201.101501 364.0
201.904984 20.0
201.93898 46.0
202.058075 480.0
202.090759 378.0
202.98941 118.0
203.011749 110.0
203.083588 228.0
203.115112 96.0
203.228409 16.0
203.369202 24.0
203.585724 26.0
203.904465 44.0
203.962051 106.0
203.981415 228.0
204.019577 42.0
204.073807 116.0
204.100342 842.0
204.140228 118.0
204.603821 18.0
204.97229 340.0
205.002975 144.0
205.059372 144.0
205.094894 316.0
205.142609 70.0
205.984421 550.0
206.024765 36.0
206.07959 144.0
206.972244 4900.0
207.016876 198.0
207.052414 102.0
207.073517 140.0
207.162979 86.0
207.66806 44.0
207.856674 32.0
207.876007 22.0
207.969696 770.0
208.019485 84.0
208.048691 56.0
208.067093 98.0
208.095047 214.0
208.153137 72.0
208.183167 26.0
208.518234 26.0
208.663254 18.0
208.788834 16.0
208.837234 16.0
208.93573 54.0
208.969543 90.0
209.001938 372.0
209.03363 78.0
209.067154 94.0
209.097549 60.0
209.135712 40.0
209.582382 16.0
209.774078 32.0
209.978897 28.0
210.000259 152.0
210.044296 58.0
210.099686 78.0
210.126312 76.0
210.225754 30.0
210.439896 22.0
210.691895 26.0
210.910294 98.0
210.991272 120.0
211.017319 394.0
211.055237 46.0
211.10498 70.0
211.554276 16.0
211.96994 64.0
212.00589 116.0
212.076019 114.0
212.169479 16.0
213.007477 146.0
213.056702 68.0
213.086121 48.0
213.107178 104.0
213.132187 100.0
213.950455 18.0
214.002228 68.0
214.032913 80.0
214.088562 218.0
214.272522 16.0
214.94545 16.0
215.002213 102.0
215.048462 40.0
215.076553 164.0
215.097321 126.0
215.113647 96.0
215.23317 20.0
215.497192 30.0
215.970947 68.0
215.996841 44.0
216.063354 90.0
216.097534 400.0
216.124405 90.0
216.519699 16.0
216.967163 104.0
216.987869 92.0
217.014221 60.0
217.072205 102.0
217.096176 364.0
217.133255 162.0
217.31839 16.0
217.968826 78.0
218.014084 116.0
218.047531 48.0
218.079056 420.0
218.102646 300.0
218.144455 56.0
218.231628 18.0
218.519608 94.0
218.589905 16.0
218.8069 16.0
218.831818 20.0
218.901474 42.0
218.961563 78.0
218.992188 130.0
219.018784 70.0
219.081467 184.0
219.110413 1738.0
219.14238 108.0
219.187881 96.0
219.358215 18.0
219.96199 78.0
219.997879 248.0
220.049728 70.0
220.065353 62.0
220.093918 1110.0
220.114426 554.0
220.140167 36.0
220.189255 16.0
220.393066 22.0
220.617844 16.0
220.674744 76.0
220.81102 20.0
220.94458 60.0
220.975708 130.0
221.004471 332.0
221.041138 208.0
221.066986 140.0
221.095535 160.0
221.128342 482.0
221.166458 26.0
221.267426 16.0
221.427597 34.0
221.478638 24.0
221.899567 60.0
221.969116 146.0
222.000656 184.0
222.017395 272.0
222.041962 70.0
222.069153 256.0
222.110382 516.0
222.882721 24.0
222.949219 46.0
222.976028 212.0
223.016327 350.0
223.039474 116.0
223.06868 288.0
223.092377 54.0
223.112762 120.0
223.150436 16.0
223.531815 16.0
223.94928 66.0
223.976562 106.0
224.000595 100.0
224.013763 106.0
224.03804 146.0
224.058044 82.0
224.084961 66.0
224.271652 16.0
224.981262 642.0
225.046402 124.0
225.0914 46.0
225.414841 16.0
225.951813 56.0
225.987839 118.0
226.016937 122.0
226.046417 80.0
226.079147 38.0
226.118408 84.0
226.155426 56.0
226.336441 18.0
226.817688 28.0
226.979782 42.0
227.011826 182.0
227.042557 74.0
227.057358 100.0
227.092682 100.0
227.112305 58.0
227.536713 44.0
227.723251 28.0
227.92778 16.0
227.975449 38.0
228.001678 96.0
228.090607 114.0
228.110764 20.0
228.138184 52.0
228.273453 16.0
228.302368 20.0
228.393951 16.0
228.606125 18.0
228.888489 66.0
228.963638 38.0
229.003815 56.0
229.0354 54.0
229.100616 230.0
229.127304 60.0
229.72644 16.0
229.957596 24.0
229.981903 100.0
230.017838 70.0
230.052505 52.0
230.080795 450.0
230.101624 310.0
230.477036 38.0
230.773056 24.0
230.97821 158.0
231.003784 78.0
231.031937 94.0
231.065323 46.0
231.110626 888.0
231.266495 16.0
231.936371 52.0
231.977463 204.0
232.009445 156.0
232.068771 104.0
232.104431 400.0
232.475983 20.0
232.750595 30.0
232.840363 40.0
232.974167 90.0
232.997559 706.0
233.033875 202.0
233.091446 192.0
233.126404 1106.0
233.207321 16.0
233.230469 18.0
233.748169 22.0
233.927612 20.0
233.966705 228.0
233.989517 266.0
234.022171 332.0
234.05571 70.0
234.074753 402.0
234.112106 194.0
234.260788 18.0
234.920486 30.0
234.953217 64.0
234.988678 400.0
235.015076 780.0
235.055206 140.0
235.075714 88.0
235.104065 322.0
235.143982 128.0
235.863907 18.0
235.958588 128.0
235.996552 856.0
236.037323 232.0
236.076065 156.0
236.083328 58.0
236.10968 114.0
236.17421 74.0
236.264343 34.0
236.672897 62.0
236.710556 20.0
236.955261 44.0
237.001541 312.0
237.025574 114.0
237.066238 116.0
237.087708 56.0
237.112137 54.0
237.188461 58.0
237.541611 66.0
237.732529 28.0
237.977539 76.0
238.015411 306.0
238.061035 58.0
238.07811 128.0
238.124435 120.0
238.565781 16.0
238.896011 18.0
238.9655 82.0
238.998718 116.0
239.019394 230.0
239.049805 244.0
239.125793 32.0
239.194504 22.0
239.957443 64.0
239.98703 54.0
240.009323 166.0
240.033279 318.0
240.067307 44.0
240.091309 54.0
240.109787 48.0
240.46521 16.0
240.646912 24.0
240.690216 24.0
240.942795 20.0
240.96608 62.0
241.024887 130.0
241.063553 52.0
241.093491 628.0
241.131958 92.0
241.267059 26.0
241.932556 118.0
241.955368 60.0
242.01651 176.0
242.07402 70.0
242.100739 100.0
242.141296 70.0
242.166122 16.0
242.94693 54.0
242.987473 142.0
243.017487 566.0
243.043976 104.0
243.080078 86.0
243.112274 514.0
243.144699 68.0
243.162125 158.0
243.956467 50.0
243.976913 58.0
243.998413 164.0
244.029999 208.0
244.062836 84.0
244.091003 62.0
244.109695 22.0
244.479675 78.0
244.958435 70.0
245.009201 190.0
245.03569 482.0
245.088501 546.0
245.549622 28.0
245.882324 20.0
245.928391 38.0
245.967911 190.0
246.017883 482.0
246.078125 144.0
246.112427 134.0
246.14006 60.0
246.285919 64.0
247.0215 556.0
247.069656 78.0
247.10556 626.0
247.14006 250.0
247.388718 24.0
247.95694 36.0
248.001251 212.0
248.029831 278.0
248.055023 150.0
248.08931 590.0
248.132156 162.0
248.174652 24.0
248.650223 30.0
248.891541 60.0
248.95575 98.0
248.993484 1332.0
249.015549 244.0
249.092316 196.0
249.119247 250.0
249.170837 46.0
249.233597 20.0
249.278915 16.0
249.687042 18.0
249.926636 44.0
250.004486 488.0
250.038757 156.0
250.110306 216.0
250.148941 62.0
250.683533 16.0
250.967499 74.0
251.007828 2336.0
251.043365 376.0
251.070953 222.0
251.10788 234.0
251.135666 98.0
251.15625 74.0
251.310196 20.0
252.002991 152.0
252.032425 460.0
252.077271 52.0
252.109955 42.0
252.372772 34.0
252.717972 16.0
252.923737 32.0
252.964172 92.0
252.993347 40.0
253.021515 164.0
253.06044 130.0
253.08284 48.0
253.124969 24.0
253.939301 110.0
254.013245 122.0
254.046204 134.0
254.075623 52.0
254.14035 58.0
254.300064 18.0
254.570892 22.0
254.915298 44.0
254.969162 34.0
255.007141 140.0
255.045837 42.0
255.074219 54.0
255.150146 62.0
255.33757 16.0
255.774841 16.0
256.01178 158.0
256.101959 88.0
256.127319 52.0
256.904877 22.0
256.991089 74.0
257.023651 348.0
257.046143 114.0
257.088623 384.0
257.124878 84.0
257.156128 50.0
257.389893 50.0
257.896393 16.0
257.994812 332.0
258.031799 392.0
258.097107 520.0
258.119568 126.0
258.175964 80.0
258.963867 42.0
259.012421 196.0
259.046234 644.0
259.105286 10154.0
259.202301 64.0
259.229828 46.0
259.255402 48.0
259.278809 20.0
259.369934 24.0
259.486877 16.0
259.75415 18.0
259.844116 18.0
259.980652 222.0
260.018738 356.0
260.026855 282.0
260.108215 1752.0
260.190033 16.0
260.332947 26.0
260.382996 26.0
260.418945 22.0
260.538757 16.0
260.592834 16.0
260.717957 26.0
260.767944 20.0
260.870972 18.0
260.95929 130.0
260.995392 354.0
261.026062 760.0
261.082123 218.0
261.120514 7552.0
261.205048 72.0
261.23114 68.0
261.341278 26.0
261.473511 40.0
261.493683 22.0
261.517822 20.0
261.681946 38.0
261.763062 18.0
261.819824 20.0
261.845886 62.0
261.904633 24.0
261.957397 176.0
261.988281 342.0
262.008118 508.0
262.028198 512.0
262.070129 140.0
262.123901 876.0
262.205811 16.0
262.371246 56.0
262.413391 30.0
262.842804 18.0
262.930328 48.0
262.970428 148.0
262.993622 264.0
263.013153 214.0
263.049469 368.0
263.101257 320.0
263.135742 1930.0
263.179626 34.0
263.261871 16.0
263.347473 38.0
263.37439 30.0
263.393982 30.0
263.428833 16.0
263.570648 34.0
263.822968 36.0
263.844574 30.0
264.003632 262.0
264.053772 472.0
264.080658 134.0
264.112915 122.0
264.139679 690.0
264.254089 22.0
264.414734 16.0
264.503052 22.0
264.613129 24.0
264.863617 16.0
264.940063 24.0
264.988129 362.0
265.035889 178.0
265.062988 1208.0
265.125183 74.0
265.150726 258.0
265.182861 98.0
265.383026 20.0
265.600159 30.0
265.7677 16.0
265.897186 30.0
265.962677 60.0
265.996124 1676.0
266.027954 150.0
266.062012 470.0
266.121948 60.0
266.14679 108.0
266.589966 16.0
266.86087 34.0
266.972382 58.0
267.000732 392.0
267.031799 100.0
267.078094 270.0
267.116394 72.0
267.137634 130.0
267.290955 16.0
267.701691 24.0
267.799683 16.0
267.868744 26.0
267.951294 74.0
268.0065 160.0
268.047119 308.0
268.075684 68.0
268.105988 56.0
268.136475 34.0
268.174255 24.0
268.342865 16.0
268.520538 16.0
268.99765 110.0
269.020081 858.0
269.063202 146.0
269.11972 94.0
269.149078 156.0
269.311737 20.0
269.682159 36.0
269.881165 38.0
269.902283 16.0
269.954987 52.0
269.997406 20.0
270.022278 66.0
270.045502 102.0
270.09613 54.0
270.118439 136.0
270.164764 64.0
270.627472 26.0
270.932831 54.0
270.974274 96.0
271.01358 268.0
271.073273 138.0
271.105499 558.0
271.144592 184.0
271.183899 40.0
271.534241 34.0
271.646301 36.0
271.69873 20.0
271.972229 66.0
272.013214 184.0
272.037811 186.0
272.079254 76.0
272.102417 248.0
272.148041 156.0
272.218048 78.0
272.262726 36.0
272.412628 128.0
272.915985 76.0
272.973846 68.0
273.030273 1748.0
273.120453 314.0
273.154205 54.0
273.579224 16.0
273.967651 34.0
274.030426 1458.0
274.083679 28.0
274.124756 174.0
274.162567 62.0
274.333221 42.0
274.439911 20.0
274.755737 18.0
274.856232 22.0
274.963074 92.0
275.018951 326.0
275.044159 1108.0
275.099518 578.0
275.139221 182.0
275.257111 20.0
275.281738 22.0
275.305939 16.0
275.361267 44.0
275.442444 22.0
275.53302 30.0
275.614258 20.0
275.700989 26.0
275.904327 16.0
275.967712 152.0
276.005493 612.0
276.031677 520.0
276.088348 144.0
276.119751 238.0
276.169434 74.0
276.268188 42.0
276.322418 62.0
276.352539 20.0
276.371918 22.0
276.631866 30.0
276.704987 16.0
276.883087 36.0
276.989685 388.0
277.02533 370.0
277.056366 296.0
277.086731 244.0
277.116058 830.0
277.145477 78.0
277.181305 36.0
277.250366 24.0
277.289703 40.0
277.363373 20.0
277.457733 22.0
277.533386 20.0
277.608093 78.0
277.981567 330.0
278.004913 142.0
278.030701 376.0
278.052612 454.0
278.095428 172.0
278.121948 438.0
278.476898 76.0
278.94751 18.0
279.009735 296.0
279.044678 248.0
279.096436 444.0
279.132751 644.0
279.327148 18.0
279.42984 24.0
279.532379 48.0
279.632721 24.0
279.778198 32.0
279.931396 64.0
279.963135 74.0
279.994202 128.0
280.006866 168.0
280.055084 250.0
280.136597 290.0
280.200867 64.0
280.316986 16.0
280.62204 36.0
280.673584 22.0
280.912689 60.0
280.941956 108.0
281.040222 262.0
281.077911 270.0
281.145294 42.0
281.427856 28.0
281.470428 16.0
281.688568 22.0
281.910889 26.0
281.988617 158.0
282.058014 244.0
282.120422 58.0
282.585938 28.0
282.943909 40.0
283.002289 156.0
283.032532 178.0
283.074829 132.0
283.100372 56.0
283.130432 40.0
283.501068 18.0
283.940826 36.0
284.006866 536.0
284.077118 110.0
284.132782 230.0
284.414856 16.0
284.446686 34.0
284.789154 42.0
285.014008 298.0
285.048492 234.0
285.086395 70.0
285.118622 130.0
285.139771 200.0
285.737091 16.0
285.823669 32.0
285.987366 264.0
286.043213 542.0
286.115448 246.0
286.155579 262.0
287.003021 250.0
287.043213 2198.0
287.099915 596.0
287.160645 54.0
287.621246 24.0
287.732971 16.0
287.91156 16.0
287.972809 58.0
288.018097 452.0
288.052521 2438.0
288.100128 432.0
288.131042 166.0
288.334167 36.0
288.650146 44.0
288.837769 40.0
288.919189 28.0
289.023193 1170.0
289.060974 1906.0
289.115631 7710.0
289.189758 76.0
289.243652 30.0
289.285919 18.0
289.340912 26.0
289.441071 66.0
289.47644 24.0
289.545776 16.0
289.801056 24.0
289.823822 30.0
289.863403 26.0
289.924438 22.0
290.025208 228.0
290.06543 740.0
290.118835 1380.0
290.20285 38.0
290.412781 54.0
290.46109 22.0
290.514404 28.0
290.682861 44.0
290.983673 286.0
291.038269 886.0
291.130524 9448.0
291.204712 52.0
291.230133 22.0
291.268158 28.0
291.452759 20.0
291.496063 36.0
291.536163 34.0
291.59845 16.0
291.65329 34.0
291.73465 18.0
291.881561 32.0
291.968536 40.0
291.996948 134.0
292.025299 670.0
292.046783 420.0
292.134033 1350.0
292.217224 44.0
292.372467 18.0
292.397705 54.0
292.443359 18.0
292.579773 20.0
292.903839 78.0
292.995911 256.0
293.056763 1890.0
293.110535 358.0
293.13855 298.0
293.368744 18.0
293.585144 88.0
293.969879 78.0
294.024475 206.0
294.058868 586.0
294.119324 320.0
294.180328 48.0
294.205444 104.0
294.744324 26.0
294.953766 114.0
295.002747 130.0
295.020813 132.0
295.07312 394.0
295.107544 218.0
295.16626 64.0
295.187653 38.0
295.61319 40.0
295.95575 38.0
296.029236 166.0
296.056854 198.0
296.138336 176.0
296.227203 40.0
296.418243 24.0
296.46109 16.0
296.946045 66.0
297.000549 116.0
297.051208 220.0
297.131866 78.0
297.162598 90.0
297.347382 30.0
297.717438 16.0
298.021149 514.0
298.073761 168.0
298.135071 170.0
298.477448 16.0
298.504395 96.0
298.529633 82.0
298.703705 98.0
299.022858 366.0
299.097778 30.0
299.138519 264.0
300.038635 480.0
300.095245 148.0
300.128693 312.0
300.161072 100.0
300.292053 20.0
300.850616 18.0
300.927917 98.0
301.032501 1290.0
301.120636 146.0
301.162537 40.0
301.18924 60.0
301.236572 16.0
301.325165 20.0
302.023926 984.0
302.114105 208.0
302.146759 154.0
302.317139 16.0
302.453064 16.0
302.579193 22.0
302.880371 16.0
302.917084 40.0
302.942841 26.0
303.042236 1496.0
303.106781 106.0
303.128662 424.0
303.168488 64.0
303.385651 28.0
303.420532 30.0
303.628815 20.0
303.794464 34.0
303.996521 300.0
304.045074 1158.0
304.125641 300.0
304.160187 144.0
304.35553 30.0
304.511536 34.0
304.851776 70.0
304.940399 64.0
304.997528 666.0
305.056091 752.0
305.113861 656.0
305.151917 250.0
305.180267 44.0
305.25412 18.0
305.35437 18.0
305.739105 18.0
305.898529 16.0
305.931641 16.0
305.961273 76.0
306.00119 354.0
306.057037 460.0
306.116882 150.0
306.144135 156.0
306.184692 72.0
306.334442 36.0
306.364197 18.0
306.449036 32.0
306.496826 16.0
306.671021 42.0
306.921387 16.0
306.985352 164.0
307.03302 280.0
307.072571 268.0
307.124786 1546.0
307.174225 26.0
307.2146 46.0
307.311554 22.0
307.494873 28.0
307.579041 40.0
307.695892 16.0
307.965729 186.0
308.036346 458.0
308.065063 374.0
308.118561 170.0
308.191284 18.0
308.314514 16.0
308.362122 18.0
308.852448 16.0
308.969849 124.0
308.990173 116.0
309.054688 334.0
309.110901 78.0
309.142487 1678.0
309.188416 86.0
309.340363 20.0
309.670166 40.0
309.972473 38.0
309.992859 26.0
310.046295 224.0
310.083435 174.0
310.105927 150.0
310.144531 326.0
310.268341 20.0
310.46347 16.0
310.727692 16.0
310.986267 102.0
311.0336 192.0
311.067322 318.0
311.11792 40.0
311.145203 114.0
311.607758 26.0
311.697083 22.0
311.937439 54.0
312.034241 292.0
312.070038 178.0
312.130585 104.0
312.539703 26.0
312.58609 62.0
312.639618 22.0
312.83197 54.0
312.904785 18.0
313.031433 442.0
313.060059 256.0
313.141418 124.0
313.167053 36.0
313.210297 42.0
313.857605 18.0
313.933228 62.0
314.022125 894.0
314.047974 488.0
314.147766 682.0
314.387726 16.0
314.515472 58.0
314.691895 34.0
314.933319 92.0
314.964325 36.0
315.040405 1866.0
315.127472 322.0
315.154022 256.0
315.279572 58.0
315.310455 26.0
315.414886 26.0
315.48465 26.0
315.61203 22.0
315.961182 38.0
316.036621 1904.0
316.126526 394.0
316.161041 676.0
316.245636 18.0
316.289795 36.0
316.333466 30.0
316.475433 16.0
316.518341 26.0
316.546692 72.0
316.631744 26.0
316.71524 20.0
316.818726 34.0
317.05304 1408.0
317.090851 324.0
317.12793 346.0
317.152161 452.0
317.267548 20.0
317.352783 20.0
317.378784 30.0
317.448334 38.0
317.492279 40.0
317.608551 42.0
317.699524 16.0
317.813232 26.0
317.879944 24.0
318.010986 472.0
318.058533 1294.0
318.141449 544.0
318.172333 116.0
318.180725 188.0
318.305328 22.0
318.343597 20.0
318.428741 28.0
318.567383 30.0
318.595642 16.0
318.646057 58.0
318.785187 26.0
319.000275 222.0
319.041046 596.0
319.064911 454.0
319.134216 250.0
319.80307 60.0
319.846039 26.0
319.916687 24.0
319.953583 108.0
320.021759 1080.0
320.065033 492.0
320.101288 138.0
320.130219 262.0
320.239197 24.0
320.412933 26.0
320.590088 20.0
320.796692 28.0
320.976501 66.0
321.047577 474.0
321.123718 134.0
321.160828 140.0
321.210205 24.0
321.268768 16.0
321.503876 52.0
321.724121 40.0
321.764679 26.0
321.810272 42.0
321.997894 196.0
322.049042 278.0
322.102631 118.0
322.136749 70.0
322.171143 102.0
322.235748 18.0
322.380402 26.0
322.447662 16.0
322.774231 18.0
322.94046 48.0
323.005951 74.0
323.064575 620.0
323.092468 198.0
323.123138 164.0
323.179565 98.0
323.972198 90.0
324.005798 52.0
324.047424 254.0
324.053711 126.0
324.065521 232.0
324.122711 134.0
324.176727 60.0
324.679321 56.0
324.967194 34.0
325.009308 168.0
325.046997 350.0
325.143768 68.0
325.168274 84.0
325.18927 42.0
325.268768 34.0
325.842102 20.0
326.021027 466.0
326.058685 384.0
326.101685 42.0
326.132324 108.0
326.148651 104.0
326.184937 70.0
326.245026 18.0
326.536621 84.0
326.876068 20.0
326.96228 32.0
327.028564 782.0
327.15332 90.0
327.222473 24.0
327.251495 22.0
327.577454 52.0
327.672607 16.0
327.772369 30.0
327.941162 18.0
327.993622 68.0
328.035645 1776.0
328.131714 134.0
328.159241 122.0
328.221924 58.0
328.357208 16.0
328.459167 28.0
328.524872 16.0
328.71698 32.0
328.808228 18.0
328.834503 40.0
328.934967 28.0
329.037903 1230.0
329.114929 124.0
329.153656 376.0
329.92511 42.0
330.04541 1144.0
330.140411 562.0
330.204895 26.0
330.293579 16.0
330.401947 26.0
330.434021 20.0
330.763336 26.0
331.035828 3094.0
331.098419 100.0
331.148651 490.0
331.242126 18.0
331.267975 38.0
331.458405 36.0
331.780701 28.0
331.814636 44.0
331.906403 22.0
331.934631 20.0
332.042847 1986.0
332.119751 250.0
332.156982 446.0
332.203644 22.0
332.364716 24.0
332.549225 62.0
332.575653 50.0
332.607849 20.0
332.793793 30.0
332.863861 16.0
332.906952 32.0
332.95932 54.0
333.050201 6664.0
333.092316 402.0
333.141266 232.0
333.18866 58.0
333.271393 20.0
333.341187 74.0
333.453156 50.0
333.773773 22.0
333.827759 16.0
333.853973 18.0
333.966736 38.0
334.052643 1282.0
334.140533 256.0
334.179352 194.0
334.246124 24.0
334.443054 24.0
334.490967 22.0
334.545013 34.0
334.613647 48.0
334.663391 22.0
334.690033 40.0
334.733215 24.0
335.023895 188.0
335.058472 604.0
335.129791 126.0
335.158569 102.0
335.197174 58.0
335.388641 20.0
335.416595 24.0
335.622345 18.0
335.851654 26.0
335.972351 16.0
336.056549 318.0
336.103149 116.0
336.126404 62.0
336.156006 44.0
336.534607 16.0
336.657532 22.0
336.759949 20.0
336.995239 102.0
337.036041 292.0
337.072723 160.0
337.119659 78.0
337.174194 26.0
337.42926 30.0
337.752777 54.0
338.013916 164.0
338.082794 334.0
338.10495 114.0
338.140198 112.0
338.340881 22.0
338.489044 18.0
338.531433 20.0
338.835388 16.0
338.949799 32.0
339.028046 404.0
339.064453 720.0
339.145203 16.0
339.167389 44.0
339.214233 16.0
339.240814 24.0
339.496307 16.0
339.99118 30.0
340.036285 624.0
340.070862 946.0
340.136627 150.0
340.519836 76.0
340.870087 18.0
341.040985 624.0
341.073486 504.0
341.153198 478.0
341.34729 20.0
341.543091 92.0
341.810089 26.0
341.953613 60.0
341.986084 78.0
342.050903 1384.0
342.082611 478.0
342.145691 228.0
342.196655 50.0
342.338135 16.0
342.544006 56.0
342.673248 18.0
342.95813 84.0
343.05835 694.0
343.140198 164.0
343.159088 162.0
343.198395 64.0
343.234741 48.0
343.275726 16.0
343.304718 70.0
343.630524 32.0
343.871429 20.0
343.976044 110.0
344.033783 1594.0
344.066742 670.0
344.128021 116.0
344.156921 906.0
344.267883 20.0
344.291565 18.0
344.448425 16.0
344.531586 22.0
344.65271 16.0
344.72229 18.0
344.953552 88.0
345.048798 2528.0
345.122345 214.0
345.159363 458.0
345.479309 16.0
345.505981 24.0
346.014618 262.0
346.04953 1388.0
346.082397 1036.0
346.174255 2492.0
346.300079 72.0
346.324738 50.0
346.455353 18.0
346.541687 64.0
346.605225 24.0
346.626129 20.0
346.666168 24.0
346.796692 24.0
346.882965 18.0
346.978302 84.0
347.042358 718.0
347.108978 378.0
347.17337 564.0
347.222412 44.0
347.260345 20.0
347.471405 22.0
347.926422 18.0
347.962799 56.0
348.040771 1254.0
348.100037 702.0
348.170929 144.0
348.256744 16.0
348.295441 16.0
348.323639 26.0
348.595825 34.0
348.622925 18.0
348.849304 20.0
349.002869 142.0
349.045624 1346.0
349.101501 238.0
349.149872 102.0
349.174164 140.0
349.252289 76.0
349.467651 22.0
349.546539 52.0
349.609344 16.0
349.661407 26.0
349.908051 30.0
349.952667 36.0
349.975525 50.0
350.024536 258.0
350.053284 474.0
350.085754 180.0
350.129028 62.0
350.191681 76.0
350.486664 16.0
350.671814 18.0
351.03302 324.0
351.057892 290.0
351.145477 102.0
351.212646 16.0
351.300812 22.0
351.640198 16.0
351.903442 26.0
352.035187 356.0
352.058777 224.0
352.119019 74.0
352.159241 26.0
352.207062 68.0
352.42276 18.0
352.520905 54.0
352.609924 16.0
353.000549 160.0
353.043549 516.0
353.07962 220.0
353.127838 38.0
353.250275 78.0
353.338074 22.0
353.377045 16.0
353.531708 22.0
353.563263 96.0
353.697937 26.0
353.829926 20.0
353.941101 46.0
353.967438 68.0
354.050873 700.0
354.134277 90.0
354.168427 72.0
354.314606 18.0
354.421204 16.0
354.481262 16.0
354.673492 16.0
354.709534 16.0
354.775604 20.0
354.812256 48.0
355.053375 526.0
355.078522 560.0
355.137146 56.0
355.166565 36.0
355.336212 18.0
355.415955 20.0
355.489471 16.0
355.539093 16.0
355.616821 44.0
355.769989 26.0
355.829193 22.0
355.862518 20.0
355.994843 62.0
356.028839 720.0
356.065765 1402.0
356.16275 70.0
356.258789 28.0
356.346741 24.0
356.451782 54.0
356.565552 72.0
356.641907 22.0
356.700897 20.0
356.788483 30.0
356.963501 68.0
356.994873 46.0
357.034698 540.0
357.071381 602.0
357.148956 780.0
357.327728 20.0
357.527893 36.0
357.55069 62.0
357.888733 16.0
357.979431 60.0
358.04538 2248.0
358.080872 866.0
358.158936 622.0
358.251617 36.0
358.285553 22.0
358.324799 38.0
358.396362 40.0
358.489441 54.0
358.604034 20.0
358.752197 16.0
358.827728 16.0
358.862579 18.0
358.967285 52.0
359.0495 1360.0
359.097961 336.0
359.166107 1626.0
359.224335 128.0
359.247772 66.0
359.346527 52.0
359.397614 36.0
359.597229 20.0
359.820923 18.0
359.898071 16.0
359.960968 54.0
360.033661 752.0
360.055145 722.0
360.166443 442.0
360.210754 42.0
360.264282 18.0
360.317261 16.0
360.344269 22.0
360.538208 108.0
360.600922 84.0
360.626892 24.0
360.645081 24.0
360.685211 16.0
360.825958 30.0
360.861053 24.0
360.936981 42.0
361.045593 3770.0
361.137543 2750.0
361.175262 848.0
361.27005 20.0
361.435211 20.0
361.49292 30.0
361.541412 20.0
361.597015 38.0
361.693268 48.0
361.859619 24.0
361.93457 44.0
362.046509 1264.0
362.075562 634.0
362.140137 388.0
362.171204 412.0
362.286346 16.0
362.527649 22.0
362.557709 74.0
362.62735 62.0
362.652191 24.0
362.67572 30.0
362.812317 30.0
362.83194 44.0
362.875153 28.0
362.994781 112.0
363.060699 7354.0
363.155884 134.0
363.188965 202.0
363.267151 36.0
363.396088 52.0
363.460815 26.0
363.544159 70.0
363.606598 20.0
363.712128 20.0
363.898071 70.0
363.983368 88.0
364.063873 1302.0
364.138367 98.0
364.191376 110.0
364.235382 38.0
364.271973 36.0
364.299591 58.0
364.360199 68.0
364.383362 68.0
364.434479 20.0
364.455383 38.0
364.481506 16.0
364.563721 30.0
364.862244 16.0
364.914032 22.0
364.987518 46.0
365.036469 248.0
365.067841 394.0
365.158661 188.0
365.223419 18.0
365.315704 20.0
365.512848 26.0
365.733429 30.0
366.048615 710.0
366.07547 380.0
366.115417 194.0
366.147583 70.0
366.182129 98.0
366.340942 26.0
366.582764 70.0
366.669678 30.0
366.861145 34.0
366.953583 22.0
367.051178 512.0
367.08374 616.0
367.131439 78.0
367.156189 76.0
367.187531 36.0
367.263824 16.0
367.298981 16.0
367.331543 42.0
367.390656 34.0
367.425842 16.0
367.823547 52.0
368.064758 1916.0
368.176788 38.0
368.260956 46.0
368.720215 18.0
369.038452 400.0
369.073303 1180.0
369.14209 104.0
369.240875 80.0
369.323792 20.0
369.671631 22.0
369.785522 26.0
369.926453 34.0
369.981506 24.0
370.044708 1198.0
370.080017 3730.0
370.163025 140.0
370.225708 34.0
370.290619 38.0
370.36322 16.0
370.36908 18.0
370.562866 36.0
370.630707 16.0
370.893219 20.0
370.966583 26.0
371.05542 822.0
371.078217 948.0
371.15799 514.0
371.282776 50.0
371.343414 24.0
371.506348 30.0
371.633728 26.0
371.701416 20.0
371.758606 22.0
371.784515 20.0
371.842163 38.0
372.027222 332.0
372.059631 2118.0
372.093994 712.0
372.153137 204.0
372.178833 160.0
372.248871 22.0
372.297516 44.0
372.404541 56.0
372.47995 16.0
372.520721 30.0
372.852448 22.0
372.988495 94.0
373.053986 942.0
373.136566 228.0
373.172485 522.0
373.227478 38.0
373.260986 24.0
373.305542 24.0
373.350067 32.0
373.655945 102.0
373.689148 16.0
373.770935 22.0
373.806213 44.0
373.985962 42.0
374.058502 390.0
374.07785 670.0
374.170563 206.0
374.302948 18.0
374.332306 32.0
374.469269 32.0
374.540588 18.0
374.614502 44.0
374.931 20.0
374.97995 34.0
375.042969 290.0
375.071198 378.0
375.088959 320.0
375.15979 394.0
375.184326 500.0
375.231842 72.0
375.455902 38.0
375.578461 20.0
375.720642 16.0
375.747162 22.0
375.812866 60.0
375.930908 16.0
376.059998 526.0
376.085083 370.0
376.135925 150.0
376.171478 118.0
376.223297 126.0
376.331604 42.0
376.690125 32.0
376.968536 20.0
377.031952 260.0
377.090607 230.0
377.121765 310.0
377.175842 328.0
377.204041 436.0
377.311401 18.0
377.546021 40.0
377.590759 88.0
377.658478 16.0
377.720459 22.0
377.783905 30.0
377.806702 56.0
377.856873 16.0
377.941254 66.0
377.963654 68.0
378.046814 594.0
378.114227 210.0
378.14917 114.0
378.181122 162.0
378.234863 68.0
378.260223 70.0
378.356049 52.0
378.58194 42.0
378.688232 18.0
378.875732 30.0
378.934937 24.0
378.964417 80.0
379.053955 570.0
379.096222 154.0
379.130066 116.0
379.176331 336.0
379.368256 16.0
379.509613 16.0
379.672241 50.0
379.730255 16.0
379.765442 30.0
379.806763 50.0
379.981842 56.0
380.054016 540.0
380.09967 274.0
380.178436 120.0
380.247375 74.0
380.537231 60.0
380.77359 28.0
380.797211 24.0
380.901337 20.0
380.979919 74.0
381.009369 28.0
381.067535 738.0
381.165405 50.0
381.191406 54.0
381.219025 76.0
381.426117 18.0
381.542389 22.0
381.567932 74.0
381.595703 66.0
381.730835 36.0
381.812439 26.0
381.910553 18.0
381.951263 36.0
382.067017 720.0
382.137756 162.0
382.196136 80.0
382.498169 20.0
382.550018 70.0
382.574829 90.0
382.615326 16.0
382.864929 20.0
382.911621 62.0
383.043579 950.0
383.077698 3274.0
383.153992 44.0
383.200775 90.0
383.281769 18.0
383.394104 36.0
383.559387 48.0
383.595215 18.0
383.728485 22.0
383.979523 50.0
384.077972 1624.0
384.166809 64.0
384.176392 80.0
384.186493 66.0
384.228668 38.0
384.309509 20.0
384.566956 70.0
384.641113 22.0
384.753754 22.0
384.812134 28.0
384.88205 28.0
385.004639 96.0
385.091125 2460.0
385.184204 130.0
385.215424 54.0
385.304871 22.0
385.38382 36.0
385.458191 26.0
385.528503 16.0
385.694702 36.0
385.727417 20.0
385.83609 60.0
386.08017 2372.0
386.170776 304.0
386.252258 18.0
386.343018 94.0
386.48114 20.0
386.503235 24.0
386.584503 34.0
386.966003 48.0
386.987701 50.0
387.045013 468.0
387.105652 1350.0
387.1651 584.0
387.234039 16.0
387.261871 76.0
387.33493 64.0
387.408752 30.0
387.437012 22.0
387.478882 16.0
387.864716 40.0
388.02002 246.0
388.052277 636.0
388.095551 1120.0
388.178741 512.0
388.263702 78.0
388.382141 18.0
388.411896 22.0
388.559937 66.0
388.691711 20.0
388.842651 22.0
388.934784 36.0
389.041718 1386.0
389.088867 476.0
389.131348 252.0
389.169861 2142.0
389.237915 76.0
389.270508 22.0
389.309326 26.0
389.528595 16.0
389.557648 70.0
389.99881 78.0
390.061707 602.0
390.093964 292.0
390.173737 472.0
390.263885 22.0
390.415314 24.0
390.530151 30.0
390.7005 26.0
390.903259 52.0
390.974731 38.0
390.997192 86.0
391.044495 220.0
391.068634 324.0
391.102448 346.0
391.147064 986.0
391.184143 1818.0
391.267334 40.0
391.318787 50.0
391.518921 30.0
391.564545 88.0
391.611877 48.0
391.8125 26.0
391.908875 22.0
391.945374 20.0
392.035065 164.0
392.102661 240.0
392.153229 396.0
392.177063 256.0
392.295776 16.0
392.471252 26.0
392.535736 24.0
392.779236 16.0
392.904114 16.0
392.985687 106.0
393.065033 392.0
393.122162 244.0
393.197144 56.0
393.248932 30.0
393.321533 16.0
393.524017 16.0
393.549316 16.0
393.718628 20.0
393.834137 16.0
393.92923 64.0
394.002106 76.0
394.044067 196.0
394.082184 304.0
394.119781 238.0
394.412018 38.0
395.001404 40.0
395.046509 252.0
395.080994 708.0
395.209503 58.0
395.38028 16.0
395.846619 18.0
396.08728 814.0
396.127228 44.0
396.21286 26.0
396.240234 16.0
396.49881 26.0
396.560364 82.0
396.85321 20.0
396.976532 36.0
397.089233 1612.0
397.199615 24.0
397.320679 24.0
397.414276 24.0
397.488922 16.0
397.594025 24.0
397.85025 20.0
398.075928 1626.0
398.206512 66.0
398.341614 16.0
398.496094 18.0
398.677246 22.0
398.934723 58.0
399.077057 1704.0
399.359497 20.0
399.537811 16.0
399.578186 26.0
399.666962 22.0
399.945221 40.0
400.089264 2560.0
400.179596 222.0
400.263428 16.0
400.478912 30.0
400.93396 52.0
401.087067 2030.0
401.168762 1390.0
401.355499 20.0
401.424286 18.0
401.526154 24.0
401.620758 22.0
401.976349 30.0
402.070587 810.0
402.172058 548.0
402.201813 160.0
402.254333 40.0
402.280975 20.0
402.405945 32.0
402.444305 22.0
402.482452 20.0
402.54007 24.0
402.663208 30.0
402.865845 26.0
402.930634 18.0
402.975555 16.0
403.007874 76.0
403.061188 480.0
403.100739 1006.0
403.182129 3574.0
403.271759 18.0
403.330841 100.0
403.361633 34.0
403.398926 42.0
403.451141 16.0
403.639252 42.0
403.730133 34.0
403.867737 18.0
404.033356 190.0
404.061401 268.0
404.095001 516.0
404.185303 1248.0
404.288391 58.0
404.365784 64.0
404.412811 16.0
404.44986 22.0
404.584869 100.0
404.9021 16.0
404.941833 36.0
405.034576 104.0
405.070282 234.0
405.117645 190.0
405.16803 280.0
405.183228 240.0
405.579437 26.0
405.698425 20.0
405.764709 24.0
405.8302 40.0
406.070282 120.0
406.112854 102.0
406.170349 666.0
406.480774 26.0
406.567902 42.0
406.596436 118.0
406.812347 22.0
406.889679 24.0
406.993164 56.0
407.052887 206.0
407.086578 294.0
407.144836 100.0
407.17804 1306.0
407.24881 62.0
407.283875 18.0
407.557465 166.0
407.911346 30.0
408.037964 180.0
408.062714 130.0
408.092651 206.0
408.12207 300.0
408.182068 198.0
408.457886 16.0
409.021759 84.0
409.063904 248.0
409.121338 244.0
409.18924 28.0
409.334717 72.0
409.485107 20.0
409.551666 36.0
409.998413 80.0
410.068207 478.0
410.110626 262.0
410.192719 76.0
410.790314 20.0
410.930786 16.0
411.073151 2246.0
411.169067 162.0
411.200562 78.0
411.388458 30.0
411.608551 26.0
411.939514 30.0
412.082397 1496.0
412.155212 184.0
412.180023 176.0
412.230194 84.0
412.300262 52.0
412.458069 34.0
412.525085 30.0
412.56192 20.0
412.694763 18.0
412.855255 20.0
412.935913 28.0
412.98175 82.0
413.022827 58.0
413.086334 4878.0
413.180267 310.0
413.222504 108.0
413.318329 24.0
413.341125 40.0
413.466278 18.0
413.527893 20.0
413.577484 106.0
413.604187 30.0
413.748474 16.0
413.789337 26.0
413.860504 18.0
413.995209 64.0
414.090149 1978.0
414.196289 206.0
414.222931 58.0
414.283295 72.0
414.342407 18.0
414.417084 18.0
414.533966 24.0
414.589996 40.0
414.657227 50.0
414.71875 20.0
414.857269 26.0
415.036652 176.0
415.097412 1950.0
415.168182 158.0
415.210114 194.0
415.554718 50.0
415.615814 50.0
415.664612 40.0
415.734741 34.0
415.871399 24.0
415.984558 88.0
416.088959 1352.0
416.185333 192.0
416.301727 34.0
416.344604 32.0
416.376282 62.0
416.402985 36.0
416.551544 24.0
416.585297 24.0
416.637665 34.0
416.929047 30.0
416.99585 22.0
417.094849 716.0
417.155823 388.0
417.179535 294.0
417.272736 16.0
417.350952 20.0
417.817017 16.0
417.921509 44.0
417.963715 84.0
418.035004 238.0
418.060425 154.0
418.093964 298.0
418.133728 216.0
418.193024 1310.0
418.249054 168.0
418.587372 72.0
418.803619 20.0
418.950867 24.0
418.975769 44.0
419.018646 146.0
419.097748 312.0
419.177338 2600.0
419.251007 80.0
419.378479 38.0
419.541718 20.0
419.627472 34.0
419.951904 18.0
419.980957 30.0
420.010406 50.0
420.058594 152.0
420.109161 218.0
420.117493 224.0
420.178894 330.0
420.248505 82.0
420.281982 94.0
420.391541 18.0
420.46521 18.0
420.491119 28.0
420.541107 36.0
420.590149 26.0
420.738342 20.0
420.766144 18.0
420.89975 24.0
421.035645 78.0
421.100647 246.0
421.193329 5954.0
421.258972 64.0
421.308075 42.0
421.329468 78.0
421.554596 24.0
422.041443 94.0
422.075989 252.0
422.114746 402.0
422.196228 1426.0
422.456024 18.0
422.557678 18.0
422.598572 20.0
422.682983 36.0
422.738007 22.0
422.790466 16.0
422.86554 34.0
422.999512 70.0
423.0737 192.0
423.11264 270.0
423.202362 166.0
423.343262 22.0
423.563354 20.0
423.707733 26.0
423.863922 54.0
424.050049 264.0
424.081512 230.0
424.120636 306.0
424.207764 108.0
424.280701 18.0
424.592865 24.0
424.744049 16.0
424.957733 16.0
425.096954 718.0
425.177399 60.0
425.216431 240.0
425.34549 80.0
425.38858 18.0
425.839355 18.0
426.087463 430.0
426.225708 198.0
426.396759 62.0
426.530823 18.0
426.576935 20.0
426.608154 18.0
426.751556 18.0
426.858643 38.0
427.091797 1398.0
427.138947 280.0
427.232819 82.0
427.324829 30.0
427.402466 26.0
427.512512 28.0
427.554138 18.0
427.592102 68.0
427.712555 22.0
427.836884 38.0
427.865753 36.0
427.988556 40.0
428.050201 226.0
428.087646 632.0
428.151031 128.0
428.181305 214.0
428.215149 190.0
428.257843 60.0
428.471558 16.0
428.58902 30.0
428.842407 26.0
429.020203 16.0
429.084625 1018.0
429.152283 162.0
429.216461 38.0
429.24765 18.0
429.508392 30.0
429.675781 24.0
429.841125 18.0
429.950256 16.0
429.987793 40.0
430.085663 1044.0
430.190857 466.0
430.363922 22.0
430.406525 30.0
430.542419 18.0
430.625183 22.0
430.671509 16.0
430.731079 40.0
430.859924 26.0
430.962677 22.0
431.093964 1210.0
431.202026 182.0
431.254089 46.0
431.280304 46.0
431.360443 18.0
431.495941 24.0
431.593658 20.0
431.880493 20.0
431.996735 40.0
432.081055 588.0
432.143341 178.0
432.208893 920.0
432.367889 22.0
432.49881 24.0
432.838959 28.0
432.862183 16.0
433.017426 84.0
433.086151 252.0
433.107697 296.0
433.176666 132.0
433.208527 224.0
433.622406 20.0
434.015991 66.0
434.044281 112.0
434.081573 206.0
434.131012 282.0
434.182343 230.0
434.330139 16.0
434.585663 56.0
434.626007 18.0
434.652618 18.0
434.914642 40.0
434.959991 36.0
435.053284 218.0
435.107544 336.0
435.158447 46.0
435.209259 86.0
435.251648 26.0
435.304596 16.0
435.867035 30.0
435.985046 60.0
436.059845 112.0
436.114166 282.0
436.20282 182.0
437.000061 22.0
437.086029 292.0
437.121124 442.0
437.184784 366.0
437.261963 28.0
437.441071 38.0
437.743896 16.0
437.987335 30.0
438.01712 188.0
438.055786 32.0
438.102844 310.0
438.134338 348.0
438.201569 76.0
438.386719 20.0
438.418243 16.0
438.47168 16.0
438.805725 16.0
438.853027 26.0
438.990295 46.0
439.014374 20.0
439.072113 222.0
439.102142 310.0
439.134064 390.0
439.187958 146.0
439.504181 34.0
439.908356 40.0
440.011688 52.0
440.107086 460.0
440.145935 172.0
440.209381 90.0
440.344543 32.0
440.70047 16.0
440.747253 18.0
441.007568 38.0
441.078705 876.0
441.115265 608.0
441.175507 46.0
441.214844 250.0
441.25647 18.0
441.504639 26.0
441.623413 16.0
442.015594 62.0
442.096558 898.0
442.136841 314.0
442.196381 182.0
442.231354 66.0
442.28717 40.0
442.375885 24.0
442.979645 104.0
443.005615 92.0
443.091675 3296.0
443.185669 366.0
443.217773 186.0
443.434875 32.0
443.668915 24.0
443.71405 16.0
443.754364 18.0
443.89035 20.0
443.922455 52.0
444.008179 76.0
444.098145 1590.0
444.212219 254.0
444.245331 62.0
444.298126 40.0
444.329834 62.0
444.370392 38.0
444.682159 24.0
444.765472 34.0
444.773956 26.0
444.789124 24.0
444.799286 22.0
444.938171 42.0
445.027313 180.0
445.103088 5766.0
445.219727 216.0
445.313629 34.0
445.493103 20.0
445.52005 16.0
445.576324 30.0
445.607574 18.0
445.634521 18.0
445.686523 20.0
445.910645 16.0
445.941132 44.0
445.990662 30.0
446.106628 1590.0
446.22406 224.0
446.321381 30.0
446.414398 22.0
446.500549 24.0
446.612885 22.0
446.817108 16.0
446.994171 26.0
447.036316 204.0
447.107758 700.0
447.191681 170.0
447.249115 70.0
447.295837 24.0
447.447784 20.0
447.520325 22.0
447.874664 20.0
447.977631 18.0
448.103882 642.0
448.154449 132.0
448.182068 86.0
448.207275 234.0
448.235168 74.0
448.316895 24.0
448.477661 26.0
448.53241 52.0
448.810059 22.0
448.865692 36.0
449.000977 40.0
449.0513 90.0
449.116852 442.0
449.204437 80.0
449.240631 16.0
449.26474 42.0
449.765198 16.0
450.023743 56.0
450.09845 294.0
450.135254 342.0
450.212311 44.0
450.631561 20.0
450.806091 26.0
451.07724 234.0
451.131409 456.0
451.177246 126.0
451.204834 60.0
451.805481 26.0
452.034637 30.0
452.121674 520.0
452.237854 28.0
452.260529 40.0
452.284546 30.0
452.638184 26.0
452.73172 34.0
452.779205 20.0
453.089539 430.0
453.12207 540.0
453.211029 148.0
453.286194 22.0
453.405396 16.0
453.585999 132.0
453.996521 16.0
454.035675 96.0
454.064362 240.0
454.124939 310.0
454.209106 76.0
454.567627 16.0
454.684967 18.0
454.860138 26.0
455.098206 426.0
455.135864 518.0
455.187195 92.0
455.225708 148.0
455.424713 30.0
455.753296 40.0
456.021912 62.0
456.087433 310.0
456.117859 348.0
456.218384 70.0
456.259125 22.0
456.290039 68.0
456.465729 26.0
456.496094 18.0
456.860779 16.0
456.96817 24.0
457.063049 214.0
457.111786 416.0
457.155884 460.0
457.207886 184.0
457.380829 18.0
457.708344 16.0
458.003479 22.0
458.098846 394.0
458.171387 106.0
458.223358 194.0
458.277527 58.0
458.350067 20.0
459.004669 80.0
459.075287 510.0
459.125702 80.0
459.169861 94.0
459.205872 152.0
459.25531 36.0
459.328583 46.0
459.61438 20.0
459.648712 34.0
459.872467 18.0
460.092834 890.0
460.163025 144.0
460.198334 154.0
460.243317 154.0
460.319031 20.0
460.447357 22.0
460.561371 34.0
460.925659 34.0
460.979584 52.0
461.095917 1248.0
461.199036 262.0
461.259277 16.0
461.384003 40.0
461.448975 16.0
461.921295 54.0
461.98877 20.0
462.016144 76.0
462.101654 338.0
462.157166 172.0
462.228851 172.0
462.269043 78.0
462.347778 52.0
462.513428 24.0
462.537384 24.0
462.573456 16.0
462.889099 16.0
462.947144 66.0
463.032959 132.0
463.107788 516.0
463.168427 222.0
463.224335 94.0
463.494965 16.0
463.584869 36.0
463.905396 16.0
463.999451 74.0
464.052307 64.0
464.11087 574.0
464.180908 168.0
464.221497 20.0
464.42453 28.0
464.5159 30.0
464.544586 28.0
464.589294 70.0
464.637421 32.0
464.706177 36.0
464.812775 16.0
464.864349 18.0
464.944214 46.0
464.990234 46.0
465.1185 2032.0
465.209045 74.0
465.762207 38.0
465.972321 24.0
466.019897 66.0
466.119385 894.0
466.166595 136.0
466.237457 18.0
466.381012 42.0
466.636749 64.0
466.692871 28.0
466.937317 46.0
466.968262 72.0
466.995422 16.0
467.045593 122.0
467.133728 2926.0
467.708801 30.0
467.775116 28.0
468.011444 42.0
468.045654 34.0
468.131561 908.0
468.202209 132.0
468.307404 30.0
468.623688 16.0
468.658234 18.0
468.789459 18.0
469.051239 162.0
469.122955 630.0
469.149902 1226.0
469.187592 260.0
469.532074 28.0
469.559845 16.0
470.053925 82.0
470.138519 468.0
470.227417 88.0
470.259186 98.0
470.330902 16.0
470.390045 22.0
470.924377 22.0
471.035461 106.0
471.041992 88.0
471.087311 334.0
471.143982 306.0
471.21994 332.0
471.261108 76.0
471.732849 16.0
471.916473 16.0
472.023834 78.0
472.105957 328.0
472.153473 210.0
472.210663 188.0
472.232422 106.0
472.266937 90.0
472.314331 62.0
472.387787 16.0
473.0961 906.0
473.149231 246.0
473.194122 68.0
473.233215 124.0
473.357788 32.0
473.591461 16.0
473.636597 16.0
473.685181 18.0
474.05484 80.0
474.104889 640.0
474.166168 118.0
474.209778 114.0
474.255371 98.0
474.927277 22.0
474.991058 50.0
475.017548 20.0
475.114319 590.0
475.161774 142.0
475.221863 120.0
475.24826 72.0
475.838196 18.0
476.020081 36.0
476.071686 96.0
476.116669 354.0
476.164886 134.0
476.234375 124.0
476.666931 26.0
477.011444 30.0
477.080933 150.0
477.120209 460.0
477.183685 100.0
477.241821 108.0
477.378357 122.0
477.473633 48.0
477.706543 16.0
477.94989 46.0
478.053375 30.0
478.105011 238.0
478.150665 80.0
478.22168 56.0
478.247009 44.0
479.03537 28.0
479.075012 226.0
479.134064 854.0
479.173981 168.0
479.367493 70.0
480.015747 40.0
480.121002 444.0
480.13504 402.0
480.192444 50.0
480.271515 68.0
481.085083 278.0
481.11618 556.0
481.136261 534.0
481.195038 142.0
481.289429 46.0
481.545349 16.0
481.968933 16.0
482.003418 86.0
482.082397 362.0
482.128479 774.0
482.212555 28.0
482.29068 76.0
482.524017 20.0
482.725433 28.0
482.779999 18.0
483.09906 426.0
483.130066 1348.0
483.195801 104.0
483.220428 64.0
483.251709 22.0
483.298889 22.0
484.006012 44.0
484.056396 130.0
484.102783 594.0
484.139038 876.0
484.216156 80.0
484.348816 32.0
484.471924 54.0
484.651031 26.0
484.732117 16.0
484.770599 26.0
484.900696 16.0
484.967407 16.0
485.111359 568.0
485.144043 726.0
485.235809 270.0
485.305145 60.0
485.376709 26.0
485.705902 20.0
485.901611 34.0
485.986542 16.0
486.070221 182.0
486.112854 412.0
486.143311 276.0
486.217804 240.0
486.258942 58.0
486.533539 28.0
486.841339 18.0
486.867645 18.0
486.899658 24.0
487.027679 64.0
487.093964 194.0
487.118958 188.0
487.234985 136.0
488.036896 72.0
488.086761 196.0
488.117371 230.0
488.180084 50.0
488.23877 526.0
488.291809 40.0
488.33313 46.0
488.609375 76.0
488.680878 28.0
488.821136 16.0
488.859619 26.0
488.95163 16.0
489.032745 64.0
489.091583 292.0
489.121124 324.0
489.17041 136.0
489.245453 206.0
489.329559 38.0
489.371399 32.0
489.438446 22.0
489.600464 24.0
489.733124 16.0
489.902557 18.0
489.927734 30.0
490.100494 1154.0
490.159973 102.0
490.242523 112.0
490.379181 20.0
490.982117 24.0
491.028503 56.0
491.107574 2910.0
491.294464 16.0
491.396637 24.0
491.724091 16.0
491.79129 16.0
492.053131 76.0
492.108948 848.0
492.226074 38.0
492.261688 28.0
492.311371 18.0
492.341278 20.0
492.46051 32.0
492.516663 16.0
492.651184 20.0
492.767609 18.0
492.936401 20.0
493.016174 40.0
493.055664 86.0
493.113861 436.0
493.239288 48.0
493.29483 34.0
493.449738 28.0
493.753082 24.0
493.955078 46.0
493.992126 20.0
494.062805 48.0
494.128357 310.0
494.196228 36.0
494.295166 16.0
494.562866 28.0
495.127014 1508.0
495.487366 20.0
495.918732 22.0
496.12442 488.0
496.248901 22.0
496.434052 26.0
496.72876 20.0
496.799957 18.0
497.048157 106.0
497.141235 1340.0
497.225586 66.0
497.280121 22.0
497.403107 30.0
497.875641 60.0
497.999207 54.0
498.143677 652.0
498.211304 78.0
498.24057 60.0
498.381439 42.0
498.582825 20.0
498.835541 22.0
498.881775 24.0
498.97644 36.0
499.115479 514.0
499.158264 488.0
499.21283 88.0
499.259613 20.0
499.838898 18.0
500.052155 70.0
500.131134 486.0
500.249847 124.0
500.275452 66.0
500.62796 80.0
500.749268 46.0
500.843719 38.0
501.101227 440.0
501.230591 178.0
501.373962 42.0
502.049652 66.0
502.108704 138.0
502.147095 112.0
502.182281 132.0
502.209259 98.0
502.256897 68.0
502.377441 16.0
502.553223 32.0
502.963562 70.0
503.059082 114.0
503.13028 266.0
503.198639 26.0
503.230682 32.0
503.258636 96.0
503.355591 22.0
503.39325 16.0
503.557861 20.0
503.665253 18.0
504.048309 16.0
504.105225 230.0
504.153809 118.0
504.192657 26.0
504.263184 24.0
504.333252 20.0
504.474518 16.0
505.018646 40.0
505.050293 48.0
505.111511 504.0
505.17215 130.0
505.233521 106.0
505.280121 48.0
505.325867 66.0
506.033478 70.0
506.089264 76.0
506.099701 60.0
506.136017 118.0
507.064514 128.0
507.121613 460.0
507.21109 38.0
507.251099 34.0
507.401978 16.0
508.037201 50.0
508.129517 310.0
508.200684 38.0
508.313141 16.0
508.84729 16.0
509.006226 58.0
509.056274 80.0
509.083862 102.0
509.143036 468.0
509.249908 68.0
509.275604 60.0
509.75647 26.0
510.00293 56.0
510.069885 136.0
510.111816 320.0
510.150269 190.0
510.183258 116.0
510.235199 22.0
511.034637 108.0
511.082001 244.0
511.132751 242.0
511.22348 110.0
511.798187 18.0
512.079773 144.0
512.118347 406.0
512.17804 126.0
512.241516 38.0
512.290222 24.0
512.97876 16.0
513.029236 40.0
513.138672 774.0
513.248108 22.0
513.768066 28.0
514.140137 362.0
514.271851 78.0
514.531677 20.0
514.820923 28.0
514.998291 18.0
515.045959 82.0
515.064453 72.0
515.104004 212.0
515.141724 392.0
515.177063 112.0
515.218567 68.0
515.257141 16.0
515.952026 42.0
515.997864 28.0
516.035278 52.0
516.067871 110.0
516.139648 230.0
516.174377 126.0
516.369141 44.0
516.779297 38.0
517.096191 214.0
517.189087 46.0
517.495178 26.0
518.019165 60.0
518.108521 274.0
518.137085 120.0
518.177979 38.0
518.248352 24.0
518.334839 52.0
518.538635 32.0
519.015503 46.0
519.094055 68.0
519.160034 236.0
519.758301 32.0
520.043823 36.0
520.114868 154.0
520.151794 132.0
520.207092 44.0
520.407349 16.0
520.450012 22.0
521.015259 58.0
521.091553 76.0
521.141174 128.0
521.175903 96.0
521.301025 16.0
522.060364 42.0
522.096375 102.0
522.125854 188.0
522.180054 102.0
522.293823 36.0
523.046814 76.0
523.133057 322.0
523.270752 32.0
523.575928 26.0
524.048828 54.0
524.07251 40.0
524.120117 298.0
524.148865 386.0
524.472229 20.0
525.0401 26.0
525.073914 142.0
525.145813 314.0
525.248657 16.0
525.314392 28.0
525.659119 38.0
525.837158 22.0
526.060791 76.0
526.13678 468.0
526.285522 20.0
526.980957 18.0
527.063232 170.0
527.095581 290.0
527.150269 460.0
527.313904 42.0
527.786743 16.0
527.863831 28.0
527.909607 26.0
528.039368 78.0
528.118896 234.0
528.158325 164.0
528.235229 134.0
528.595154 18.0
529.107239 290.0
529.133789 476.0
529.165588 324.0
529.239075 40.0
529.73584 24.0
529.982056 18.0
530.065308 80.0
530.138916 738.0
530.235413 44.0
530.426331 18.0
530.657776 20.0
531.053101 44.0
531.107605 160.0
531.146179 278.0
531.275513 22.0
532.04187 32.0
532.119507 168.0
532.187805 78.0
532.591003 44.0
533.029358 68.0
533.097961 152.0
533.108215 48.0
533.132202 122.0
533.237915 36.0
533.785339 30.0
534.036316 32.0
534.108337 244.0
534.15271 154.0
534.191467 140.0
534.234314 38.0
534.329163 22.0
534.497009 26.0
535.091797 122.0
535.130676 94.0
535.177795 144.0
535.646118 52.0
536.073547 42.0
536.124023 132.0
536.156006 164.0
536.248718 52.0
536.471375 26.0
536.526978 16.0
537.00177 16.0
537.146851 164.0
537.228638 78.0
537.258484 28.0
537.539795 26.0
537.756042 16.0
538.077271 68.0
538.091919 36.0
538.139099 236.0
538.174988 390.0
538.208984 148.0
538.348022 16.0
538.767273 22.0
539.007507 64.0
539.066284 108.0
539.109192 166.0
539.161621 258.0
539.200806 74.0
539.272827 36.0
539.56958 22.0
540.062012 182.0
540.116211 274.0
540.147339 234.0
540.719055 20.0
541.123779 206.0
541.190613 76.0
541.240234 100.0
542.021179 80.0
542.070801 74.0
542.101196 88.0
542.145874 506.0
542.183044 134.0
542.229187 60.0
542.396729 16.0
542.441284 16.0
542.783142 24.0
542.88446 58.0
543.081421 96.0
543.137634 184.0
543.29657 54.0
543.364868 24.0
544.079834 94.0
544.158325 312.0
544.228516 52.0
544.426819 16.0
544.769226 18.0
545.037292 48.0
545.10022 160.0
545.152405 226.0
545.253296 16.0
545.556641 20.0
546.087097 94.0
546.139404 202.0
546.17218 108.0
546.56781 36.0
546.908447 26.0
547.005432 58.0
547.054199 50.0
547.111572 210.0
547.149475 70.0
547.155334 112.0
547.162354 94.0
547.415527 18.0
547.897705 36.0
548.101257 120.0
548.134583 104.0
548.169373 106.0
548.233643 38.0
549.099487 70.0
549.156555 300.0
549.203369 26.0
549.335327 18.0
550.132996 362.0
551.097229 50.0
551.157654 208.0
551.205139 40.0
551.255615 46.0
551.280396 54.0
552.077148 178.0
552.11615 138.0
552.151123 330.0
552.18396 74.0
552.295166 28.0
552.357056 66.0
552.488342 72.0
553.053711 16.0
553.120667 94.0
553.172363 138.0
553.259338 50.0
553.294617 48.0
553.792847 16.0
553.945862 76.0
554.128845 386.0
554.16748 550.0
554.221069 124.0
554.259705 34.0
555.031982 28.0
555.093811 82.0
555.151001 290.0
556.038513 34.0
556.105835 116.0
556.135315 108.0
556.188782 146.0
556.267456 86.0
556.366943 16.0
557.031311 20.0
557.103333 110.0
557.129578 58.0
557.160461 206.0
557.590271 16.0
557.665588 16.0
557.723694 22.0
557.83136 16.0
558.064087 60.0
558.097168 104.0
558.138062 326.0
558.160706 224.0
558.248169 36.0
558.279724 20.0
558.315369 26.0
559.060059 24.0
559.095703 60.0
559.142212 144.0
559.176453 112.0
559.233276 94.0
560.096924 80.0
560.155579 598.0
560.209961 68.0
561.017273 22.0
561.05896 26.0
561.154785 202.0
562.098328 56.0
562.152954 40.0
562.176758 58.0
563.00061 34.0
563.065002 60.0
563.110046 80.0
563.134705 32.0
563.187744 108.0
564.148254 82.0
564.236694 18.0
564.449036 20.0
564.55304 28.0
564.733032 24.0
564.95105 16.0
565.083923 96.0
565.109497 40.0
565.161194 258.0
565.510071 22.0
566.097168 58.0
566.167664 212.0
566.246216 20.0
566.719055 16.0
567.041809 28.0
567.13269 146.0
567.14502 110.0
567.22522 52.0
567.843506 28.0
567.873901 16.0
568.082764 82.0
568.166443 214.0
568.330444 38.0
568.390625 76.0
568.942017 64.0
569.041931 78.0
569.085266 218.0
569.126465 108.0
569.160461 186.0
569.213379 36.0
569.268311 40.0
570.15094 130.0
570.228455 66.0
570.256287 40.0
570.794678 22.0
571.037964 42.0
571.142944 58.0
571.177307 172.0
571.299805 16.0
572.152039 146.0
572.174622 230.0
572.212952 24.0
572.247253 54.0
573.072571 24.0
573.162109 118.0
573.766846 20.0
573.810242 38.0
574.088196 60.0
574.131836 120.0
574.198059 134.0
574.246094 30.0
574.419495 36.0
575.082153 26.0
575.126587 34.0
575.176819 98.0
575.960205 16.0
576.145386 126.0
576.185669 100.0
576.237366 52.0
576.794983 20.0
577.021301 26.0
577.070374 40.0
577.131958 168.0
577.17749 164.0
577.259094 40.0
577.998413 16.0
578.06189 20.0
578.136353 138.0
578.168579 258.0
578.349182 32.0
579.053345 90.0
579.106934 46.0
579.147217 112.0
579.182678 148.0
579.264771 44.0
579.49823 46.0
580.055908 46.0
580.12439 46.0
580.171387 122.0
580.208313 56.0
580.264221 86.0
580.758728 18.0
580.98114 28.0
581.095642 60.0
581.146179 138.0
581.883545 18.0
582.004089 76.0
582.097412 86.0
582.159058 234.0
582.22229 78.0
582.28479 30.0
583.011475 20.0
583.049927 18.0
583.10376 54.0
583.160522 170.0
583.2146 30.0
583.260315 78.0
583.409302 42.0
583.849304 20.0
584.115234 72.0
584.175232 162.0
584.230591 44.0
584.264343 88.0
584.312622 40.0
584.400574 16.0
584.898071 16.0
585.053589 100.0
585.090942 40.0
585.140137 116.0
585.251526 80.0
585.316528 64.0
585.801025 16.0
585.998169 30.0
586.079773 50.0
586.120911 30.0
586.180786 136.0
586.214294 70.0
586.291077 64.0
587.018738 52.0
587.058289 60.0
587.109863 84.0
587.176331 108.0
587.311401 20.0
587.497803 98.0
587.711609 22.0
588.015076 64.0
588.072571 62.0
588.144897 80.0
588.174438 64.0
588.203186 40.0
588.347351 36.0
588.870117 16.0
589.15686 30.0
589.334656 16.0
590.039429 30.0
590.155945 134.0
590.237366 64.0
590.915527 16.0
591.167664 206.0
591.206543 58.0
591.242493 50.0
592.138855 154.0
592.179199 130.0
592.382629 34.0
593.01947 64.0
593.152527 190.0
593.185059 80.0
593.243835 58.0
593.640381 20.0
594.063477 44.0
594.15802 232.0
594.408142 16.0
595.025085 34.0
595.100342 44.0
595.153259 212.0
595.202942 36.0
595.268738 84.0
596.128662 52.0
596.186584 202.0
597.152344 152.0
597.184082 176.0
597.245239 52.0
597.797974 16.0
598.002625 38.0
598.15741 166.0
598.209595 86.0
598.227112 104.0
598.837708 16.0
599.021179 40.0
599.05603 26.0
599.125916 100.0
599.176636 100.0
599.245911 44.0
599.290833 80.0
599.335754 62.0
600.050293 54.0
600.097229 72.0
600.15625 140.0
600.259521 62.0
600.304749 58.0
600.988342 48.0
601.147583 74.0
601.211731 60.0
601.29718 16.0
601.870422 20.0
602.117859 112.0
602.177063 110.0
602.283508 26.0
602.443726 26.0
602.852966 26.0
603.09613 26.0
603.125488 66.0
603.169373 152.0
603.220276 96.0
603.996887 16.0
604.202881 34.0
604.261108 60.0
604.430115 20.0
604.571289 32.0
605.145203 138.0
605.184326 108.0
605.211853 104.0
605.264648 44.0
605.295166 20.0
605.909851 38.0
606.048401 30.0
606.1521 166.0
606.193176 228.0
606.688843 22.0
607.176697 130.0
607.195251 116.0
607.280334 20.0
607.987244 28.0
608.140442 128.0
608.177429 338.0
608.213745 114.0
608.247986 36.0
608.294128 46.0
608.530823 16.0
608.90686 20.0
609.080872 52.0
609.110901 54.0
609.163147 178.0
609.240906 48.0
609.991455 16.0
610.098938 38.0
610.16333 206.0
610.192871 74.0
610.22699 64.0
611.09375 64.0
611.166748 170.0
611.747864 20.0
611.980652 32.0
612.16217 194.0
612.302002 22.0
612.914001 40.0
613.008667 16.0
613.140686 238.0
613.18219 94.0
613.219727 56.0
613.350525 20.0
613.976562 16.0
614.086975 38.0
614.185242 210.0
614.733459 18.0
615.046021 36.0
615.08197 28.0
615.132751 86.0
615.18457 90.0
615.25708 50.0
615.333252 36.0
615.981567 86.0
616.025818 40.0
616.153625 78.0
616.189392 34.0
616.393677 16.0
616.928345 16.0
617.01355 16.0
617.134644 86.0
617.2146 60.0
618.152161 162.0
618.200562 72.0
618.233215 54.0
618.288208 46.0
619.104431 40.0
619.160706 60.0
619.274048 18.0
619.525452 18.0
619.764282 30.0
620.16748 96.0
620.212769 62.0
620.270325 32.0
621.069946 40.0
621.170532 116.0
621.215332 62.0
621.286133 28.0
622.110535 48.0
622.158691 176.0
622.211792 96.0
623.180725 148.0
623.238342 64.0
624.008179 32.0
624.046753 50.0
624.130676 112.0
624.172119 44.0
624.215576 232.0
624.253967 38.0
624.988586 34.0
625.052734 74.0
625.166321 270.0
625.200928 118.0
625.4552 16.0
625.774353 16.0
625.858643 42.0
626.11322 66.0
626.161682 62.0
626.203491 60.0
626.23407 56.0
626.46875 16.0
627.090454 66.0
627.123657 94.0
627.182922 48.0
627.213928 38.0
628.076904 32.0
628.12146 118.0
628.183777 76.0
628.203674 46.0
628.287598 60.0
628.77832 16.0
629.113892 62.0
629.159607 52.0
629.234314 54.0
629.281921 52.0
629.6073 46.0
629.65686 38.0
629.956604 24.0
630.13678 182.0
630.164001 98.0
630.248169 66.0
630.299133 42.0
630.355652 40.0
631.147034 68.0
631.311646 50.0
632.147034 32.0
632.197571 66.0
632.232849 26.0
632.459167 16.0
633.127686 50.0
633.204407 150.0
633.27832 36.0
634.121277 48.0
634.196655 208.0
634.258667 38.0
635.076477 36.0
635.154602 98.0
635.218201 36.0
635.547485 16.0
636.208618 458.0
636.942749 38.0
637.104004 50.0
637.137207 70.0
637.207581 388.0
637.313232 56.0
637.593567 20.0
638.09906 40.0
638.182739 90.0
638.240845 134.0
638.516052 22.0
638.992065 18.0
639.04718 72.0
639.087097 40.0
639.146973 48.0
639.179626 62.0
639.221069 106.0
640.176941 148.0
641.024048 26.0
641.088013 54.0
641.172546 158.0
641.30011 20.0
642.049438 42.0
642.138794 104.0
642.185181 118.0
642.228455 32.0
642.280151 16.0
642.767273 24.0
643.133728 44.0
643.204224 28.0
643.290894 66.0
643.558777 40.0
644.136169 68.0
644.193848 48.0
644.246948 36.0
645.136841 40.0
645.187134 82.0
645.882751 16.0
646.13855 34.0
646.188599 32.0
646.27948 30.0
646.52002 36.0
646.77478 18.0
647.12384 54.0
647.182007 70.0
647.26947 50.0
647.539551 30.0
647.878601 16.0
648.147278 42.0
648.183105 38.0
648.23291 98.0
649.13916 62.0
649.182922 126.0
649.22052 134.0
649.651672 24.0
649.755554 16.0
650.160278 84.0
650.22229 102.0
650.821167 16.0
651.063049 20.0
651.132202 34.0
651.198242 42.0
651.317505 54.0
652.056824 26.0
652.195312 88.0
652.970825 26.0
653.193848 58.0
653.25824 26.0
653.296387 46.0
653.433777 20.0
653.774475 22.0
653.948853 38.0
654.160461 128.0
654.193542 290.0
654.260559 94.0
654.320618 28.0
654.614868 30.0
655.084839 50.0
655.121887 64.0
655.189453 342.0
655.237244 132.0
656.152161 22.0
656.197693 214.0
656.296448 38.0
656.4198 20.0
656.47699 16.0
656.858826 36.0
656.932617 22.0
657.136353 44.0
657.181885 180.0
657.707642 16.0
658.040283 60.0
658.177734 576.0
658.256714 50.0
658.531067 34.0
659.187988 554.0
659.256531 114.0
660.121338 26.0
660.179749 96.0
660.451111 16.0
661.168335 36.0
661.226562 42.0
662.144226 40.0
662.228027 70.0
663.216309 92.0
664.177612 80.0
664.221802 54.0
664.867126 26.0
665.161682 76.0
665.199219 52.0
665.250916 38.0
665.309021 18.0
666.045654 16.0
666.152222 28.0
666.19873 104.0
666.238403 94.0
666.300842 16.0
666.591064 24.0
667.079163 90.0
667.217712 190.0
668.125427 36.0
668.203186 88.0
668.245728 72.0
668.278687 60.0
669.082458 34.0
669.161377 34.0
669.214783 48.0
669.253418 78.0
669.524292 16.0
670.186279 84.0
670.700989 16.0
670.738159 16.0
671.093445 16.0
671.151123 44.0
671.191406 72.0
671.246643 30.0
672.090149 48.0
672.118652 56.0
672.195557 102.0
672.250977 56.0
672.399719 16.0
673.177063 74.0
673.225098 36.0
674.232849 104.0
674.336426 48.0
675.172668 48.0
675.225708 68.0
676.190125 38.0
676.239807 52.0
676.500488 16.0
676.840698 16.0
676.936584 46.0
677.052979 70.0
677.131165 20.0
677.198486 148.0
677.635681 20.0
678.003052 16.0
678.19751 42.0
678.226868 36.0
678.351929 16.0
678.817261 20.0
679.221375 82.0
680.082214 46.0
680.163879 74.0
680.189209 102.0
680.263184 34.0
680.305237 50.0
680.948364 24.0
681.121399 38.0
681.1745 76.0
682.13562 20.0
682.16571 34.0
682.205994 24.0
682.25293 34.0
683.200195 54.0
683.280579 74.0
684.230347 192.0
684.438843 18.0
685.209534 204.0
685.265015 48.0
685.724609 16.0
686.14624 60.0
686.214111 98.0
686.254639 52.0
686.967896 30.0
687.182434 106.0
687.21167 88.0
688.185425 38.0
688.216187 86.0
688.251099 34.0
688.308716 58.0
688.979858 18.0
689.20343 50.0
689.240662 54.0
690.203186 72.0
691.221985 130.0
691.285645 66.0
691.961914 16.0
692.246033 114.0
692.277161 70.0
693.206421 62.0
693.249207 84.0
693.302002 40.0
694.057495 48.0
694.174316 116.0
694.24762 52.0
694.356445 30.0
694.843079 16.0
695.175415 28.0
695.210388 62.0
695.263489 60.0
696.110779 30.0
696.160339 48.0
696.218872 290.0
696.871033 16.0
696.929993 16.0
697.051453 48.0
697.13208 18.0
697.17511 30.0
697.224854 176.0
697.336548 24.0
697.925903 20.0
697.974609 16.0
698.233948 90.0
699.091919 24.0
699.22345 92.0
699.990234 16.0
700.094788 62.0
700.153992 68.0
700.21637 72.0
700.263 78.0
700.800659 16.0
701.070923 18.0
701.149963 38.0
701.229919 88.0
701.288635 26.0
701.34967 16.0
702.207153 36.0
702.257629 26.0
702.932434 16.0
703.078735 66.0
703.11969 50.0
703.204468 64.0
703.339905 46.0
703.63208 36.0
703.920166 16.0
704.246338 38.0
705.080505 28.0
705.111938 34.0
706.236694 36.0
706.276978 20.0
706.953308 16.0
707.258728 16.0
707.614929 68.0
708.219421 22.0
708.288818 68.0
709.121216 38.0
709.18927 40.0
709.317993 74.0
710.121643 38.0
710.192871 42.0
710.270386 68.0
710.340027 62.0
711.140747 34.0
711.208496 36.0
711.25354 170.0
712.178406 166.0
712.227112 56.0
712.264221 36.0
713.177246 76.0
714.087097 26.0
714.183533 42.0
714.234253 564.0
714.312378 58.0
714.360291 48.0
715.144836 62.0
715.220581 294.0
716.160034 32.0
716.219177 34.0
716.267395 26.0
717.082397 20.0
717.132996 50.0
717.191345 20.0
717.230896 64.0
717.266541 32.0
718.21637 114.0
718.352234 44.0
719.234436 60.0
719.347839 16.0
720.053894 18.0
720.128662 20.0
720.195679 50.0
720.236267 62.0
720.275818 60.0
721.103821 36.0
722.24408 40.0
722.328552 84.0
723.135925 60.0
723.19873 42.0
723.374573 16.0
724.237549 108.0
724.460144 70.0
725.096069 36.0
725.161011 36.0
725.238892 98.0
726.122314 28.0
726.15332 34.0
726.229492 584.0
726.352783 36.0
726.741699 16.0
727.146118 40.0
727.223328 268.0
727.30304 42.0
727.644897 16.0
728.175659 52.0
728.235657 114.0
728.276917 36.0
729.137024 50.0
729.219788 44.0
730.194946 38.0
731.17926 26.0
732.252747 154.0
732.312561 36.0
733.248535 86.0
734.752502 16.0
735.128052 30.0
735.210388 22.0
735.285278 52.0
735.43573 16.0
735.703979 16.0
736.102234 40.0
736.25116 26.0
737.067383 60.0
737.201904 46.0
738.254272 48.0
738.410278 16.0
739.142944 16.0
739.238342 16.0
740.102112 48.0
740.348877 16.0
741.868591 16.0
742.215759 38.0
743.227356 30.0
743.616028 16.0
744.046143 42.0
744.238281 106.0
744.276733 28.0
745.115234 34.0
745.187683 54.0
746.232117 32.0
747.324707 166.0
748.211487 26.0
748.276794 30.0
748.319641 38.0
749.233459 26.0
749.276794 40.0
750.194458 52.0
751.124939 38.0
751.25061 56.0
751.771545 16.0
752.233704 58.0
752.330566 36.0
753.220947 74.0
754.262451 104.0
754.371643 54.0
755.223938 20.0
756.312622 70.0
757.318115 16.0
758.345703 36.0
758.738586 22.0
759.111023 46.0
759.246765 88.0
759.611023 16.0
760.2901 20.0
760.534424 16.0
761.080139 34.0
761.253357 100.0
762.138977 24.0
762.240173 36.0
762.343445 40.0
763.060242 52.0
763.229126 50.0
764.904053 16.0
765.115112 40.0
765.186401 16.0
765.225708 36.0
766.241028 24.0
766.287598 30.0
767.237244 18.0
768.272888 72.0
768.344238 36.0
768.517395 50.0
768.640442 16.0
769.118103 16.0
769.289612 52.0
770.251099 40.0
770.286072 44.0
770.405823 16.0
770.906128 16.0
771.218384 26.0
771.256042 18.0
772.061646 42.0
773.249756 40.0
774.12262 28.0
774.297607 52.0
775.163879 16.0
775.248352 40.0
775.347412 32.0
776.264709 84.0
776.322754 16.0
777.279419 64.0
777.319031 68.0
777.562134 48.0
777.901184 16.0
778.213257 60.0
778.27594 116.0
778.322266 40.0
779.250854 72.0
779.274292 36.0
779.286255 54.0
780.2854 28.0
780.318542 18.0
780.626038 16.0
781.250671 38.0
782.106201 16.0
782.223206 66.0
782.815613 30.0
783.203247 46.0
783.235901 34.0
783.280518 82.0
783.641357 16.0
783.784241 16.0
784.240417 102.0
785.043945 16.0
785.079712 16.0
785.258484 18.0
785.380127 40.0
786.331299 24.0
787.234802 64.0
788.276184 18.0
789.267456 36.0
790.101868 16.0
790.252258 26.0
791.344849 24.0
792.273254 16.0
792.327148 16.0
793.29718 16.0
794.196106 52.0
795.774353 16.0
796.268188 262.0
796.319824 38.0
796.381897 16.0
797.276062 80.0
797.288025 140.0
797.790649 38.0
798.183289 22.0
798.27771 234.0
798.387207 34.0
798.570862 26.0
799.25293 88.0
799.289673 38.0
799.325195 58.0
800.110718 22.0
800.240417 78.0
800.284546 16.0
800.3396 38.0
800.97052 16.0
801.237732 42.0
801.269592 38.0
802.281616 48.0
802.650574 16.0
802.795166 20.0
803.282654 36.0
803.708313 16.0
804.306396 92.0
804.500061 34.0
804.658142 16.0
805.293274 200.0
806.038757 38.0
806.309631 210.0
806.410706 48.0
807.182434 18.0
807.331909 100.0
807.443298 56.0
808.270386 132.0
808.338867 72.0
808.807739 16.0
809.272583 44.0
809.424744 16.0
810.377991 16.0
812.293396 46.0
812.336792 36.0
812.455261 56.0
813.297302 58.0
813.422913 16.0
813.648254 24.0
813.857605 34.0
813.90918 30.0
814.229126 76.0
814.283325 714.0
814.358032 88.0
815.142334 50.0
815.284607 334.0
815.354919 40.0
815.64447 26.0
816.270874 330.0
816.753967 18.0
817.264709 76.0
817.686218 16.0
818.2995 34.0
818.554199 36.0
818.74469 18.0
819.246094 50.0
821.313538 26.0
822.307129 336.0
822.387512 44.0
822.708557 20.0
823.30896 184.0
823.432861 50.0
824.298401 190.0
824.431885 16.0
825.142578 58.0
825.302368 78.0
825.870483 16.0
826.280762 1344.0
826.390991 28.0
826.440735 38.0
827.287048 436.0
827.338562 140.0
827.40094 40.0
827.457031 32.0
827.509827 26.0
827.608887 34.0
827.961914 16.0
828.01239 44.0
828.078857 20.0
828.169006 26.0
828.282288 328.0
828.341248 102.0
828.480591 16.0
828.836304 22.0
829.125671 32.0
829.286133 50.0
829.52301 16.0
830.044373 20.0
830.248169 34.0
830.295105 44.0
830.690247 16.0
830.954712 20.0
831.092346 24.0
831.625549 24.0
831.830688 16.0
832.097534 16.0
832.362183 24.0
832.539551 32.0
833.164917 46.0
837.160461 40.0
837.927734 18.0
838.892944 16.0
840.233154 16.0
840.813599 20.0
841.121094 18.0
841.833557 18.0
842.052917 24.0
842.295959 1530.0
842.443909 36.0
842.783325 40.0
842.911682 28.0
843.139771 30.0
843.184082 54.0
843.304321 622.0
843.444946 34.0
843.620789 16.0
843.736633 16.0
843.771606 20.0
843.805847 20.0
843.937683 34.0
843.97229 44.0
844.02655 32.0
844.073792 58.0
844.156555 24.0
844.292419 21018.0
844.528015 86.0
844.567444 94.0
844.623169 84.0
844.691284 20.0
844.79541 38.0
844.843079 32.0
844.891052 20.0
844.960388 24.0
845.015625 38.0
845.09314 54.0
845.294006 8862.0
845.397095 314.0
845.486206 60.0
845.525635 24.0
845.570251 24.0
845.619446 24.0
845.686035 18.0
845.725281 16.0
845.766296 46.0
845.845459 42.0
845.888916 30.0
845.92865 38.0
845.970398 64.0
846.018555 60.0
846.079163 72.0
846.296692 2400.0
846.532959 36.0
846.567078 34.0
846.736755 16.0
846.836792 56.0
846.885315 20.0
847.046997 46.0
847.107605 48.0
847.156677 56.0
847.256653 128.0
847.303162 416.0
847.430359 58.0
847.470215 18.0
847.525208 32.0
847.620239 48.0
847.662048 54.0
847.781799 32.0
847.820923 28.0
847.897461 26.0
848.070312 44.0
848.180786 20.0
848.24115 24.0
848.304626 82.0
848.522156 36.0
848.56189 34.0
848.684509 24.0
848.747559 16.0
849.155273 34.0
849.219238 24.0
849.25415 20.0
849.368591 30.0
849.399719 52.0
849.444885 30.0
849.661255 28.0
849.700378 16.0
849.869324 26.0
849.912048 28.0
849.963257 18.0
850.070251 22.0
850.109558 38.0
850.244446 16.0
850.530212 28.0
850.886597 26.0
851.037781 22.0
851.28186 16.0
852.352539 16.0
852.480713 18.0
852.512695 24.0
852.650574 16.0
852.687805 16.0
853.113892 18.0
853.400574 36.0
855.430664 20.0
858.042908 16.0
858.893433 16.0
860.242554 28.0
861.252991 20.0
861.29303 36.0
861.328186 32.0
861.644104 16.0
861.955566 32.0
863.307129 56.0
863.527222 16.0
865.914368 32.0
866.463745 16.0
868.826843 16.0
869.26416 16.0
871.240295 16.0
871.579285 16.0
875.718445 16.0
879.120056 16.0
881.808167 16.0
887.281372 44.0
890.553955 16.0
891.42041 16.0
892.639893 16.0
898.472534 16.0
899.86908 16.0
901.008179 16.0
901.659424 16.0
902.138367 16.0
902.45459 16.0
905.370117 16.0
913.036072 16.0
913.421631 16.0
916.702454 16.0
916.912415 22.0
917.320679 16.0
919.28302 16.0
921.238647 60.0
921.944641 16.0
935.15448 16.0
936.227783 16.0
938.02948 16.0
939.233765 22.0
941.437317 16.0
943.219482 16.0
943.729004 16.0
945.724609 60.0
946.612244 16.0
951.452026 16.0
961.371277 16.0
963.706909 16.0
966.025513 16.0
967.612488 16.0
970.700867 16.0
972.709534 16.0
973.301086 84.0
976.035217 16.0
979.646179 16.0
981.546509 26.0
981.594055 16.0
981.753967 16.0
988.040771 16.0
989.013672 16.0
989.234375 16.0
992.598083 38.0
993.060608 16.0
997.045288 16.0
1001.298157 28.0
1005.392578 16.0
1015.8172 16.0
1018.0755 16.0
1018.655701 16.0
1023.915894 16.0
1027.59375 16.0
1028.473389 16.0
1031.30835 72.0
1031.372803 24.0
1032.800049 16.0
1033.241699 38.0
1033.91272 16.0
1037.300293 16.0
1039.078369 16.0
1040.425781 16.0
1042.237549 16.0
1049.06604 16.0
1052.25061 16.0
1052.685303 16.0
1054.352295 16.0
1059.973633 16.0
1065.037476 16.0
1066.193237 16.0
1068.704346 28.0
1070.134155 16.0
1070.713623 36.0
1071.605957 16.0
1072.671387 16.0
1073.737183 16.0
1075.070312 16.0
1076.508911 16.0
1080.657593 16.0
1083.39624 16.0
1086.243408 16.0
1092.075806 76.0
1092.539551 16.0
1095.187622 16.0
1096.48645 16.0
1097.447876 16.0
1104.751465 16.0
1114.407959 26.0
1114.750977 16.0
1115.240967 16.0
1116.402344 16.0
1119.644897 16.0
1121.449463 16.0
1131.577637 16.0
1136.314819 16.0
1144.868652 16.0
1160.659302 16.0
1169.271484 16.0
1172.840942 16.0
1175.945557 16.0
1178.994019 16.0
1179.569092 16.0
1179.810059 16.0
1187.673706 16.0
1189.064697 16.0
1192.245728 16.0
1194.019775 16.0
1194.317383 16.0
1198.697876 16.0
1201.836426 16.0
1203.263428 16.0
1203.794678 16.0
1204.685669 16.0
1204.768799 16.0
1209.013062 16.0
1210.072998 32.0
1217.056763 16.0
1218.27002 16.0
1219.572998 16.0
1219.974121 16.0
1220.291016 38.0
1222.4823 16.0
1223.31958 34.0
1226.366577 16.0
1228.646606 16.0
1230.671143 16.0
1232.171143 16.0
1233.649658 16.0
1246.241211 16.0
1247.626709 16.0
1253.31189 16.0
1253.983887 16.0
1256.521118 16.0
1256.747314 16.0
1257.0979 16.0
1258.760986 16.0
1259.643921 16.0
1260.436523 16.0
1264.482788 16.0
1274.06311 16.0
1274.313599 16.0
1274.473022 16.0
1275.520996 16.0
1281.805908 16.0
1282.879761 16.0
1283.725342 16.0
1286.389648 16.0
1289.732666 16.0
1290.259644 16.0
1293.469971 16.0
1296.626709 18.0
1298.890503 16.0
1301.749023 16.0
1304.82373 16.0
1306.708374 16.0
1312.670898 16.0
1323.121948 16.0
1324.020142 90.0
1327.505737 16.0
1330.168579 82.0
1331.070435 16.0
1335.903198 70.0
1341.483398 16.0
1342.967529 16.0
1343.224731 16.0
1344.277222 16.0
1345.669312 16.0
1347.553955 16.0
1348.069214 16.0
1355.316895 16.0
1359.900757 16.0
1362.525269 16.0
1365.068848 40.0
1366.760376 72.0
1367.227295 16.0
1368.029541 16.0
1371.559448 16.0
1371.808105 24.0
1372.138428 18.0
1376.863892 52.0
1378.822632 16.0
1384.377808 64.0
1384.53772 16.0
1384.953247 16.0
1386.283081 16.0
1391.677246 30.0
1392.52478 98.0
1394.490234 16.0
1396.635254 16.0
1397.213379 16.0
1400.47644 26.0
1400.583862 16.0
1400.715454 30.0
1401.974976 16.0
1404.012085 16.0
1404.077271 32.0
1405.093994 18.0
1406.595093 16.0
1408.480469 26.0
1414.514038 16.0
1419.161377 60.0
1419.804688 46.0
1420.447021 70.0
1421.613281 16.0
1422.268799 16.0
1423.159424 66.0
1425.997559 18.0
1427.144409 32.0
1427.741699 16.0
1430.816895 16.0
1431.782349 16.0
1431.854004 66.0
1433.874268 32.0
1436.950439 24.0
1437.654419 16.0
1437.772339 24.0
1438.622192 16.0
1439.463257 94.0
1441.345215 30.0
1443.692993 18.0
1446.309082 16.0
1452.521484 16.0
1455.684814 16.0
1458.716797 16.0
1459.240723 16.0
1462.293579 38.0
1464.888062 16.0
1465.071167 16.0
1466.805542 16.0
1468.418579 16.0
1471.757568 16.0
1474.598022 16.0
1475.553589 16.0
1476.950806 16.0
1479.145874 58.0
1481.158691 16.0
1482.423462 16.0
1485.753784 16.0
1495.273438 16.0
END IONS
