BEGIN IONS
PEPMASS=769.4
CHARGE=1
MSLEVEL=2
SOURCE_INSTRUMENT=LC-ESI-Hybrid FT
FILENAME=f.novakj/siderophores/Desferri_coprogen.mzXML;
SEQ=*..*
IONMODE=Positive
ORGANISM=GNPS-LIBRARY
NAME=Coprogen M+H
PI=Havlicek
DATACOLLECTOR=
SMILES=CC(=O)NC(CCCN(O)C(=O)\C=C(/C)CCO)C(=O)OCC\C(C)=C\C(=O)N(O)CCCC1NC(=O)C(CCCN(O)C(=O)\C=C(/C)CCO)NC1=O
INCHI=
INCHIAUX=
PUBMED=27956353
SUBMITUSER=novakj
TAGS=
LIBRARYQUALITY=3
SPECTRUMID=CCMSLIB00001059084
SCANS=1
172.915375 726664.0
173.092117 662493.0
173.496414 2403709.0
243.133881 818405.0
288.345337 8322784.0
355.197479 2014831.0
391.106201 1395652.0
397.196808 2486561.0
467.249847 1034360.0
473.147919 1103610.0
485.260651 753669.0
527.271057 1743366.0
581.218445 915277.0
581.30365 1074179.0
621.323914 945565.0
639.323303 2096117.0
639.334473 2884482.0
640.337585 1041441.0
655.381104 1936251.0
657.345032 1997498.0
687.320374 914396.0
739.274719 1215462.0
751.386902 4898718.0
752.390198 1952877.0
769.248108 1991530.0
769.285095 3500970.0
769.338074 1421550.0
769.361023 877543.0
769.373596 2912500.0
769.3974 16323376.0
END IONS
