BEGIN IONS
PEPMASS=778.33
CHARGE=1
MSLEVEL=2
SOURCE_INSTRUMENT=LC-ESI-qTof
FILENAME=f.mernst/3DModels/spectral_data_ms2_v110.mgf;
SEQ=*..*
IONMODE=Positive
ORGANISM=GNPS-LIBRARY
NAME=Miliiamine C, 20-Ac, N-de-Me - ingenol diterpenoid M+H
PI=Dorrestein
DATACOLLECTOR=mernst
SMILES=CC(C(OC(C1=CC=CC=C1/N=C(O)/C2=C(/N=C(O)/C3=C(NC)C=CC=C3)C(O)=CC=C2)=O)C4(O)C5O)=CC46C(CC(C(C)7C)C7C(C6=O)C=C5COC(C)=O)C
INCHI=InChI=1S/C44H47N3O10/c1-22-20-43-23(2)18-30-34(42(30,4)5)29(37(43)51)19-25(21-56-24(3)48)36(50)44(43,55)38(22)57-41(54)27-13-8-10-16-32(27)46-40(53)28-14-11-17-33(49)35(28)47-39(52)26-12-7-9-15-31(26)45-6/h7-17,19-20,23,29-30,34,36,38,45,49-50,55H,18,21H2,1-6H3,(H,46,53)(H,47,52)
INCHIAUX=
PUBMED=
SUBMITUSER=lfnothias
TAGS=
LIBRARYQUALITY=3
SPECTRUMID=CCMSLIB00004678652
SCANS=1581
106.070824 236.0
116.048279 168.0
120.041649 3232.0
121.042679 232.0
134.057724 12700.0
135.063187 848.0
136.036011 400.0
138.056152 1192.0
139.10817 468.0
143.084 168.0
149.085693 300.0
152.069702 248.0
157.091049 244.0
159.088593 248.0
161.074326 432.0
162.015991 252.0
169.097473 256.0
171.104813 672.0
173.101898 548.0
175.073929 456.0
176.066742 476.0
181.099884 520.0
183.112976 416.0
185.11113 288.0
187.100189 280.0
195.081497 308.0
196.108627 276.0
197.11763 1076.0
198.11676 308.0
199.099854 192.0
200.117218 244.0
201.085297 340.0
203.116592 160.0
207.112534 312.0
208.120728 176.0
209.116699 876.0
210.102127 168.0
211.102524 1128.0
212.125809 296.0
213.109329 312.0
214.11676 204.0
215.100784 288.0
217.085495 556.0
219.130234 808.0
221.141205 360.0
223.093582 540.0
225.121658 2124.0
226.13002 212.0
227.104385 2656.0
228.094299 180.0
229.093994 364.0
234.136078 236.0
235.106491 1240.0
237.132812 656.0
238.109787 244.0
239.113174 2384.0
240.115585 512.0
241.108383 204.0
243.087189 320.0
244.112991 236.0
245.104538 460.0
246.112366 292.0
249.153549 1700.0
250.152756 580.0
251.075699 5976.0
251.168762 976.0
252.077133 1588.0
253.127747 2948.0
254.130753 776.0
255.073334 6204.0
256.07486 656.0
257.116547 496.0
263.124634 180.0
265.135315 156.0
266.153839 308.0
267.071899 1916.0
267.168396 16152.0
267.566742 376.0
267.735504 780.0
267.856537 708.0
268.076508 604.0
268.174042 2796.0
268.649841 480.0
268.864441 1120.0
268.953979 1984.0
269.087097 432448.0
269.301544 1300.0
269.475159 1300.0
269.685883 1544.0
270.088074 71656.0
270.477173 520.0
270.566132 532.0
270.852142 308.0
271.090942 6180.0
271.68161 264.0
271.815887 160.0
272.088898 188.0
273.080475 1220.0
274.108124 276.0
275.15567 184.0
277.14917 4640.0
278.155579 1316.0
279.168121 328.0
281.084351 596.0
285.180573 1352.0
286.187012 260.0
291.076782 192.0
295.064606 408.0
295.163239 29236.0
295.316711 248.0
296.164795 5392.0
297.157928 484.0
298.169037 232.0
309.183563 216.0
311.108337 284.0
312.127655 240.0
313.173798 11392.0
314.179718 2284.0
315.173981 384.0
319.172729 448.0
321.140472 416.0
323.108582 440.0
324.129913 244.0
327.174286 400.0
328.200867 336.0
331.184998 156.0
337.172913 1216.0
338.179565 420.0
339.148895 764.0
339.623749 180.0
354.282166 204.0
355.18045 4488.0
356.1875 1544.0
357.160889 160.0
370.10965 452.0
373.191711 4028.0
374.194031 664.0
383.149292 664.0
388.12146 10916.0
389.126282 3644.0
390.133545 232.0
396.188934 828.0
397.185547 264.0
402.20282 364.0
404.106873 252.0
405.095093 176.0
406.132172 8044.0
407.131317 2052.0
410.213806 516.0
411.189667 388.0
412.175995 204.0
414.19809 4944.0
415.19104 524.0
416.207489 180.0
418.107635 228.0
428.207733 1064.0
429.13501 232.0
429.218628 308.0
430.190521 728.0
431.169342 232.0
432.206543 7364.0
433.210846 2396.0
434.212158 160.0
446.227325 1468.0
447.211395 256.0
450.110504 164.0
470.245148 212.0
474.213257 508.0
488.226959 312.0
492.230896 3744.0
493.224945 1200.0
506.233765 284.0
510.240479 5808.0
511.242981 1120.0
512.237183 340.0
535.256531 168.0
537.230042 224.0
545.224854 344.0
546.245667 156.0
549.227966 344.0
550.2276 256.0
563.242615 2488.0
564.246033 704.0
565.257935 156.0
567.219971 664.0
581.218689 392.0
582.243103 216.0
605.220032 172.0
623.261108 704.0
624.251587 156.0
627.253235 680.0
641.280579 1520.0
642.269287 712.0
682.270874 508.0
696.038391 168.0
700.300659 3052.0
701.297424 1944.0
702.299194 332.0
718.299622 5696.0
719.311584 2088.0
720.336487 248.0
742.308228 380.0
760.318176 3712.0
761.31842 1364.0
762.320374 552.0
774.129761 316.0
774.293884 392.0
775.492493 284.0
775.777283 296.0
776.547302 312.0
777.53125 412.0
777.731812 592.0
778.070312 824.0
778.327942 147556.0
779.074585 632.0
779.328857 77396.0
780.328613 17704.0
781.332397 1004.0
786.255188 152.0
END IONS
