BEGIN IONS
PEPMASS=693.289
CHARGE=1
MSLEVEL=2
SOURCE_INSTRUMENT=LC-ESI-qTof
FILENAME=7b_13b_17-O-triacetoxy-5a-O-benzoyloxy-15b-hydroxy-3b-O-propanoyloxy-14-oxopremyrsinol.mgf
SEQ=*..*
IONMODE=Positive
ORGANISM=GNPS-LIBRARY
NAME="7_,13_,17-O-triacetoxy-5_-O-benzoyloxy-7,13,17-O-triacetyl-5-O-benzoyl-3-O-propanoyl-14-oxopremyrsinol" M+Na
PI=LITAUDON/TOUBOUL
DATACOLLECTOR=Esposito
SMILES=O=C1[C@@](C)(OC(C)=O)[C@@]2([H])[C@]([C@H](OC(C)=O)C[C@@]3([H])[C@]2([H])C3(C)C)(COC(C)=O)[C@H](OC(C4=CC=CC=C4)=O)[C@@]5([H])[C@@H](OC(CC)=O)[C@@H](C)C[C@@]51O
INCHI=
INCHIAUX=
PUBMED=N/A
SUBMITUSER=lfnothias
TAGS=
LIBRARYQUALITY=1
SPECTRUMID=CCMSLIB00000840345
SCANS=1
57.033512 202.766006
57.069424 106.120003
69.034142 102.207199
69.069908 199.877808
77.038719 801.018921
79.053268 185.355392
81.069931 222.012497
83.011604 168.029205
91.169144 46.520828
93.068878 113.671303
95.083618 148.032593
97.025711 321.968811
97.422104 47.080132
99.044823 60.720242
104.061249 76.201668
105.033554 3607.238037
105.076195 75.235474
105.410851 52.5984
107.0858 361.429413
111.078323 112.5
115.054588 170.556198
117.069283 106.384598
119.048576 100.676804
119.082458 207.3535
119.408951 44.125
121.099976 128.223907
123.07988 235.041702
125.020813 126.027802
125.057632 84.183441
129.069321 92.1875
131.086105 132.445007
132.0849 96.462914
133.101456 226.012405
134.102844 91.030296
135.116745 242.0
137.094833 143.253098
141.068344 451.644714
142.07843 70.98349
143.086624 675.045288
143.736191 60.022961
145.025879 130.809006
145.06543 274.520294
145.100586 201.210495
147.078934 148.345703
149.093399 75.22715
151.073135 323.035797
152.076553 47.845001
155.084717 58.920921
156.091553 120.0952
157.06427 114.612396
157.101151 153.122696
159.114853 234.628204
161.095642 420.864197
165.065704 65.951218
167.086151 490.666901
169.065521 166.554199
169.101837 562.844116
171.075592 171.2314
171.116211 839.02063
171.311935 55.422409
171.40123 45.322369
173.093735 347.925995
173.130112 95.578583
175.111877 631.40033
177.092804 109.084
178.997849 62.0
179.083832 136.698105
179.103638 83.08036
181.08342 143.7659
181.101746 557.909607
183.078293 136.474594
183.116562 717.095886
185.096725 376.560089
185.131287 55.041672
187.035385 47.224998
187.075562 100.698196
187.109436 431.946686
189.089737 289.862091
189.127869 50.81818
193.100632 578.41333
193.417526 60.111111
194.106049 79.166206
195.086487 193.009903
195.117264 1142.505005
196.020309 46.43214
196.115936 60.911369
197.096268 665.733582
197.131958 580.856018
198.070328 48.125
198.098831 170.946899
199.075348 82.222816
199.112534 699.515015
199.304337 76.008621
200.117233 233.216202
201.054565 54.25
201.090302 137.306793
201.127319 192.086502
201.486588 46.958328
203.081161 80.324997
203.105576 124.014702
205.098328 80.583344
207.117676 1420.709961
208.125763 103.117599
209.097549 325.225189
209.132675 812.369324
209.19722 80.340424
210.104614 292.590393
210.13475 52.57143
211.076004 103.207497
211.111633 957.375916
211.143478 119.5
212.11824 310.963196
213.12674 292.213715
215.140228 165.845093
215.674088 48.3689
216.114456 166.795502
217.119278 70.355392
219.077026 77.25
219.114395 283.515808
220.126144 54.219589
221.096466 265.948914
222.137924 48.79348
223.111099 523.558899
223.144226 122.266502
224.063705 47.066669
224.115067 88.612808
224.794922 45.78178
225.093094 207.038101
225.125961 1225.696045
225.163513 467.888885
225.436417 44.544491
227.102875 134.451294
227.14238 95.635567
228.117371 75.08696
229.575729 53.0
232.125641 89.47406
233.09668 83.529411
233.130981 175.220093
234.102127 265.831085
234.141754 385.161987
235.111496 758.247192
235.148071 860.444214
236.117264 108.227097
236.152176 167.769196
237.086777 192.002396
237.127655 407.109589
237.161072 207.885895
238.133942 82.533234
239.108185 376.319702
239.13974 330.223389
239.179825 652.050903
239.840515 78.225754
240.115326 287.891693
241.156586 182.645798
242.586121 49.654072
243.138458 192.361099
243.17601 57.64286
244.125412 307.640106
247.112579 50.157051
247.143875 112.003197
248.121887 49.785709
249.123993 50.0
249.16452 1942.827026
250.111954 105.625
250.161636 135.2397
250.258438 65.699997
251.143082 311.881805
251.178406 885.092224
251.414719 56.73975
252.110458 78.003197
252.150909 248.923096
252.18158 74.01786
253.121597 605.494019
253.159042 2427.1521
253.395126 43.84808
253.43956 51.456821
253.467667 80.449997
253.549881 82.219513
255.137558 225.382996
255.16774 141.0
257.11554 106.563004
258.136139 60.100349
259.146942 496.880005
260.167755 93.773247
261.157898 96.396133
262.134949 443.547089
265.157654 824.905029
265.641235 52.285709
267.174957 7134.829102
267.244843 143.369995
267.439972 84.308167
267.590027 53.13306
267.714142 53.222832
267.922119 67.333344
268.176788 206.857101
268.292908 49.0
268.641479 52.23156
269.113831 51.174999
269.148987 81.053574
271.168854 95.248528
273.110138 235.078201
276.149567 47.909088
277.158997 3392.218994
277.589813 75.22715
277.700226 50.375
277.990295 58.395161
278.15802 54.226849
279.131439 104.671402
280.144226 113.020798
281.153168 96.380737
283.170593 557.56073
285.186127 504.537292
287.147583 230.198593
289.158081 268.134491
291.171509 261.245911
293.193726 209.224396
295.169861 5538.338867
295.250305 80.202271
295.567261 58.674999
296.169922 299.180786
297.192413 57.207142
299.14151 204.220093
301.172546 75.201607
302.120361 50.792912
304.143005 54.42857
305.147736 66.001663
309.146118 115.777802
309.183655 186.511703
313.178925 1069.936035
317.151001 3551.064941
317.227539 50.08036
317.605865 72.806419
318.156921 164.385605
323.202881 217.923904
327.158051 51.111839
327.192505 175.197403
327.815155 57.358051
328.193146 48.484852
333.182526 49.0
335.122955 64.510246
335.168793 282.651001
337.17804 415.13681
340.452087 96.462914
341.210968 692.113892
347.308502 46.06377
349.17688 322.248199
351.195007 245.694107
353.214478 67.842102
355.191162 692.328796
359.163574 389.510712
359.219666 44.015629
363.191162 75.545464
363.816345 51.240379
369.156738 87.698982
369.205627 1907.55603
370.211945 67.102272
371.193176 139.222595
373.194794 91.560493
374.197083 61.329922
377.174469 1566.436035
377.540497 43.598679
378.169434 88.004387
391.187683 3654.761963
391.564423 49.103809
391.846252 92.493423
392.532715 61.50893
395.184082 234.9534
399.147217 115.569
399.190063 54.125
405.134369 50.81818
405.647705 44.036289
409.198608 1807.220947
409.956207 48.025002
411.193329 91.344048
417.204712 544.380188
419.176117 197.0047
421.166443 63.833328
423.210968 118.001503
433.225403 55.36742
433.643158 95.055183
435.217621 162.708298
437.194366 881.759399
439.18573 218.877808
445.239868 70.155769
451.209473 4168.327148
451.644958 47.112499
451.876068 46.36742
452.209808 379.18399
452.569885 47.241379
455.203064 572.383789
469.220795 496.11911
470.217346 58.235291
471.219666 71.570312
483.235809 676.786987
491.242737 299.447998
497.215973 58.471149
499.204956 262.082794
500.415741 51.654072
511.122162 114.827797
511.229431 6522.708008
511.349243 50.049999
511.886719 52.662239
512.230713 387.531006
513.224243 5226.833984
513.373901 75.089287
513.494995 115.204498
513.554626 57.142441
513.642822 46.450001
513.704224 64.271744
514.017212 140.081696
514.229919 487.828003
514.344238 46.120098
515.22821 58.10714
531.235474 61.529411
551.262512 529.254517
552.264709 53.43269
559.227112 164.428604
560.227966 95.845001
571.249268 586.775696
573.192139 67.0
573.246521 16729.279297
573.380371 195.016998
573.455261 57.6875
573.506165 109.247902
573.549683 83.01136
573.603333 94.050003
573.684814 74.028572
573.851562 60.25
573.892578 62.290321
573.985474 86.941261
574.017944 97.103813
574.184814 128.489807
574.251404 1274.547974
574.331055 86.28125
574.493469 53.0
575.844421 50.083328
576.266541 60.288269
589.278015 90.442307
591.258362 87.013237
605.27301 222.120102
614.358643 66.401657
631.057861 56.004631
633.2677 43506.339844
633.691345 82.890472
633.719116 46.994659
633.783569 69.958977
633.884888 123.6194
633.970764 148.676498
634.023438 45.591461
634.086853 77.206909
634.269409 2962.077881
634.366638 53.384621
634.410583 50.07692
634.440491 177.562103
634.520081 108.3731
634.657043 57.305569
634.734131 65.420692
634.818115 61.875
634.866516 44.500992
634.90271 47.39082
634.938599 108.111504
635.078247 47.46944
635.169556 56.470749
635.348328 67.764709
635.476807 52.035709
636.212097 51.785709
645.593323 52.18409
693.288452 13517.410156
693.441956 204.745102
693.502258 75.260406
693.527832 61.015629
693.669617 71.347221
693.700012 55.26667
693.730408 52.51136
693.866699 128.7285
693.924072 52.048908
694.004883 55.051231
694.096497 89.682426
694.242615 108.047897
694.289795 1031.063965
694.456726 116.703796
694.524658 67.41346
694.594238 60.25
695.583435 57.60714
695.723022 81.156563
END IONS
