BEGIN IONS
PEPMASS=632.343
CHARGE=1
MSLEVEL=2
SOURCE_INSTRUMENT=LC-ESI-qToF
FILENAME=P1_C6_conc_GA6_01_2412.mzXML
SEQ=*..*
IONMODE=Positive
ORGANISM=GNPS-LIBRARY
NAME=Apicidin C_120251 M+Na
PI=Cichewicz
DATACOLLECTOR=Luzzatto
SMILES=O=C(N[C@@H](CCCCCC(CC)=O)C(N[C@@H](CC1=CN(OC)C2=C1C=CC=C2)C3=O)=O)[C@@H]4N(CCCC4)C([C@H](C(C)C)N3)=O
INCHI=N/A
INCHIAUX=N/A
PUBMED=N/A
SUBMITUSER=tal_lk
TAGS=
LIBRARYQUALITY=2
SPECTRUMID=CCMSLIB00000478093
SCANS=1665
130.06459 860.0
136.072159 936.0
149.070923 448.0
150.088196 268.0
151.082855 792.0
156.136276 452.0
160.072723 404.0
161.069748 392.0
165.067963 272.0
170.061569 488.0
176.1035 436.0
177.109467 856.0
179.126938 456.0
183.14772 292.0
183.585617 264.0
185.071686 348.0
190.120285 880.0
191.074402 260.0
192.082687 268.0
193.09375 604.0
194.12056 304.0
195.098999 528.0
203.073669 268.0
203.117462 340.0
204.086899 272.0
205.093567 972.0
205.130707 4144.0
206.133087 964.0
207.116074 672.0
208.129456 568.0
211.150055 616.0
212.14537 256.0
214.085968 264.0
217.101898 256.0
219.117371 796.0
221.112167 408.0
224.111923 356.0
225.610855 308.0
231.105026 392.0
232.114044 476.0
232.133133 632.0
233.091507 448.0
233.125671 1104.0
234.083206 412.0
234.13063 1056.0
235.142899 408.0
239.14592 264.0
241.098724 264.0
245.124252 684.0
246.124374 408.0
246.615082 288.0
247.092987 1240.0
247.143829 1300.0
247.616806 584.0
248.14064 1220.0
249.08757 264.0
249.144745 584.0
251.134491 260.0
254.131485 504.0
256.118286 256.0
256.144073 364.0
257.147125 400.0
257.605438 268.0
259.137054 552.0
260.103058 408.0
260.135925 2032.0
261.169647 4440.0
262.114899 324.0
262.163116 852.0
263.166107 1240.0
264.08078 336.0
264.16095 548.0
265.134369 408.0
265.194061 392.0
266.610657 400.0
267.201294 404.0
270.165009 332.0
274.167847 980.0
275.175323 548.0
276.133179 916.0
276.167725 1944.0
277.133301 500.0
277.169525 268.0
278.126801 364.0
279.653046 304.0
282.143707 308.0
287.171143 5232.0
287.636261 288.0
288.134491 592.0
288.178558 2120.0
288.650787 564.0
289.132294 608.0
289.187714 1620.0
290.152954 472.0
290.189026 1724.0
291.155579 716.0
291.191101 656.0
293.187469 280.0
294.645782 672.0
295.659485 580.0
296.16394 284.0
296.638916 272.0
299.145844 496.0
299.177277 256.0
300.651489 388.0
301.191376 384.0
302.14798 260.0
303.150055 560.0
304.112762 464.0
304.159576 968.0
304.192474 576.0
304.198395 624.0
305.206299 3528.0
306.207916 292.0
307.173004 476.0
307.659515 464.0
308.640015 256.0
309.145172 560.0
309.649658 5268.0
310.104858 404.0
310.153595 2772.0
310.653564 1528.0
311.64917 312.0
313.652863 396.0
314.161102 292.0
314.655975 420.0
315.167328 1948.0
316.170563 1868.0
317.143433 708.0
317.181091 4736.0
317.649933 536.0
318.171265 2320.0
318.213013 4788.0
318.656433 2624.0
319.1651 1252.0
319.217499 1312.0
319.658508 444.0
320.172516 328.0
323.156616 572.0
324.152252 372.0
324.655334 732.0
325.161438 512.0
327.66507 256.0
328.655396 312.0
329.180725 404.0
329.665955 440.0
330.179016 416.0
331.138916 468.0
331.174652 1760.0
332.141144 360.0
332.192902 7292.0
332.228394 3432.0
333.196564 1728.0
333.669952 492.0
334.1492 412.0
334.201752 476.0
342.188141 492.0
342.694946 268.0
344.159607 272.0
344.192291 1296.0
344.674255 256.0
345.149261 684.0
345.19986 1572.0
346.158905 1080.0
346.205292 1468.0
347.152588 1224.0
347.216522 672.0
348.161285 316.0
350.176849 332.0
351.177368 464.0
351.661072 452.0
352.168579 280.0
357.19397 304.0
358.207336 1340.0
359.168304 19468.0
359.675903 500.0
360.183563 5836.0
360.279358 464.0
361.195435 1284.0
362.180878 808.0
363.191986 496.0
364.681976 312.0
365.186493 284.0
368.181183 312.0
371.229584 548.0
371.694427 524.0
372.235107 3972.0
372.685211 284.0
373.18573 2840.0
373.220734 2056.0
374.190704 916.0
374.242462 320.0
374.689758 360.0
375.136139 592.0
375.19516 404.0
376.14679 288.0
377.18573 412.0
378.692291 344.0
379.208466 720.0
379.701569 356.0
380.183502 460.0
380.686249 724.0
381.182983 492.0
386.203308 396.0
386.235626 532.0
386.70282 616.0
387.232086 2516.0
387.682495 604.0
388.216034 3872.0
389.217957 1300.0
389.263336 5992.0
390.174438 340.0
390.265747 1500.0
391.190186 252.0
391.269073 416.0
391.717438 360.0
392.207245 464.0
393.206848 432.0
393.708221 592.0
394.716248 252.0
398.218567 288.0
399.208221 700.0
399.711182 500.0
400.218903 344.0
401.215088 11916.0
402.219666 3784.0
403.217468 528.0
404.223969 488.0
405.20575 296.0
405.730804 452.0
406.200287 380.0
406.718109 340.0
407.710968 652.0
408.168823 316.0
409.196625 364.0
412.225677 308.0
413.221222 292.0
413.72937 388.0
414.233429 2356.0
414.723389 660.0
415.230896 22552.0
415.728455 548.0
416.235016 5132.0
417.256012 1320.0
418.259216 340.0
419.193604 252.0
420.201141 400.0
420.709503 268.0
421.213959 628.0
421.728638 696.0
423.228241 432.0
423.713837 324.0
427.722656 276.0
428.225464 280.0
428.722748 824.0
429.248444 4532.0
430.255066 604.0
432.205688 320.0
435.233948 632.0
435.730957 312.0
436.234924 260.0
437.228271 396.0
441.20575 436.0
441.739929 488.0
442.233856 440.0
442.714844 424.0
442.747101 416.0
443.220306 280.0
443.261871 488.0
443.737 460.0
444.270844 2412.0
445.225403 328.0
445.272217 972.0
446.222443 356.0
448.735321 680.0
449.739441 412.0
450.194977 288.0
451.254059 296.0
455.74057 380.0
456.242676 364.0
456.746857 284.0
457.239777 1480.0
458.251953 708.0
460.230927 432.0
461.24765 364.0
462.730316 304.0
463.241364 512.0
463.744965 656.0
464.256714 692.0
464.761871 372.0
468.751373 252.0
469.223541 256.0
469.738342 332.0
470.240662 360.0
470.753479 276.0
471.245392 812.0
472.264038 4128.0
473.266571 1592.0
474.261169 296.0
475.263428 552.0
476.248169 364.0
476.755432 504.0
477.24588 376.0
479.244446 656.0
479.746979 352.0
484.251556 604.0
484.743439 268.0
485.26358 668.0
485.757233 516.0
486.266144 300.0
488.226227 1064.0
489.230286 688.0
490.228271 352.0
491.77179 660.0
492.253845 752.0
492.762268 692.0
493.230896 264.0
498.26889 276.0
498.758728 596.0
499.243195 252.0
499.774597 440.0
500.265137 364.0
501.23938 436.0
502.256683 480.0
503.240021 272.0
504.785492 288.0
505.273315 324.0
505.770966 456.0
506.268372 448.0
506.759796 604.0
512.286743 428.0
513.777649 396.0
518.782166 256.0
519.251282 472.0
520.253784 272.0
526.766052 264.0
527.774231 252.0
528.77948 292.0
530.2724 2612.0
531.271118 944.0
533.782104 640.0
534.784668 800.0
535.270935 508.0
535.780518 808.0
544.286621 1612.0
545.286255 784.0
548.80072 388.0
549.293884 500.0
549.782166 256.0
556.79425 352.0
557.293457 404.0
558.28302 424.0
558.340332 272.0
563.298523 432.0
564.30011 572.0
569.794678 276.0
570.301147 512.0
570.81665 256.0
571.29187 456.0
572.31073 316.0
573.275452 460.0
574.340515 1432.0
575.333191 424.0
576.350769 304.0
576.81189 364.0
577.32782 356.0
577.807068 344.0
578.30072 600.0
578.79187 252.0
584.309753 560.0
584.817078 556.0
585.315369 752.0
585.806702 364.0
585.847168 388.0
586.318359 432.0
591.284729 396.0
593.324463 292.0
598.312622 2296.0
598.817139 3968.0
599.313293 1772.0
599.819031 1048.0
600.315857 924.0
600.820801 252.0
601.323364 10280.0
602.328918 7252.0
603.33252 2740.0
604.344177 1544.0
605.338623 304.0
612.367432 1024.0
613.370544 592.0
613.824402 2632.0
614.324829 2932.0
614.828796 1708.0
615.327637 344.0
616.831848 328.0
617.28833 336.0
618.296326 1852.0
619.296814 864.0
620.303162 308.0
624.303223 292.0
629.022705 532.0
629.217896 308.0
629.333191 24292.0
629.654541 368.0
629.834229 18404.0
630.017944 272.0
630.191528 480.0
630.23114 356.0
630.337463 14172.0
630.471802 348.0
630.657654 300.0
630.835266 4000.0
631.073181 296.0
631.331299 1328.0
631.829163 1252.0
632.051086 452.0
632.196289 736.0
632.34375 137736.0
632.478455 280.0
632.544495 360.0
632.696167 268.0
632.790405 544.0
632.835938 592.0
633.167236 260.0
633.345215 40840.0
633.86731 400.0
634.22113 332.0
634.346497 7168.0
635.350525 1388.0
636.510193 340.0
636.681396 296.0
637.322449 264.0
637.47522 396.0
648.308716 380.0
654.315002 404.0
END IONS
