BEGIN IONS
PEPMASS=614.0
CHARGE=2
MSLEVEL=2
SOURCE_INSTRUMENT=DI-ESI-Ion Trap
FILENAME=Syringomycin_E_IT_614mz.mzXML
SEQ=*..*
IONMODE=Positive
ORGANISM=GNPS-LIBRARY
NAME=Syringomycin E M+H
PI=Dorrestein/Moore
DATACOLLECTOR=Roland Kersten
SMILES=ClC[C@@H](O)[C@H]1C(=O)OC[C@@H](C(=O)N[C@H](C(=O)N[C@H](C(=O)N[C@H](C(=O)N[C@H](C(=O)N[C@H](C(=O)NC(=C/CC)\C(=O)N[C@@H](C(=O)N1)C(O)C(=O)O)Cc2ccccc2)CCC/N=C(\N)N)CCN)CCN)CO)NC(=O)CC(O)CCCCCCCC
INCHI="InChI=1S/C53H85ClN14O17/c1-3-5-6-7-8-12-17-30(70)25-39(72)60-37-28-85-52(84)40(38(71)26-54)67-50(81)41(42(73)51(82)83)68-46(77)31(14-4-2)61-47(78)35(24-29-15-10-9-11-16-29)65-43(74)32(18-13-23-59-53(57)58)62-44(75)33(19-21-55)63-45(76)34(20-22-56)64-48(79)36(27-69)66-49(37)80/h9-11,14-16,30,32-38,40-42,69-71,73H,3-8,12-13,17-28,55-56H2,1-2H3,(H,60,72)(H,61,78)(H,62,75)(H,63,76)(H,64,79)(H,65,74)(H,66,80)(H,67,81)(H,68,77)(H,82,83)(H4,57,58,59)/b31-14-/t30?,32-,33-,34-,35-,36-,37-,38+,40-,41+,42?/m0/s1"
INCHIAUX=N/A
PUBMED=N/A
SUBMITUSER=mcruesemann
TAGS=
LIBRARYQUALITY=3
SPECTRUMID=CCMSLIB00000075329
SCANS=76
172.05127 112.575127
173.117905 118.712387
174.196152 10.771341
175.08432 684.562744
175.947235 199.564651
176.972961 277.648163
178.047241 218.893875
179.136963 812.627747
180.124756 10554.573242
181.023895 13934.03418
182.064987 5338.089844
183.102875 1068.458496
183.978836 596.66748
185.111221 333.099243
185.802277 243.389908
186.402969 30.130663
187.136551 694.658813
188.06929 166708.734375
189.065216 12282.344727
190.104645 1635.939697
191.089722 14402.886719
192.062698 17625.980469
193.109558 2688.949707
194.104904 4334.337891
195.119705 1598.892822
196.067963 977.768921
197.096619 4285.953613
198.207733 7808.753418
199.038086 107480.101562
200.044312 9037.227539
201.165024 1359.219604
202.138016 183.425888
203.05043 9158.670898
204.074356 3766.939209
205.096649 4012.041016
206.097092 697.164124
207.058441 249.62207
208.127625 2014.375854
209.086838 25106.677734
210.064987 17169.542969
211.089127 1625.091187
212.083389 10058.969727
213.125717 3139.687744
214.065399 1335.788574
215.073608 3805.260986
216.141647 2094.496094
217.098083 1846.702393
218.037521 249.957748
218.86972 83.42334
219.388107 7.481923
220.034531 129.579498
221.082184 27120.306641
222.115768 35571.089844
223.10524 7370.267578
224.261917 917.923157
225.139145 490.962555
226.073715 283.565979
226.96611 577.751099
228.115067 259.301361
229.03569 114.710136
230.161789 346.004211
231.062546 3456.981689
232.007675 1065.065308
233.090271 5299.177246
234.054016 1138.15979
235.036652 1800.325928
235.935654 1000.689697
237.057999 243.51825
237.676666 302.754272
238.267349 711.48114
239.114914 120419.945312
240.095306 66751.601562
241.107117 6141.481934
242.135239 1894.863525
243.090164 1560.484375
244.109604 1238.410767
245.049332 5272.679199
246.164383 705.428467
247.16774 103.877998
247.962067 278.705566
249.132843 1105.198608
250.181747 6885.42627
251.097595 96373.46875
252.07962 10412.454102
253.14534 3548.276367
254.128418 720.383118
255.213379 165.144333
256.168365 553.957642
257.149872 78550.835938
258.177155 9222.816406
259.164459 8521.913086
260.126495 1372.961914
261.141052 774.937256
262.215118 1035.598999
263.087128 90446.273438
264.109344 12861.329102
265.101349 1805.698486
265.801453 316.663422
266.305542 644.938843
267.040039 9611.710938
268.139862 41930.8125
269.12973 9798.486328
270.150024 2383.307373
271.089996 1812.148315
272.071533 268.336121
273.218689 408.131165
274.139557 750.412415
275.203979 606.765503
276.165924 17438.632812
277.156067 2730.095215
278.018799 807.424072
279.076447 269.947113
280.30307 2079.171387
281.086761 280061.09375
282.078674 32489.164062
283.128784 2589.13208
284.168854 707.563477
285.027496 22759.140625
286.136963 5537.35498
287.109222 13731.977539
288.151825 2842.311279
288.727264 8.923412
289.229248 509.960754
290.136292 239.047531
290.653687 40.262287
291.229401 1337.585571
292.254669 1936.782959
293.243652 470.275146
294.207642 38.98513
295.119965 442.911316
296.153778 1186.971191
297.162415 613.428772
298.178131 1606.201538
299.117676 699629.1875
300.139862 78499.179688
301.15564 9507.243164
302.058624 653.357178
303.197418 1916.149658
304.150208 77202.914062
305.148773 11527.438477
306.16922 1088.259644
307.188416 460.024414
308.143005 1210.621216
309.231659 12162.304688
310.148834 5057.029297
311.131287 1561.074951
312.19046 109.630707
313.158112 2521.037598
314.1073 1143.551147
314.980042 760.568665
316.197937 585.71405
317.207397 402.488586
317.828156 112.194565
318.333557 418.821625
319.11441 2205.619629
320.179657 2231.838867
321.174591 1990.397217
322.176056 1490.057007
323.09494 1483.915649
324.182678 539.483948
325.123474 1559.289185
326.155579 5361.585449
327.172638 8662.151367
328.198853 3733.000977
329.144165 708.363892
329.979309 327.465973
330.675903 32.309341
331.198425 1227.550781
332.032867 3380.599121
333.13446 1341.77002
334.045197 644.26239
335.063538 1307.37561
336.183258 890.205811
337.143402 16920.316406
338.147766 18417.712891
339.163513 3764.867188
340.254486 1663.228271
341.266541 665.574036
342.134613 3402.635986
343.165833 1535.812988
344.295288 1286.582886
345.244202 683.180603
346.146576 296.759705
346.68869 122.516579
347.281952 497.043427
348.017731 598.627258
349.133789 431.346313
350.105621 4533.120117
351.088562 7062.755371
352.135284 2991.374023
353.107422 4207.151855
354.654053 12815.545898
355.185883 88696.492188
356.153107 15581.270508
357.16037 2365.733887
358.266205 585.55957
359.241791 4672.438477
360.042725 1984.11438
361.109619 847.483765
362.154266 1662.572144
363.306732 2016.017212
364.384155 1119.795776
365.230408 606.68512
366.114441 428.149261
367.243652 636.051514
368.147858 16796.460938
369.174988 11633.982422
370.183685 13267.142578
371.195343 3859.982666
372.117798 1065.297852
373.10083 1793.950195
374.070618 1176.485352
375.222229 741.380371
376.196442 3542.14502
377.552399 21641.25
378.279785 10453.233398
378.799011 2453.74585
379.411987 284.165955
380.202087 1123.850952
381.159393 3861.044678
382.165833 2148.395508
383.124847 932.631226
384.228882 1746.811279
385.083618 1494.279419
386.242706 108453.757812
387.195953 301329.4375
388.202454 51153.144531
389.225739 6510.469238
390.17807 1109.989014
391.185272 1156.998901
392.131897 1988.623291
393.157959 3377.174316
394.201996 2043.665894
395.11734 776.047363
396.063049 1226.585449
396.732819 454.901306
397.237427 1630.797485
398.193451 2287.300049
399.182465 2834.403809
400.190918 1429.203735
401.230438 2753.950928
402.242188 1425.245117
403.088898 2492.125
404.210846 45245.09375
405.217072 14119.447266
406.291809 2697.358154
407.250519 8577.148438
408.542236 4415.92627
409.35788 2718.793945
410.220154 3921.733154
411.348206 4882.074219
412.26474 3650.329102
413.157715 1902.224243
414.250977 1029.533813
415.098297 1190.425537
416.250183 1137.65979
417.199554 642.549927
418.053345 514.846802
418.700836 1652.96106
419.275116 46585.480469
420.394775 16624.039062
421.339142 7171.767578
422.111176 3479.611084
423.246002 982.055969
424.137024 868.062866
425.148834 2899.519531
426.242249 1223.689819
427.243134 4140.406738
428.37149 11935.574219
429.305145 4925.104004
429.808411 4412.1875
430.395477 3215.983154
431.679413 1102.428833
432.607086 871.600159
433.306091 798.338684
434.108307 1129.35083
435.153229 1080.408081
436.260162 1893.467041
437.247833 595402.0625
438.238586 126061.195312
439.249268 17195.425781
440.238373 1558.487793
441.254242 1958.440186
441.893188 1191.874878
442.396576 1118.019287
443.172302 1502.937378
444.201233 8919.457031
445.231445 2190.388428
446.272644 36001.167969
447.228821 9791.94043
448.198822 1340.728271
449.087158 623.103577
449.739807 2372.153076
450.255707 2666.71582
450.829437 1506.971436
451.359589 1068.692627
452.264984 12634.386719
453.252686 26072.513672
454.316925 14797.708984
455.24292 1637676.875
456.265045 316209.40625
457.26001 39867.464844
458.242645 1702.29126
458.775848 5859.373047
459.347565 3279.837646
460.077911 1301.903809
461.256683 3311.974609
462.249481 5880.756348
463.108582 2644.254883
464.26358 11560.918945
465.034668 5735.541992
466.250031 3329.935303
467.178589 2123.621826
468.146118 805.692627
469.237427 36011.0625
470.246826 44214.730469
471.331482 15283.469727
472.321228 3050.801514
473.219635 9728.551758
474.257141 3741.276855
475.260956 868.060913
476.254517 1353.771729
477.208435 1797.744995
477.909851 3913.6875
478.682739 6002.875488
479.582794 5550.322266
480.270813 4638.654785
481.184235 8248.674805
482.219025 3781.913574
483.218567 4771.578125
484.271942 1722.934204
485.271149 3930.702637
486.200317 2302.199707
487.261871 234051.78125
488.278198 53791.707031
489.325134 9858.813477
490.446167 1643.290161
491.528381 1118.061523
492.286743 1197.51416
493.239899 5861.928223
494.248016 3221.397461
495.243286 811.647522
496.278412 2875.245361
497.081879 9273.027344
498.105988 3879.580322
499.271576 4567.942383
500.23111 90560.78125
501.233459 22324.121094
502.264343 5215.67334
503.297821 631.169495
504.233124 1994.556885
505.395813 33568.800781
506.443573 12277.853516
507.507324 863.783508
508.317169 22357.728516
509.174561 12358.913086
510.325714 7762.74707
511.282776 9536.842773
512.222778 3948.930908
513.296082 2537.397949
514.296753 28883.939453
515.124023 44508.097656
516.225952 6862.811523
517.233887 7519.201172
518.200989 160759.015625
519.274719 46968.019531
520.351685 12743.693359
521.291138 2563.661621
522.33606 2127.819336
523.194702 3577.859619
524.200317 2626.558105
525.241394 1320.368042
526.315308 35151.632812
527.092651 35142.679688
527.858521 33734.632812
528.444275 48332.285156
529.400879 10427.477539
530.327026 1980.044678
531.21228 2097.514648
532.034668 1715.162476
533.285217 346.069977
534.127686 7150.737793
535.272217 13008.210938
536.294067 54974.921875
537.224609 53525.273438
538.319458 16639.830078
539.264893 9714.584961
540.410339 10513.424805
541.277161 8473.535156
542.138489 3066.200195
543.278259 4189.72998
544.295715 16737.753906
545.333435 44263.402344
546.235229 37854.859375
547.365723 5819.29834
548.330078 1723.941772
549.39856 84234.71875
550.072083 51129.839844
550.975769 1825.873413
551.958557 5143.898926
553.136169 1416.979004
554.290527 73065.492188
554.885437 41033.734375
555.436462 54782.335938
556.383057 24345.527344
557.32782 7125.191406
558.374878 483379.15625
559.055969 190585.203125
560.098022 3666.808838
561.17395 16440.701172
561.789551 1812.862061
562.322693 4896.068359
563.335144 417476.125
564.149109 227460.203125
565.259766 35596.699219
566.301575 14680.342773
567.360352 21400.492188
568.263123 29026.359375
569.203247 17642.916016
570.106384 4660.521973
571.27356 1591.648926
572.284973 4214.489258
573.274658 15148.541016
574.307495 15731.826172
575.259888 3211.487061
576.377808 22775.677734
577.360596 100904.09375
577.954163 37226.390625
578.55896 29103.615234
579.588623 1282.494507
580.370667 1175.097778
581.193359 3676.342773
582.253357 56657.613281
583.268005 39727.820312
584.253906 30885.494141
585.24884 7033.450684
586.379822 733617.5625
587.06842 353520.03125
588.285522 9642.789062
589.287964 3807.814453
590.276733 22862.964844
591.252014 8492.788086
592.291992 5319.30127
593.223694 2435.37207
594.345398 2037.313965
595.34021 547098.6875
595.910706 402506.65625
596.538269 222238.84375
597.664185 7588.714844
598.364868 5541.99707
599.268677 9775.109375
600.276733 194452.671875
601.274109 80892.484375
602.251648 15200.174805
603.382202 3102.489746
604.364075 2808848.75
605.01709 922310.625
605.932251 9744.22168
606.529114 1549.960449
607.125122 2120.220703
607.960815 1417.802979
608.842712 1043.184082
609.507507 420.845459
610.049622 412.580414
610.58075 196.351013
611.385376 504.014862
612.352356 80.4179
613.411682 200.600067
614.520813 227.083969
615.263733 25.287918
616.050842 1089.44751
617.220215 10193.353516
618.266724 25790.439453
619.278748 7971.481934
620.231079 1802.987671
621.223145 827.441223
622.19928 236.053009
623.287842 489.274414
624.152771 858.568665
625.242493 2279.141602
626.270569 1881.268066
627.235657 2508.540527
628.324097 771.61676
629.262268 3857.749023
630.345337 1378.523926
631.29425 416.744995
632.031433 201.361649
633.155212 265.824677
634.189697 1042.220337
635.218079 35090.851562
636.265991 12470.694336
637.235962 3389.93457
638.351196 1660.895508
639.27002 2816.414062
640.160156 1026.678833
641.20697 19432.988281
642.22052 6373.967773
643.285034 16896.830078
644.272583 5830.081543
645.245178 2321.282227
646.128723 316.307831
647.124817 486.471558
648.287842 428.861847
649.171448 403.432343
649.681946 84.579201
650.292725 105.518845
651.477783 291.180511
652.166809 41080.195312
653.19458 43241.007812
654.201904 26152.558594
655.254883 19197.529297
656.274963 5076.713867
657.247131 1730.751099
658.180603 746.821045
659.224731 3466.974854
660.454346 2996.856445
661.301331 41759.21875
662.294434 12073.204102
663.321777 2861.664062
664.404358 370.098877
665.131226 749.143738
666.065002 167.923157
666.574951 646.094788
667.197205 1625.395142
668.206482 437.730957
669.148438 559.35144
670.401001 1482.410522
671.216431 1323728.0
672.249207 430718.875
673.221924 365519.5
674.258972 13689.648438
675.277283 2967.783203
676.316223 624.099182
677.155823 604.155396
678.243042 330.277039
679.232727 2505.318115
680.222961 1302.524414
681.211548 11208.695312
682.234497 5450.263672
683.221924 6121.984375
684.306091 1097.96521
685.235657 1025.206543
686.260925 458.090393
687.315796 400.875916
688.16864 286.274261
689.215942 202.872253
690.351868 3954.589844
691.284363 5282.896484
692.295898 2601.883545
693.275757 4547.959961
694.285339 1965.609863
694.852844 480.836578
695.356567 517.489746
696.188599 325.550323
697.241882 3292.193604
698.275146 829.919556
699.25116 23428.980469
700.267944 14310.055664
701.232056 7251.270508
702.232666 1753.39978
703.281067 3046.903809
704.214355 756.153992
705.149292 739.842896
706.275574 189.880051
707.23645 1076.404297
708.276672 4789.908691
709.211426 1750.85791
710.275269 1563.987915
711.349915 2084.431885
712.380066 1012.287659
713.277405 462.16803
714.384033 308.922913
715.361877 205.990982
716.374634 630.28064
717.272339 109488.617188
718.293457 39999.945312
719.258728 13384.419922
720.180481 3283.06665
721.19104 10926.049805
722.263062 4538.634277
723.219788 3079.320557
724.27832 545.976868
725.222046 1430.904541
726.25946 896.257935
727.19104 600.080505
728.272156 599.837524
729.254761 148.802383
730.224426 155.763229
730.926697 36.236656
731.472229 126.704353
732.205688 56.762314
733.183777 203.618973
734.476685 200.088089
735.286682 128878.203125
736.296326 117606.46875
737.235962 166441.40625
738.247559 77423.671875
739.222412 168046.25
740.253113 41178.167969
741.234436 29534.617188
742.18634 814.204163
743.296936 249.632141
744.339417 89.310699
745.39209 131.178818
746.039246 151.769073
747.290283 173.734177
748.092529 231.357727
748.626343 13.556714
749.336243 68.833336
750.289001 115.321335
751.174622 133.602158
752.188904 540.792847
752.763428 28933.619141
753.274841 822112.5625
754.278259 409885.21875
755.271667 291890.15625
756.25592 33317.445312
757.180603 221.246216
758.264526 591.352722
759.267456 542.900208
760.36377 93.601982
761.404907 8.540448
762.12439 33.400295
763.29364 33.157234
764.347839 814.378174
765.146179 212.742584
766.285645 223.629608
767.151672 41.571339
768.279724 657.17334
769.144104 500.043579
770.217773 1399.357544
771.23291 1541328.125
772.203796 630110.4375
773.240601 419570.8125
774.233765 8759.615234
775.268616 203.029205
776.032043 54.360241
776.947266 126.022987
777.617737 17.974335
778.332397 162.13118
779.222961 250.541428
779.727295 3.165595
780.3573 63.336258
781.273743 66.679726
782.166504 2336.026611
783.164246 822.619141
784.196045 675.386414
784.818176 4.785991
785.505554 179.030365
786.145325 1276.45752
787.156616 1908.229858
788.195923 924.990723
789.160339 492.218811
790.152771 39.774612
791.144653 335.152649
792.014038 276.739136
793.196167 160.775955
794.202637 120.933952
795.177673 269.914978
796.465271 195.000946
797.476685 39.453766
798.413696 103.184074
799.263794 268.024078
800.230591 87.212402
801.157532 15.52708
802.310242 22.998365
802.885681 20.921669
803.420044 303.499268
804.192505 5082.242188
805.183594 7760.375977
806.160522 2809.145264
807.127136 1482.543091
807.852661 7.639638
808.406372 226.152832
809.195435 1007.65033
810.340515 632.51886
811.355774 503.406342
812.168762 16.646563
813.290466 191.17955
814.16748 139.870453
814.682739 2.996263
815.51001 101.514854
816.449768 309.521942
817.447327 203.616394
818.359924 143.125702
819.692139 24.620764
820.306458 121.797295
821.663757 4060.314941
822.232361 38892.425781
823.251404 13677.65918
824.207581 10118.896484
825.385437 299.587952
826.636169 223.513763
827.261169 2198.89502
828.279785 1104.232544
829.253479 1038.803589
830.097107 220.853622
830.726868 44.066998
831.506653 93.098839
832.223938 75.402962
832.806213 16.006327
833.331055 160.868668
834.207886 97.872894
835.006165 223.626053
836.130249 16.9179
836.729065 107.634117
837.506653 59.946587
838.347717 50.760456
839.258362 1076.84668
840.216064 741.73645
841.339294 1148.279419
842.433594 412.753723
843.317261 36.551128
843.956299 3.801067
844.595215 3.369174
846.294678 290.424805
847.076538 94.950493
848.149963 396.549896
849.11615 51.882961
849.64325 77.93782
850.266541 126.757759
851.278564 208.584122
852.149353 135.52034
853.063721 423.990479
853.577454 74.874321
854.361206 116.514442
855.387329 105.981033
856.297241 108.384605
857.247192 209.097931
858.289734 1709.148682
859.371765 1433.69104
860.361084 1001.758057
861.369568 8.578037
862.440063 107.725357
864.507324 430.519226
865.355652 354.199005
866.250488 93.439621
866.893433 237.298447
868.270813 110.171844
869.175049 877.81958
870.204163 575.201599
871.292236 557.279724
872.233887 116.265411
873.456787 160.053513
874.350952 330.027832
875.220398 309.759521
876.232849 256.340576
877.185547 352.005341
878.248779 789.136658
879.262451 327.3125
880.416077 271.658112
881.37146 19.938602
881.906799 126.253159
882.482727 396.102539
883.492737 112.320648
884.34198 1762.652588
885.385925 434.560913
886.500122 365.869568
887.132507 125.236649
887.648743 102.679779
888.245911 45.933998
889.333679 36.760696
890.440491 15.684187
890.943542 57.512562
891.588501 97.687035
892.223877 598.503052
893.333801 490.22229
894.223511 181.353302
895.327576 1398.973267
896.402405 788.167358
897.281006 676.267334
897.909119 2.225943
898.524292 154.379074
899.353516 7.864401
900.06543 34.249714
901.299011 51.040546
902.33075 640.701294
903.221375 206.591919
904.295349 562.094788
905.233643 509.628876
906.349976 171.954468
906.97821 71.354004
907.769592 43.776005
908.319763 22.679253
909.277893 650.954041
910.396545 1378.188843
911.431824 344.373535
912.304016 489.863403
912.824585 16.340435
913.340271 81.231522
914.410706 15.551262
915.226196 559.670959
916.298462 182.382706
917.144836 117.872108
917.841431 9.734389
919.230103 2.446938
920.257202 7792.977051
921.159912 4705.789062
922.273132 3022.245117
923.076416 349.667023
923.654297 97.621475
924.412231 476.20459
925.614197 274.477966
926.300171 10.566205
927.264465 1453.342896
928.27655 632.717163
929.312256 782.682068
930.135376 168.472702
930.653992 22.717361
931.547485 56.401894
932.366455 86.941544
933.245239 853.09845
934.264526 754.128174
935.4375 194.97287
936.194885 160.728241
937.136047 51.218079
938.289551 61765.332031
939.360229 23905.265625
940.3255 16578.519531
941.448425 878.499695
942.396118 129.521378
943.254028 306.043701
944.241638 144.207016
945.399292 17.240095
947.689392 30.828262
948.516724 214.239975
949.26532 109.542992
950.497559 885.039795
951.301697 5463.097656
952.322937 3348.464844
953.315308 1890.020752
954.547546 203.287048
955.757385 315.458008
956.469666 331.40329
957.518738 250.645752
958.396118 281.509277
959.397278 184.789795
960.38678 266.727264
961.253174 361.124146
962.375305 346.346313
963.449402 93.183311
964.275085 11.636252
965.006714 59.268265
966.458923 380.962463
967.188599 340.384888
968.496704 1635.527832
969.293823 122309.296875
970.34314 54627.550781
971.310669 42019.761719
972.330444 1378.99939
973.430725 101.267883
974.250671 68.206085
975.284729 182.224823
976.193909 195.464569
977.459412 280.132721
978.396179 1191.505371
979.377136 971.822754
980.355103 549.829529
981.157471 255.65564
981.719299 56.865044
982.433289 75.974586
983.359131 5.88398
984.203552 257.940063
985.397827 431.208344
986.329529 1766.545044
987.261902 1218.560181
988.314697 980.63147
989.28595 881.92688
990.321289 815.690735
991.485657 583.177917
992.296265 316.083099
993.263123 540.927002
994.140259 229.980972
995.355347 612.755432
996.613098 215.738693
997.434692 3145.403564
998.44635 1697.883667
999.424927 975.842896
1000.291199 139.324661
1002.529907 132.966263
1003.240051 1196.127197
1004.285217 15484.115234
1005.339539 9039.865234
1006.379883 4599.189453
1007.352478 11235.350586
1008.342896 5208.908203
1009.33905 4923.208984
1010.459961 404.642059
1011.50116 110.816277
1012.168579 64.204666
1013.449341 9.256804
1014.79071 88.110374
1015.476135 1434.096436
1016.418152 227.160965
1017.528687 259.828369
1018.21405 18.074915
1019.211975 136.246185
1020.321045 871.710144
1021.34021 10731.108398
1022.365051 4114.751465
1023.372314 3296.754639
1024.456787 362.451843
1025.34314 88975.203125
1026.338257 49472.40625
1027.374512 29289.365234
1028.32605 1086.739624
1029.429688 65.808647
1030.670654 6.678727
1032.881592 74.297455
1033.549316 5.243232
1034.55481 40.633343
1035.408691 236.938736
1036.348877 182.382706
1037.366089 94.452415
1038.429077 5014.78418
1039.47644 2266.221924
1040.435791 2320.532227
1042.277344 440.633453
1043.353149 460.745972
1044.313599 457.21524
1044.968018 21.532701
1045.515991 22.435516
1046.640381 60.262543
1047.314087 6.305833
1048.245605 13.191642
1048.849487 263.525146
1051.310669 749.896179
1052.462769 243.661819
1053.383667 530.114258
1054.047852 42.364857
1054.578979 125.48838
1055.403198 495.136261
1056.345581 381.849518
1057.486084 152.523163
1058.50769 29.049313
1061.313721 181.227966
1062.350586 148.411713
1062.860352 111.952423
1063.371704 226.843506
1064.389648 173.096863
1065.568359 331.592682
1066.41394 8.563652
1067.493774 4.665636
1068.607056 40.679489
1069.385376 50.153481
1070.443726 112.08387
1070.953979 81.820595
1071.488281 1235.282959
1072.478638 954.711487
1073.481079 1545.940063
1074.382202 967.80603
1075.407593 622.418579
1076.43335 11.654727
1077.263672 24.711176
1077.974121 41.144733
1078.68457 48.573345
1079.524536 161.496887
1080.305908 248.925842
1080.819092 194.234589
1081.435669 178.284653
1082.348511 175.260895
1083.427734 66.289917
1084.530884 51.515728
1085.501587 6.755364
1088.525635 25.420862
1089.382446 1946.178711
1090.242065 1278.785034
1091.280518 14165.558594
1092.276733 9587.489258
1093.329102 6303.629395
1094.37085 204.478561
1095.145996 126.297394
1095.668091 8.632777
1096.638672 439.510834
1097.376099 101.914307
1097.949585 6.48683
1099.25061 77.779808
1100.180664 156.45491
1100.859253 12.34623
1101.862915 4.393358
1105.290894 61.293564
1106.348755 450.092896
1107.401367 6960.470215
1108.412964 8445.526367
1109.41626 6271.64209
1110.433228 2007.456421
1111.406982 93.674446
1116.703979 51.207748
1117.323853 453.95108
1117.845215 219.155548
1118.520386 259.693542
1119.396362 448.295532
1123.543091 6.262538
1124.135376 58.686714
1124.771606 2186.631836
1125.452393 214889.15625
1126.485596 108635.601562
1127.453857 85705.0625
1128.434448 2199.656494
1129.090942 7.016572
1134.934937 756.180054
1135.452271 15761.670898
1136.458862 9558.919922
1137.402588 6449.22168
1138.637329 185.078094
1147.636353 1.288184
1149.507324 62.769302
1150.465698 17.991501
1153.544678 59.965149
1154.090942 1.020058
1154.745239 52.814713
1155.640747 10.130884
1162.583374 4.50058
1165.515259 12.600248
1166.29834 11.676501
1167.272705 23.041504
1168.727539 58.742577
1173.587891 3.163181
1200.513428 20.755878
1210.151245 27.691338
1226.686523 3.837004
1227.637085 9.062795
1378.996826 14.161053
END IONS
