BEGIN IONS
PEPMASS=1450.0
CHARGE=1
MSLEVEL=2
SOURCE_INSTRUMENT=DI-ESI-Hybrid FT
FILENAME=vancomycin_FT_1450mz.mzXML
SEQ=*..*
IONMODE=Positive
ORGANISM=GNPS-LIBRARY
NAME=Vancomycin M+H
PI=Dorrestein/Moore
DATACOLLECTOR=Roland Kersten
SMILES=C[C@H]1[C@H]([C@@](C[C@@H](O1)O[C@@H]2[C@H]([C@@H]([C@H](O[C@H]2Oc3c4cc5cc3Oc6ccc(cc6Cl)[C@H]([C@H](C(=O)N[C@H](C(=O)N[C@H]5C(=O)N[C@@H]7c8ccc(c(c8)-c9c(cc(cc9O)O)[C@H](NC(=O)[C@H]([C@@H](c1ccc(c(c1)Cl)O4)O)NC7=O)C(=O)O)O)CC(=O)N)NC(=O)[C@@H](CC(C)C)NC)O)CO)O)O)(C)N)O
INCHI="InChI=1S/C66H75Cl2N9O24/c1-23(2)12-34(71-5)58(88)76-49-51(83)26-7-10-38(32(67)14-26)97-40-16-28-17-41(55(40)101-65-56(54(86)53(85)42(22-78)99-65)100-44-21-66(4,70)57(87)24(3)96-44)98-39-11-8-27(15-33(39)68)52(84)50-63(93)75-48(64(94)95)31-18-29(79)19-37(81)45(31)30-13-25(6-9-36(30)80)46(60(90)77-50)74-61(91)47(28)73-59(89)35(20-43(69)82)72-62(49)92/h6-11,13-19,23-24,34-35,42,44,46-54,56-57,65,71,78-81,83-87H,12,20-22,70H2,1-5H3,(H2,69,82)(H,72,92)(H,73,89)(H,74,91)(H,75,93)(H,76,88)(H,77,90)(H,94,95)/t24-,34+,35-,42+,44-,46+,47+,48-,49+,50-,51+,52+,53+,54-,56+,57+,65-,66-/m0/s1"
INCHIAUX=N/A
PUBMED=N/A
SUBMITUSER=mcruesemann
TAGS=
LIBRARYQUALITY=3
SPECTRUMID=CCMSLIB00000075312
SCANS=36
396.445496 2244.010742
398.03363 2220.525391
398.144684 2814.052979
399.324005 2113.689941
399.949371 2540.578613
400.53476 2193.282227
401.809631 2168.696289
403.429993 2509.166748
404.67804 2294.523926
404.904877 2204.618408
406.200775 2907.129883
407.234924 2390.561523
408.11615 2055.817383
408.704041 2438.193359
410.051086 2701.467285
410.097748 2684.796387
411.444519 2680.175537
413.055389 2170.188721
413.287628 2448.948242
414.859955 3172.797119
415.266418 2380.27832
417.846893 2713.721191
418.084564 3064.369629
418.42276 2409.410889
419.954895 2381.541016
422.681946 2620.31665
428.027893 2204.638916
435.113831 9815.133789
436.605164 2444.569092
436.606689 2419.215576
439.354126 2516.739746
440.072021 2121.430664
440.521576 2340.748047
442.718719 2064.697754
443.056671 2562.977051
444.226349 2115.755371
445.094696 2096.715576
446.297302 2746.204346
447.856537 2298.577393
450.085632 2337.794922
450.793762 1993.234375
451.710083 2280.206787
453.124603 2725.288574
453.320984 2306.628174
454.917023 2232.539307
454.986176 2393.299316
455.365234 2229.010986
457.976288 2137.506592
459.132812 2057.358643
459.14624 2043.845093
459.479492 2137.951416
461.771729 1969.352661
462.236237 2321.977783
463.155365 2716.776367
464.267242 2486.630127
465.349609 2146.799072
469.916107 2430.506348
470.242279 2060.424561
470.678864 2440.973877
470.793701 2149.382812
470.93277 1909.557739
472.252563 1936.168579
472.502167 1919.697266
473.116089 2408.441406
473.934875 2704.346191
474.377533 2514.024658
475.029205 1974.113403
482.65921 2065.021973
482.712952 2121.301758
485.093811 2217.768555
485.368744 1949.759521
485.625427 2342.741943
486.861389 2047.314697
487.162842 1950.775879
489.455475 1752.330078
489.977844 2158.156738
490.752319 1974.410278
490.914368 2565.626953
492.075836 2105.126953
493.145569 2148.024414
493.861115 2622.836914
494.396973 2170.036133
494.871216 2575.426025
494.881989 2106.499268
495.63797 2515.962402
496.580505 2273.876221
497.309906 1708.550415
497.732422 2248.517334
499.237335 2433.562744
499.275848 1967.430542
499.710266 1733.050537
499.714264 1706.349731
500.867371 2426.884033
500.928802 1872.098267
501.334045 2213.234863
503.371613 2357.530029
503.884003 2058.792725
503.959015 2674.83667
504.724091 2371.196777
505.049011 2109.722656
505.529449 1745.678833
505.534698 1900.606689
505.657471 2167.709473
505.978577 2261.262207
506.864624 2350.068359
507.008667 2855.70459
508.430115 1941.001465
509.266693 2295.145752
509.476837 2325.573486
509.933197 2452.885742
511.504425 2175.50415
512.585205 2257.669434
512.647888 2238.077148
513.942017 2272.836182
515.187927 2206.28418
515.323303 2087.94165
515.506409 2319.986328
516.363037 2743.638672
524.684937 2185.807129
524.844543 1852.955078
524.872131 2033.622803
525.126526 2016.228516
525.730347 2020.281738
528.222473 2285.67334
530.107849 2569.054932
531.005066 2344.597412
531.102173 2239.197021
532.766663 2579.514648
536.053955 4312.026367
536.071594 3911.237549
536.154297 3100.724609
536.214233 2101.175537
536.251282 2861.290039
536.264465 4173.328613
537.557739 1903.653076
537.74231 2460.604736
537.836365 3591.93335
542.139771 2440.817627
543.822327 2104.906006
544.016968 2675.620117
544.828003 2309.855469
548.733032 1837.884033
550.743958 2505.806885
551.32843 3114.65332
553.276001 1943.429565
554.139893 2781.466064
555.668091 2396.23584
556.79303 2491.537842
560.355713 3456.316895
560.382141 2341.62085
560.971375 2476.091797
561.45459 2496.94873
563.055115 2456.178955
566.836121 2340.333984
567.449951 2898.888428
569.115417 2380.617432
571.812683 3523.043213
571.825012 2889.609863
571.838257 4658.580566
571.907104 2310.046875
571.952026 3162.775391
572.033813 2641.543945
572.071106 2381.907959
572.874451 2717.068848
572.881531 3038.259277
572.891907 3151.20166
572.91217 5466.413574
573.013184 2583.974854
573.028015 2556.112061
573.09967 4110.308594
573.109009 4840.464355
573.122437 5715.009277
573.132385 7843.879883
573.202698 3065.644043
573.232849 3534.70752
573.275085 3413.336914
573.28894 4146.57373
573.302063 5040.970215
573.31366 10011.861328
573.328491 6151.354492
573.337646 2236.275146
573.351685 5168.001465
574.383057 2918.760742
574.395142 3257.647217
574.580322 2650.718994
574.615417 2033.261841
575.769287 5082.337891
576.016174 2830.92334
576.204895 4108.59668
576.220459 2993.469727
576.462097 3399.101318
577.875488 2349.307617
578.67572 2361.901123
579.612122 2540.79248
579.64801 3040.363037
581.989929 2543.162354
582.424988 2148.221191
583.506897 2149.964355
583.971741 2340.23584
584.839844 4066.770264
585.167114 2142.449707
586.234497 3015.656494
586.246094 3649.23877
586.261597 5398.088379
586.631287 2189.325684
587.908936 2369.00293
588.200928 2767.363525
588.711609 3340.355957
589.549744 2068.562988
589.866333 1810.17688
590.960266 2162.435059
591.426697 2645.29126
591.830261 2603.283691
593.065247 2666.537842
593.578613 2213.954102
594.323547 2463.582275
594.534058 3413.970215
594.543579 3850.848145
595.227783 2092.977539
595.886719 3045.591064
596.852478 3645.752441
596.872009 2462.24292
596.890503 3146.87085
596.903198 2384.65625
597.000549 2457.829834
597.076599 2451.72998
597.109741 2637.691162
597.126465 2219.854004
597.915405 3287.66333
597.94104 4802.536621
598.013428 2664.107178
599.999207 2256.148926
601.765747 2311.463379
602.108032 2921.053223
602.579651 2147.865479
602.730835 2319.261719
603.074829 2490.62207
603.741333 2457.906982
603.890198 2457.272705
604.188171 2124.16333
606.194092 2355.821777
606.414246 2321.53125
606.795105 2599.598389
606.944336 2371.702393
607.169434 2458.889404
608.448547 2290.60083
611.108276 2074.718262
611.353088 3637.523438
615.423218 3144.134521
617.029968 1906.922485
617.382263 2091.531982
618.643127 2366.434082
618.71814 2614.949951
618.77948 2500.598633
618.975159 2444.13623
618.986023 4033.851807
619.294617 2333.721436
619.437805 2554.039062
620.572327 2298.394043
621.117676 2191.029053
621.82251 2298.707275
622.016113 2387.9021
622.128723 2539.800293
622.88385 2196.894775
623.599121 2392.463623
623.984436 2386.871094
625.260376 2180.202393
625.375793 2526.187744
625.406677 2654.373779
626.93634 3761.359131
627.031982 3453.905273
627.14209 2962.849609
627.16333 4123.966797
629.263794 3698.709473
629.284302 7590.439453
629.302673 7380.717285
629.50354 2810.785645
629.534302 2589.678955
630.178101 1987.493042
630.581726 2301.202148
630.593628 4188.319824
630.612 2305.451172
630.641663 4079.05835
630.817078 2578.464111
630.833374 3658.348389
630.867493 2692.133545
630.886353 3364.605713
630.909058 4124.858887
630.929565 1882.261841
630.944397 3384.905029
631.011169 2238.239746
631.040588 2745.419189
631.166077 2555.330811
631.418213 2133.262695
633.024292 2329.425537
633.597534 3057.458496
636.134827 2174.155518
636.693481 2613.474609
637.582825 2429.514893
639.342773 2384.794189
639.785583 2505.117432
642.105286 2279.854004
642.12323 1968.700439
642.149048 2090.579346
642.572205 2729.33374
642.601746 6223.056641
642.633911 6707.174316
642.649353 3612.929443
642.738586 3765.450439
642.86908 4407.165039
647.378357 2234.973389
647.438416 2304.793213
647.483093 2145.487549
650.51825 3113.861816
650.667114 3534.129395
652.654663 10056.331055
654.970703 6725.355957
654.986877 5673.865723
655.914062 2542.57251
658.255859 2338.708252
658.680176 2633.487061
659.355469 2512.826416
659.737549 2862.971191
659.915283 3318.874023
662.049561 2448.679443
662.353149 2361.739746
664.065857 1907.299316
664.132141 2179.935303
664.213989 2387.864258
664.224792 4828.984863
664.358276 2939.140869
664.448059 2465.124268
664.468811 4470.577148
666.674927 6462.462891
668.40564 2384.320312
668.63208 3278.642822
668.856079 2691.509766
671.682434 2462.323975
672.964172 3241.664062
673.18219 2748.960205
675.86792 2429.449219
676.573303 2557.039062
680.849609 2519.191162
682.264221 2459.7771
685.590393 3192.719238
686.584473 3308.584717
686.603271 6262.69043
686.615662 5617.892578
686.632507 3894.721924
686.653625 4534.805664
686.694458 2229.596191
686.754578 4165.83252
686.824951 2784.219971
686.859985 4178.099609
686.875671 4499.270508
688.376465 2786.264893
688.456238 2713.938477
689.452698 2272.611572
694.961853 2252.293457
696.298889 3368.99707
696.329895 4136.068848
696.600281 2936.556641
696.637085 1955.090576
696.641479 2127.387695
696.660339 3140.217773
696.676636 4943.763672
696.714294 4393.744629
696.816101 5101.225098
696.889282 5125.379395
696.91449 3101.182617
696.955383 3988.765137
696.980103 2532.750732
697.664734 2852.976807
697.6828 3846.935059
697.697937 4338.01416
697.79187 2677.161621
697.983154 2608.528076
700.609924 2328.449219
707.55603 2451.05835
713.120178 2705.749512
713.210266 2257.875977
716.747009 2759.177979
717.534851 2118.5979
719.451355 2373.453369
719.514954 2419.208008
720.961975 2766.140381
721.74054 3953.735107
721.762573 2029.637085
721.789246 4210.971191
725.043457 2207.128418
726.527283 2890.594971
730.559204 2531.689209
732.080505 2638.898926
734.787109 2255.798096
736.272339 3045.577393
738.21698 2230.400635
739.218994 2394.131104
742.211609 4373.685547
742.363281 3038.850098
742.440125 2286.875488
742.447327 2262.890625
743.157288 2009.371582
743.897034 2525.099609
746.679688 2258.395996
751.800171 3057.387451
752.633057 2446.168945
753.525269 4922.442383
753.539978 4964.726074
753.572205 2677.342041
753.696228 4178.443848
753.794922 2916.477539
758.409851 3055.57251
759.826172 4266.109375
760.114258 2305.172363
761.863892 3069.063232
762.258179 2697.377686
762.676392 2043.946411
762.918152 2272.324707
764.129211 7014.598633
764.148376 6955.388672
764.301941 2228.122314
764.407776 2925.329834
765.217651 3455.288574
765.236755 2627.280518
771.688416 3585.111816
771.968384 4410.775391
779.134277 2824.765625
779.564758 2859.123047
783.077393 3062.076172
786.447449 2290.503662
790.903076 3105.258789
793.945557 3189.067139
795.073853 2065.710693
795.414673 4240.73877
801.542236 4750.679688
801.562744 3104.583984
801.788635 3408.977539
801.812683 2647.356201
801.837219 7333.168945
801.871765 3103.994141
802.337463 2464.16748
806.102173 2621.135986
810.625732 2269.060059
811.256348 2371.047119
813.297668 2230.645508
814.35553 2576.416016
814.637573 2039.834595
818.192566 2153.935547
823.988586 2416.656738
824.844421 2540.834961
826.343384 2551.026855
828.734985 2776.461426
830.944153 2587.592041
838.124817 2679.414551
838.78186 2271.594238
840.86969 2797.644775
846.223938 2397.576172
848.610901 2560.634277
853.520142 2780.65918
860.275391 2626.588867
863.712646 2491.374756
864.385437 2938.005371
864.727234 2570.878906
864.786072 2422.469971
867.352905 2379.149658
871.181091 3468.783691
871.543396 3504.034424
871.772949 2853.30835
871.791138 5297.759277
871.834229 4950.227051
871.962952 6513.555664
872.056946 5839.677734
872.092529 3297.530029
872.115845 6978.352539
872.133789 5910.965332
873.361572 3186.814941
875.880127 2563.540039
876.596436 2558.412109
877.672119 2367.512207
878.832642 2562.039307
878.920227 3624.019287
878.991516 2522.937988
879.058655 2784.150391
879.132812 3407.663818
879.220276 2860.694824
879.30835 4264.922852
879.742859 3088.010254
880.156799 2983.24707
881.042725 2710.425293
885.3172 2319.883789
889.392822 2499.655029
890.924011 2565.570801
891.33606 3018.671875
895.181152 3088.414062
896.274109 2798.623779
907.091003 2471.491211
911.452332 2513.495361
913.66748 2461.123779
913.936462 3050.818359
917.617065 2772.679932
919.826111 2331.612061
919.894043 3203.140137
921.305359 3889.853516
922.727661 2436.997803
931.924377 2120.640869
932.273743 2503.010986
937.762939 2574.5271
939.647278 2562.665283
941.302002 2868.761963
946.928711 2862.784668
947.145874 2587.490723
947.8526 2415.269287
947.897644 2817.940186
949.246948 2277.01123
949.81012 2507.920654
950.965271 2649.317383
951.946045 2329.023682
952.554504 2668.469482
954.834961 2866.999023
954.851013 3044.736572
955.002014 4049.519775
955.105469 7734.549316
955.140076 9919.197266
955.171631 21261.802734
955.2099 13654.774414
955.266357 2044.94104
955.899841 2098.982422
958.126709 2356.524902
958.19342 2531.818848
958.652954 2225.619629
969.901306 2839.078125
973.250732 3056.326416
973.684326 2281.321045
981.605835 2167.387695
983.413635 2370.995117
983.530945 2935.03833
990.703735 3311.12915
991.246704 2265.46875
993.430847 2329.41333
997.636719 2662.074707
999.319214 2352.939453
1002.926147 2593.82959
1003.122864 2445.839844
1005.222717 2361.113281
1008.249268 2985.111084
1009.996399 2180.843018
1019.315002 2380.363525
1022.58136 2330.123779
1026.560425 2195.022705
1028.513916 3041.690918
1030.042358 3350.283936
1031.0448 2851.025391
1032.388306 3027.87085
1032.880005 2555.647949
1037.501099 2334.671875
1037.61438 2512.036865
1037.763794 2569.885254
1043.893799 3105.371582
1044.24585 2436.576904
1044.626709 2373.889648
1045.028687 2421.341797
1045.31543 2348.997314
1047.8396 2673.758057
1048.106812 3025.594727
1054.339478 2009.30127
1054.778442 2282.177246
1054.794189 2312.876709
1059.919189 2743.712158
1062.890259 2245.044678
1063.357422 2484.907227
1064.028687 2356.835693
1065.259766 2884.890625
1065.341187 2142.423584
1067.643311 2393.490723
1069.510742 2207.102051
1073.193237 2872.835205
1082.277222 2744.534668
1083.875854 3874.780762
1089.680908 2548.615479
1093.54126 2207.980225
1098.27417 4065.768555
1099.978516 2540.22876
1102.870605 3293.025391
1105.818726 2773.881592
1107.458252 2518.178467
1113.578491 2371.831787
1114.176147 2248.909668
1115.295898 41630.945312
1116.29895 30583.550781
1116.470093 2303.62085
1117.293823 34791.75
1118.301636 3195.793213
1120.725464 2495.50708
1121.277588 2697.904297
1121.569458 1957.880371
1126.262939 13996.413086
1126.290527 2759.392578
1127.2677 10101.875977
1128.261719 10340.804688
1128.458496 2833.451904
1128.589355 2441.0
1129.68042 2297.352539
1136.540161 2356.5979
1137.607544 2473.198242
1139.160278 2432.368896
1141.723999 2548.928711
1141.999756 2388.781494
1143.16272 7281.344238
1143.229492 25337.931641
1143.291992 468950.84375
1143.415527 3138.065186
1144.15686 2247.076416
1144.168335 2729.982422
1144.234741 13885.22168
1144.295532 285410.59375
1145.161987 2833.106689
1145.182007 4708.881836
1145.230225 15050.782227
1145.289673 278002.0625
1146.292358 30871.640625
1149.068848 2380.084229
1154.64917 2216.647705
1154.766479 2214.718018
1164.105347 2755.311523
1166.092285 2432.331543
1169.309082 8417.899414
1170.309326 6541.468262
1170.650757 2635.24707
1171.306641 5001.290039
1173.634644 2999.97998
1179.00061 3528.682129
1179.115112 2758.509521
1181.069336 3807.418701
1187.148926 2631.193359
1189.120117 2453.375732
1192.563721 3651.12207
1192.6875 6437.900879
1192.862427 3566.526367
1192.988037 4960.435547
1193.044312 3685.211914
1193.094971 7624.34668
1193.179932 2302.401855
1198.713257 2677.431641
1200.390991 2449.430908
1203.179565 2222.64917
1203.221069 2410.689941
1210.363403 2349.42627
1212.094482 2774.429443
1212.394653 2032.054565
1212.448364 2502.016846
1212.596924 3619.123779
1214.643433 2571.955811
1218.486816 2534.858398
1224.817383 2568.547363
1234.865723 2903.033936
1236.1073 2670.572998
1238.618896 3518.182861
1238.650757 4636.797363
1238.720581 4534.323242
1238.89917 4352.554688
1239.128784 5304.878906
1245.956177 2391.693359
1246.439575 2523.456055
1246.644653 2513.930176
1256.885132 2274.638428
1257.806641 3538.845459
1259.33728 3459.697754
1260.182739 2523.843994
1260.318726 3400.896484
1261.254639 2477.788086
1261.320068 3639.043701
1268.643677 2721.593994
1269.321167 3436.533447
1274.566895 2183.113037
1277.349731 36928.695312
1278.352661 27152.533203
1279.348389 34192.546875
1280.356934 5436.751465
1281.046875 2072.620361
1281.804199 2488.232666
1282.792725 2447.814697
1286.90686 2658.041016
1287.323608 4371.092285
1287.699219 3168.663574
1288.312744 5273.955078
1289.329712 8040.409668
1290.312866 6262.425781
1296.055542 2549.968262
1297.705566 2365.952148
1301.760132 2296.441406
1301.947754 3270.925781
1303.371704 6163.895508
1304.367676 5632.404785
1304.653564 2421.32959
1304.736328 2473.970703
1304.796875 4373.217285
1304.84021 6225.317871
1304.907349 4166.949707
1304.93457 5288.095215
1304.976807 6378.796875
1305.019287 6052.494629
1305.068359 8557.075195
1305.093018 6919.32959
1305.117432 7945.508301
1305.182007 19113.226562
1305.205566 16859.767578
1305.266724 88770.539062
1305.344849 1521298.75
1305.441406 16944.517578
1305.531738 12444.670898
1305.595947 10208.646484
1305.616943 7531.458008
1305.643311 8210.779297
1305.663452 8281.694336
1305.686768 6953.818359
1305.710938 7640.541992
1305.75647 7018.04541
1305.775757 6076.689941
1305.798828 5798.149902
1305.824341 6647.13623
1305.839111 5607.100098
1305.867188 6860.729492
1305.892212 7018.584473
1305.907349 6157.913086
1305.9375 5951.490723
1305.957275 7695.866211
1306.004395 9586.928711
1306.046875 7989.249512
1306.071655 7423.133301
1306.091431 9371.130859
1306.115356 8242.286133
1306.136719 8491.46582
1306.164185 9296.542969
1306.181763 15913.813477
1306.206421 16133.301758
1306.268555 63506.257812
1306.348389 1052993.375
1306.431274 13158.260742
1306.449829 10043.454102
1306.49292 12141.37207
1306.52417 8045.609863
1306.539185 7404.376953
1306.562378 7966.288086
1306.583862 5964.976562
1306.611572 7747.668945
1306.674561 6335.597168
1306.706909 4710.635742
1306.730469 4727.472656
1306.776245 6206.601562
1306.817505 5506.32666
1306.864746 6908.269531
1306.90271 6464.644043
1306.940186 6841.422852
1306.972778 6215.11377
1306.997437 6184.867188
1307.011108 6609.69043
1307.057983 8921.407227
1307.086914 7160.913086
1307.105469 7830.51709
1307.12854 10415.648438
1307.175171 17038.177734
1307.268799 64180.976562
1307.343018 1121299.875
1307.422363 12330.307617
1307.442993 12322.569336
1307.463989 11303.447266
1307.488647 10682.150391
1307.512207 8333.629883
1307.53125 9104.321289
1307.553955 5365.160645
1307.580933 8519.290039
1307.624878 7118.363281
1307.667603 4673.124512
1307.692627 5176.255859
1307.920532 3278.232178
1308.242188 6536.240723
1308.274414 7269.613281
1308.346069 113123.617188
1309.331299 12758.400391
1310.630981 2262.622314
1311.007202 2927.705566
1311.800049 3734.505371
1311.943726 2272.64502
1314.083984 2697.237305
1316.912354 2658.398438
1318.188843 2879.774658
1319.648682 3539.212402
1320.214722 2970.017578
1320.497314 2668.671875
1322.375488 4303.750977
1323.388062 3776.090088
1323.544067 3715.363525
1325.792603 2542.280273
1331.279053 18763.408203
1331.361694 236425.09375
1331.471191 2613.311523
1331.487183 2393.531494
1332.282715 13598.069336
1332.364868 171201.328125
1333.280884 16301.589844
1333.359863 185240.1875
1334.36377 20085.990234
1335.364502 3453.757568
1338.99939 2404.370117
1339.808228 2615.888428
1341.1698 3257.939941
1350.411255 2487.505615
1353.111572 2569.393799
1353.69397 3011.546387
1360.430298 2416.303467
1360.769409 3144.397949
1365.5625 2897.643555
1366.762695 1971.804688
1366.776855 2053.35791
1367.192139 2783.549316
1373.508423 2459.404541
1373.682129 1947.960449
1373.710938 2242.036621
1374.332275 2805.00415
1374.564697 3036.175781
1374.643433 2804.689453
1377.772339 2428.990967
1382.46814 2665.109619
1382.509766 2529.883789
1383.089233 3043.613037
1387.385498 20050.435547
1388.387817 14685.835938
1389.383667 13736.166992
1389.819458 3225.159424
1392.063354 3015.159424
1395.257935 3942.388428
1395.339111 2666.648926
1395.585327 2689.456055
1397.463867 2458.845215
1404.810425 2509.217773
1407.542236 2250.940674
1411.667236 10161.579102
1411.732178 10104.019531
1411.780396 13937.808594
1411.98999 9013.233398
1412.175659 14813.84375
1412.243286 13114.515625
1412.300171 9810.291016
1420.312744 2967.094482
1421.887451 2258.952637
1423.29541 2341.69751
1426.341675 3067.071045
1426.887207 3108.688965
1426.999756 3098.253662
1428.422241 2431.607178
1429.955322 2427.196533
1431.420288 9860.875
1431.581055 3632.192383
1432.425781 6583.062012
1433.409424 5449.570801
1439.016846 2215.736084
1441.422729 2219.331787
1446.222168 3180.741699
1451.170898 3441.33667
1475.48584 2815.330078
1477.019775 2838.669922
1477.757812 2682.418213
1480.436646 2445.054932
1484.365479 3225.118652
1495.018555 2999.758057
1495.339844 3270.076172
1496.639648 2644.013428
1497.580566 2934.234863
1502.247192 2634.168945
1504.597778 2356.755127
1506.195679 3406.755859
1509.272217 2401.200439
1516.740845 2467.967529
1516.943848 2504.010498
1519.193726 5653.554688
1520.376465 3706.85791
1520.451782 8688.142578
1520.713745 4341.178711
1521.100342 2892.070312
1528.167847 3397.39624
1532.095703 2614.520752
1533.740356 2657.807129
1539.953247 2660.271729
1544.692627 2437.133301
1552.86792 2509.215576
1554.874878 2754.249512
1556.262817 2907.812988
1557.973022 2726.878662
1559.265625 2661.522705
1562.535156 2244.967041
1564.849976 2270.649902
1566.744629 3243.209473
1571.305786 2418.850586
1572.963501 2540.200684
1573.376465 2653.121582
1573.684814 3668.419922
1577.422974 2372.067871
1588.225708 3080.946289
1588.651245 2759.439209
1589.86377 3581.309082
1591.528931 3157.047119
1592.459351 15505.716797
1596.15686 3000.056396
1603.346924 2476.739258
1604.671997 2800.595947
1605.073608 3148.933594
1605.176392 3529.479004
1605.318237 3155.639648
1605.478638 2340.333496
1606.117188 2884.765137
1607.155518 2278.307129
1607.740845 2768.931641
1610.305054 3499.333496
1614.332886 2440.121582
1615.939209 2248.152344
1620.551392 3074.886719
1624.22937 2924.76416
1629.333252 3067.478027
1633.62561 2389.957031
1634.461182 3692.085938
1635.889526 2891.020996
1638.591675 3105.678223
1642.560181 2607.005127
1644.796997 2976.720459
1645.503296 3126.791016
1646.783447 2847.808105
1649.608032 2849.533203
1653.199585 4102.053223
1653.508301 2832.167969
1654.410767 2504.85791
1655.394531 2217.758545
1657.446167 2730.193115
1657.709839 2823.424316
1661.768799 2729.688232
1662.40332 2715.148926
1666.992798 2830.048828
1670.412231 3060.487061
1683.13562 2636.835205
1685.89978 3897.699951
1689.767578 2916.765869
1702.272949 7171.928223
1713.63147 2811.54834
1714.645874 3091.554199
1722.106201 2975.03418
1727.114502 4575.912109
1727.457886 2455.501709
1727.62561 3256.465332
1730.882202 2025.090698
1736.365967 2603.174316
1737.057983 2103.208252
1740.722656 3112.735352
1747.657837 2412.645508
1749.580811 2659.136719
1755.410767 3003.645752
1758.983398 2770.5
1760.203247 4724.112793
1762.518677 3221.586914
1770.911133 2809.92749
1775.966675 2537.157471
1776.20813 2694.789062
1777.680176 2169.53833
1777.708496 2209.639893
1778.949585 2657.333252
1781.677368 2973.145996
1783.299927 2575.916748
1784.663818 2274.004883
1786.373291 2548.723389
1786.874634 2372.688477
1793.816772 3407.991943
1795.500854 2727.154541
1796.546753 2906.448242
1798.180664 3891.181152
1805.163696 2627.063965
1807.278931 3699.071045
1809.51001 3002.763672
1811.799316 3055.246826
1812.481323 3183.034668
1813.622559 2189.785645
1813.829224 2577.109375
1814.185791 2522.543457
1817.159546 2584.517578
1818.346069 3431.869141
1818.784058 2579.39209
1821.624878 3677.437012
1822.729492 2628.518066
1824.277832 3587.109375
1825.683716 11023.147461
1825.793335 3519.429688
1825.843506 3440.996582
1829.697998 4035.429443
1834.266602 2461.236816
1837.913574 2608.192627
1841.514526 2885.42749
1841.828857 3633.567139
1843.844727 3068.029053
1848.628784 3292.898438
1850.964111 2917.718018
1854.928833 2358.578857
1859.913574 3128.100342
1861.985229 2451.566406
1864.855957 2656.554443
1864.908813 2926.490479
1865.377563 3289.314697
1865.585571 3732.177734
1867.921875 2711.050537
1871.851807 2810.892578
1872.805786 3020.912109
1874.78833 2673.756836
1876.888916 2601.298584
1877.706299 2575.789551
1880.029053 3020.17749
1882.485107 2535.291016
1882.753784 2222.685059
1883.893188 3229.653809
1884.470825 4212.32959
1884.800781 2997.493408
1885.77124 3010.72583
1888.598511 2460.175781
1889.957886 3393.158691
1890.162231 2644.358643
1891.685791 4303.974121
1893.688843 4295.210449
1894.137207 2698.918701
1898.597046 7546.933105
1898.693481 7387.395508
1901.321777 2642.489258
1904.322998 2147.5
1906.246094 2763.38208
1907.566162 3489.424316
1910.9729 3134.871094
1916.959839 2879.245117
1918.811646 2763.110352
1919.543213 2608.902344
1923.542236 2543.841553
1929.859741 2716.474365
1929.95459 2855.341553
1931.442749 3097.350586
1937.495117 3253.916748
1939.123901 3005.636475
1941.580322 2799.822021
1941.883301 3927.654053
1948.008667 2741.879883
1958.115112 4081.647217
1964.443848 2626.982422
1966.009033 3923.177246
1971.551025 2506.553467
1971.827271 2946.598145
1975.348877 3523.203857
1978.216309 3608.064697
1978.920898 2976.249023
1983.547363 2365.658936
1986.920044 2554.618164
1992.314331 2894.269775
1994.205078 2885.408447
1998.795654 3030.625244
END IONS
