BEGIN IONS
PEPMASS=1204.83
CHARGE=1
MSLEVEL=2
SOURCE_INSTRUMENT=LC-ESI-Orbitrap
FILENAME=f.lfnothias/1901_fungal_symbiont_annotation_confirmation/Pure_compounds/Pure_compounds_mzML/LeucinostatinAandB_1uL_sensitive.mzML;
SEQ=*..*
IONMODE=Positive
ORGANISM=GNPS-LIBRARY
NAME=Leucinostatin B M+H M+H
PI=Dorrestein
DATACOLLECTOR=lfnothias
SMILES=CC[C@H](C)/C=C/C(=O)N1C[C@H](C[C@H]1C(=O)N[C@@H](C[C@H](C)CC(CC(=O)CC)O)C(=O)N[C@@H]([C@@H](C(C)C)O)C(=O)NC(C)(C)C(=O)N[C@@H](CC(C)C)C(=O)N[C@@H](CC(C)C)C(=O)NC(C)(C)C(=O)NC(C)(C)C(=O)NCCC(=O)N[C@@H](C)CNC)C
INCHI=InChI=1S/C61H109N11O13/c1-20-37(9)22-23-48(76)72-33-39(11)30-46(72)54(81)66-45(29-38(10)28-42(74)31-41(73)21-2)52(79)68-49(50(77)36(7)8)55(82)70-60(15,16)57(84)67-43(26-34(3)4)51(78)65-44(27-35(5)6)53(80)69-61(17,18)58(85)71-59(13,14)56(83)63-25-24-47(75)64-40(12)32-62-19/h22-23,34-40,42-46,49-50,62,74,77H,20-21,24-33H2,1-19H3,(H,63,83)(H,64,75)(H,65,78)(H,66,81)(H,67,84)(H,68,79)(H,69,80)(H,70,82)(H,71,85)/b23-22+/t37-,38+,39-,40-,42?,43-,44-,45-,46-,49-,50+/m0/s1
INCHIAUX=JLDCSWRYRVBFRU-GVWIJYOFSA-N
PUBMED=
SUBMITUSER=lfnothias
TAGS=
LIBRARYQUALITY=3
SPECTRUMID=CCMSLIB00005435720
SCANS=1191
70.065308 30217.119141
70.526802 26087.78125
72.080963 171227.53125
74.182831 26640.0625
77.312859 27514.498047
81.069847 120790.351562
82.041351 39129.378906
82.065048 47971.550781
83.048882 30183.839844
83.085655 133581.328125
84.080788 13168040.0
85.084007 33890.785156
86.096428 245843.046875
91.78064 27970.837891
93.069809 198357.90625
95.049065 33910.371094
95.085419 128432.476562
96.927399 30107.822266
100.075623 245699.671875
102.091095 118869.039062
103.086472 38989.171875
111.080276 11316823.0
112.075478 478568.75
112.083359 50428.136719
113.1073 245909.375
114.09108 43676.117188
123.116524 559807.8125
124.111481 31993.537109
124.96479 26328.011719
125.107178 679983.875
126.081772 31069.478516
126.091171 649059.9375
126.889603 32380.943359
129.102127 187163.28125
135.840454 28083.544922
142.133728 1027156.25
142.14502 51919.941406
143.117905 193419.234375
151.112015 65297.6875
160.144516 166266.296875
168.138443 48732.691406
169.121689 92848.03125
169.134232 44624.164062
171.135483 34683.878906
171.150162 165257.3125
177.089935 26889.988281
187.143921 536831.1875
194.153656 33950880.0
195.156982 289495.8125
197.12796 56493.339844
199.1436 293788.53125
199.17955 90562.15625
214.154938 102032.234375
215.138885 629705.125
222.148666 20083084.0
223.151993 175982.0
223.173386 27943.238281
227.185013 91319.523438
228.169601 37447.0
239.175629 300624.125
245.196945 367952.09375
312.227783 147465.265625
325.212463 98481.960938
328.223206 260078.875
330.250977 208127.375
333.21756 32141.505859
361.248138 36950.199219
361.546783 30653.775391
389.278839 85989.898438
417.273315 348124.78125
435.284851 706796.875
443.333344 101378.3125
474.296814 69118.875
492.306946 463669.3125
518.360291 119697.453125
528.339966 180652.421875
546.352966 2017808.25
564.363586 862322.9375
577.357788 108303.609375
603.409363 129617.226562
613.396118 56012.265625
631.406006 1569448.375
649.416809 420737.96875
744.494568 39618.007812
762.496338 193365.546875
875.585449 103491.851562
960.635803 99023.21875
1204.829834 470495.71875
END IONS
