BEGIN IONS
PEPMASS=913.898
CHARGE=2
MSLEVEL=2
SOURCE_INSTRUMENT=LC-ESI-qTof
FILENAME=f.philipwi/0_WilliamsFreshwaterCyanosStandardsConvertedTo_mzXML_v2/PW-3_P1-A-3_Microviridin_N_1808amu_01_15521_Scan496-539.mzXML;
SEQ=*..*
IONMODE=Positive
ORGANISM=GNPS-LIBRARY
NAME=Microviridin N M+H
PI=Philip Williams
DATACOLLECTOR=Williams
SMILES=O=C(CCC(NC(C(NC(C(NC(C(NC(C(NC(C1CCCN12)=O)CO)=O)CC(OC(C(NC(C(NC(C3CCCN3C(C4N(C(C(NC(C)=O)C)=O)CCC4)=O)=O)C)=O)C(NC(C(N5)=O)CC(C)C)=O)C)=O)=O)CC6=CNC7=C6C=CC=C7)=O)CCC(OC)=O)=O)C(NC(C(O)=O)CC8=CC=C(O)C=C8)=O)NCCCCC5C(NC(CC9=CNC%10=C9C=CC=C%10)C2=O)=O
INCHI=
INCHIAUX=
PUBMED=60159565
SUBMITUSER=philipwi
TAGS=
LIBRARYQUALITY=3
SPECTRUMID=CCMSLIB00000425012
SCANS=499
113.379074 36.0
130.471939 36.0
131.434799 52.0
153.134537 64.0
158.056198 68.0
159.090225 324.0
159.204269 36.0
160.098282 104.0
162.088547 84.0
167.109741 148.0
168.108292 108.0
169.108093 96.0
170.046478 172.0
171.080109 120.0
173.067917 132.0
175.077286 160.0
180.066284 124.0
181.094193 92.0
181.325867 44.0
182.07341 136.0
183.038025 64.0
184.031143 64.0
185.076889 84.0
185.399963 24.0
186.051498 124.0
188.065414 108.0
189.063278 144.0
195.106964 820.0
196.131241 76.0
197.123413 80.0
201.144241 96.0
203.083572 32.0
205.068726 104.0
206.083221 92.0
208.128922 40.0
209.123306 56.0
211.103241 912.0
212.107574 216.0
213.077972 76.0
213.96286 28.0
220.10434 132.0
221.117401 72.0
223.131485 68.0
225.336456 48.0
226.102615 32.0
231.12529 92.0
236.102615 80.0
238.15416 80.0
239.02063 52.0
239.158615 116.0
239.681381 36.0
240.140396 112.0
241.094681 76.0
242.045807 56.0
242.154572 120.0
242.819962 32.0
247.0952 88.0
250.105133 100.0
251.124344 88.0
251.852188 32.0
252.123718 400.0
252.287369 56.0
252.682404 84.0
253.134033 172.0
254.784256 52.0
255.0896 128.0
256.139313 76.0
258.08725 104.0
264.086121 88.0
264.894745 40.0
265.11264 84.0
266.13974 852.0
266.515686 80.0
266.859192 44.0
267.151947 280.0
268.149292 108.0
269.196869 32.0
270.138977 120.0
270.285675 24.0
270.988281 40.0
273.143707 88.0
274.1138 52.0
275.180786 96.0
278.723969 24.0
279.13916 52.0
280.109161 100.0
280.183838 84.0
282.12915 72.0
283.952301 36.0
284.113129 108.0
285.108368 120.0
285.188904 116.0
286.697998 32.0
289.717255 40.0
292.076508 108.0
293.112366 184.0
294.095398 132.0
295.167694 56.0
295.781311 36.0
296.121246 56.0
298.121033 84.0
300.114777 352.0
300.403687 44.0
301.099792 128.0
302.134949 120.0
303.127747 52.0
305.184418 96.0
306.144592 76.0
307.141876 48.0
307.818146 40.0
307.907623 36.0
308.150208 316.0
309.015991 36.0
309.195282 144.0
311.070007 108.0
311.159973 96.0
312.090088 76.0
313.108276 72.0
315.110779 64.0
317.011841 28.0
317.130066 172.0
318.136444 172.0
319.171936 80.0
320.163483 36.0
321.133728 104.0
321.819489 32.0
322.178467 84.0
323.16095 64.0
326.214142 80.0
327.712585 72.0
328.115784 220.0
328.520844 28.0
329.110352 112.0
329.630951 36.0
330.123413 240.0
331.148804 180.0
332.216858 64.0
332.832947 128.0
333.181915 108.0
334.194977 108.0
335.198578 136.0
336.868896 40.0
337.088287 32.0
337.208344 368.0
337.688354 120.0
338.192261 80.0
344.173584 112.0
345.155853 56.0
346.127625 76.0
347.164642 64.0
347.540344 32.0
347.766174 48.0
348.015839 44.0
348.16748 48.0
348.872589 40.0
349.06311 44.0
349.177094 1216.0
349.348999 56.0
349.427094 40.0
349.706512 44.0
349.842651 48.0
350.183502 304.0
350.350525 28.0
350.493713 36.0
351.181061 148.0
351.915314 56.0
352.202362 76.0
353.190002 164.0
354.130066 48.0
357.112244 48.0
359.138855 88.0
361.165833 108.0
363.658936 76.0
364.048035 32.0
364.181824 84.0
365.197479 240.0
365.716217 44.0
366.936249 36.0
367.184906 256.0
369.100739 72.0
369.223206 84.0
369.823639 28.0
373.147186 84.0
376.169189 88.0
377.165894 88.0
378.776978 28.0
379.211304 56.0
379.683167 104.0
380.105591 92.0
380.702362 92.0
381.174896 108.0
383.218903 76.0
384.230347 36.0
385.169434 116.0
387.184875 68.0
388.704071 120.0
389.65979 112.0
390.780487 48.0
391.167053 84.0
392.185211 64.0
393.30481 52.0
394.266174 40.0
396.141663 96.0
399.116058 68.0
399.230682 84.0
400.224762 68.0
400.888184 96.0
401.143463 64.0
403.214417 88.0
404.20459 88.0
405.175201 68.0
407.150665 104.0
408.157532 64.0
408.634155 140.0
409.214813 172.0
410.156097 84.0
410.259369 104.0
414.829773 52.0
415.076477 44.0
415.414215 32.0
416.12677 112.0
416.662415 140.0
418.160126 40.0
419.18338 72.0
420.71228 124.0
421.150482 92.0
424.112152 32.0
424.689941 40.0
425.189301 100.0
425.623169 44.0
425.71521 112.0
426.149353 48.0
427.201599 92.0
429.71756 100.0
430.319489 92.0
431.257141 96.0
432.22403 72.0
432.475861 40.0
433.284882 72.0
434.181763 100.0
434.27066 204.0
435.264557 84.0
436.194946 80.0
436.621765 52.0
437.15564 92.0
438.515198 40.0
441.236237 76.0
443.145996 140.0
443.441254 40.0
443.709778 88.0
443.964935 60.0
444.236755 68.0
444.43515 152.0
445.268738 48.0
447.20105 112.0
448.435333 48.0
450.205414 56.0
451.152679 96.0
452.246307 220.0
452.358521 44.0
453.240204 140.0
454.163483 96.0
456.734619 52.0
457.157043 80.0
458.188141 144.0
459.171204 84.0
462.253021 1248.0
463.250549 148.0
464.221649 240.0
464.711426 104.0
465.220001 132.0
465.797638 132.0
465.976501 56.0
466.155426 112.0
468.166962 52.0
469.15274 120.0
469.207245 52.0
469.23526 88.0
470.20816 48.0
470.321075 48.0
470.445496 40.0
470.708221 116.0
472.01416 44.0
472.771149 72.0
474.21933 88.0
475.221619 84.0
475.992188 56.0
476.395569 160.0
478.247833 80.0
478.798309 84.0
479.140411 36.0
479.279968 172.0
480.272339 336.0
481.265533 208.0
482.019104 52.0
482.173065 80.0
482.705109 72.0
483.223419 104.0
483.980408 36.0
484.160431 108.0
485.173157 52.0
485.748993 92.0
486.17746 296.0
486.739349 124.0
487.253418 216.0
487.675629 44.0
489.219482 96.0
489.733032 120.0
490.249725 104.0
492.22934 132.0
492.360382 28.0
492.71405 140.0
494.285889 64.0
494.455994 64.0
495.250458 88.0
496.271973 108.0
496.925415 40.0
497.167023 228.0
497.33963 56.0
497.730042 136.0
498.205139 88.0
498.304718 96.0
498.774414 40.0
499.201599 136.0
499.728699 116.0
500.231415 148.0
500.755219 32.0
501.176117 80.0
501.754211 84.0
502.215271 100.0
502.754242 108.0
503.2117 36.0
503.540649 56.0
503.726624 68.0
504.195557 104.0
506.190399 40.0
506.778564 100.0
507.207367 96.0
507.453247 48.0
507.754852 136.0
508.228943 64.0
508.358307 36.0
508.703308 136.0
509.260559 96.0
511.294495 72.0
511.611633 52.0
511.72699 144.0
512.217407 100.0
513.343323 68.0
513.747803 152.0
514.042297 52.0
514.268066 88.0
515.239746 128.0
515.84491 28.0
517.219116 56.0
517.699768 140.0
518.265564 68.0
518.715515 132.0
519.7323 80.0
520.70636 160.0
521.972656 32.0
522.220276 56.0
522.730225 92.0
523.202026 292.0
524.232422 160.0
524.714172 80.0
525.181519 136.0
526.190002 32.0
526.65802 152.0
526.786621 76.0
527.243347 84.0
528.239075 140.0
529.294495 96.0
529.543823 120.0
529.734558 104.0
530.820801 40.0
531.269531 116.0
531.73175 48.0
532.159424 44.0
532.378662 32.0
532.761169 116.0
533.243103 112.0
533.756042 232.0
534.242981 112.0
534.616638 60.0
535.25061 64.0
536.745117 152.0
537.282043 156.0
537.724487 100.0
538.559143 136.0
539.256409 68.0
539.758057 196.0
540.143188 88.0
540.246887 92.0
541.121399 52.0
541.254883 108.0
542.100525 132.0
542.245667 92.0
542.768616 120.0
543.303345 96.0
544.299316 100.0
545.058044 80.0
546.75592 56.0
547.26886 108.0
548.307129 56.0
548.775269 112.0
549.272156 180.0
549.760559 80.0
550.253418 152.0
550.757812 104.0
551.231689 140.0
551.790527 68.0
552.914124 44.0
553.738831 68.0
553.978821 36.0
554.271423 96.0
554.542664 56.0
555.235413 104.0
555.777161 116.0
556.246643 112.0
556.74292 132.0
557.254395 96.0
558.338379 52.0
558.557678 100.0
558.775269 96.0
559.303467 88.0
560.302124 76.0
560.766052 212.0
561.23407 76.0
561.735718 152.0
562.049866 32.0
562.265442 456.0
562.578918 28.0
562.765625 156.0
563.266846 104.0
563.743713 220.0
564.30719 236.0
564.74408 56.0
565.277466 180.0
565.773621 136.0
566.274536 152.0
566.77478 128.0
567.321228 40.0
568.035034 48.0
568.276794 156.0
568.764526 96.0
569.255188 108.0
569.372742 28.0
570.250183 240.0
570.765137 256.0
571.270813 276.0
571.763306 116.0
572.253357 184.0
573.261719 116.0
573.786621 128.0
574.257385 116.0
575.294861 444.0
575.5802 112.0
575.763733 120.0
576.289246 120.0
576.482849 40.0
576.773682 128.0
577.302917 64.0
578.270569 168.0
578.750244 104.0
578.901733 120.0
579.257751 196.0
579.563293 256.0
579.781555 152.0
579.897461 136.0
580.27356 220.0
580.438354 40.0
580.776245 200.0
581.037415 36.0
581.288879 72.0
581.589966 76.0
581.772034 136.0
582.144287 32.0
582.267334 292.0
583.760315 92.0
585.305847 56.0
585.76416 92.0
586.29126 96.0
587.307983 92.0
588.313171 96.0
588.590881 144.0
589.290405 140.0
589.457214 36.0
590.246765 60.0
590.776855 96.0
591.207336 64.0
591.322754 72.0
592.272888 128.0
592.820679 112.0
593.307678 72.0
594.254761 224.0
594.762024 108.0
596.05304 44.0
596.270935 76.0
597.260986 244.0
598.24292 116.0
598.779602 148.0
599.231995 252.0
600.231079 92.0
600.39209 116.0
601.248108 88.0
601.773376 188.0
602.278687 152.0
602.763733 188.0
603.295959 76.0
603.781433 40.0
604.339417 156.0
605.308472 56.0
605.808228 148.0
606.041138 60.0
606.305847 64.0
606.724731 88.0
607.284607 152.0
608.225037 92.0
608.74115 32.0
609.261475 104.0
609.559265 84.0
609.77002 152.0
610.188904 68.0
610.778503 148.0
611.271545 116.0
611.706177 148.0
611.774597 88.0
611.799927 116.0
612.284973 96.0
612.411133 52.0
613.263306 64.0
613.768799 132.0
614.276917 112.0
615.032532 36.0
615.3078 92.0
616.440308 52.0
617.251099 128.0
617.77124 92.0
618.289429 156.0
618.673889 20.0
619.006897 32.0
619.292419 144.0
619.927063 32.0
620.224548 124.0
621.221741 128.0
621.753601 108.0
622.087463 36.0
622.312744 72.0
622.778809 80.0
623.284973 140.0
623.726135 60.0
623.853455 52.0
624.283447 32.0
624.799927 120.0
625.278564 96.0
625.478516 36.0
625.813354 148.0
625.956848 36.0
626.266602 48.0
626.818359 112.0
627.313232 132.0
627.424988 48.0
627.796753 156.0
628.279968 204.0
628.797974 400.0
629.134583 32.0
629.315369 92.0
629.518372 24.0
629.784973 368.0
630.275024 160.0
630.766479 88.0
631.255493 104.0
632.28833 40.0
632.5448 36.0
633.30481 92.0
633.811951 80.0
634.004578 24.0
634.269592 88.0
634.470093 36.0
634.79126 176.0
634.903687 52.0
635.291565 100.0
635.771301 148.0
636.304626 104.0
636.800415 96.0
637.000061 68.0
637.300964 316.0
637.465759 80.0
637.775635 248.0
638.28894 136.0
639.304199 72.0
639.795898 28.0
640.273743 200.0
640.793823 124.0
641.328552 208.0
641.473816 36.0
641.780579 96.0
642.271973 148.0
642.830688 32.0
643.310486 112.0
643.794067 104.0
644.300842 256.0
644.792664 100.0
645.277283 204.0
645.921326 48.0
646.324585 144.0
647.299072 96.0
647.801941 52.0
648.784668 88.0
649.296875 280.0
649.604065 52.0
649.797791 200.0
650.032471 44.0
650.323547 308.0
650.797485 332.0
651.30127 92.0
651.808838 304.0
651.994507 40.0
652.173584 44.0
652.348206 44.0
652.504578 96.0
652.801208 124.0
653.08551 28.0
653.319336 136.0
653.557983 48.0
653.75354 100.0
654.294739 124.0
654.829712 52.0
655.286499 200.0
655.812622 132.0
656.039368 32.0
656.351807 88.0
657.309082 184.0
657.671082 44.0
658.316528 516.0
658.80304 292.0
658.979492 36.0
659.30835 172.0
659.519592 32.0
659.805054 448.0
659.945312 52.0
660.303528 208.0
660.797058 120.0
661.167175 48.0
661.292419 260.0
661.805725 128.0
662.316101 240.0
662.814087 80.0
663.293762 140.0
663.799133 368.0
664.304749 268.0
664.55481 32.0
664.807312 152.0
665.291565 264.0
665.785095 284.0
666.332275 84.0
666.791504 144.0
666.989075 60.0
667.532471 28.0
667.845398 68.0
668.273743 192.0
668.812744 284.0
669.319153 96.0
669.706421 76.0
669.988647 120.0
670.265442 112.0
670.747803 92.0
671.278625 308.0
672.304932 584.0
672.795898 180.0
673.028015 32.0
673.314941 544.0
673.54071 40.0
673.814697 436.0
674.372803 388.0
674.731201 56.0
675.046997 32.0
675.347473 200.0
675.490601 36.0
675.809631 136.0
676.308777 328.0
676.604736 108.0
676.787109 48.0
677.304077 136.0
677.795654 116.0
677.987854 96.0
678.305969 156.0
678.546082 32.0
678.806396 124.0
679.293518 96.0
679.675659 44.0
680.257446 60.0
680.806213 196.0
681.155518 36.0
681.315247 80.0
681.816711 144.0
682.31189 148.0
682.828064 76.0
683.036743 44.0
683.294983 96.0
683.811951 260.0
684.32605 124.0
684.784729 392.0
685.054016 36.0
685.29657 240.0
685.827637 172.0
686.299988 136.0
686.833313 152.0
686.97406 52.0
687.291504 44.0
688.322327 176.0
688.528687 24.0
688.797485 60.0
689.248108 60.0
689.800476 232.0
689.917664 136.0
690.31958 120.0
690.989685 32.0
691.257812 64.0
691.401184 80.0
691.808655 116.0
692.230164 32.0
692.362244 68.0
692.582397 56.0
693.311218 84.0
693.827515 156.0
694.291138 176.0
694.61377 32.0
694.810852 176.0
695.308899 336.0
695.833313 128.0
696.160217 36.0
696.319397 192.0
696.462952 44.0
696.817017 92.0
697.380127 88.0
697.641052 40.0
697.819824 104.0
698.095703 24.0
698.30719 72.0
698.831543 144.0
699.317078 148.0
699.782776 164.0
700.067627 56.0
700.324768 120.0
700.809937 120.0
701.029297 36.0
701.299377 112.0
701.501953 48.0
701.842102 84.0
702.335571 64.0
702.818665 172.0
703.022278 36.0
703.302307 72.0
703.969055 32.0
704.087463 36.0
704.310547 112.0
704.561157 48.0
704.805908 248.0
705.288879 56.0
705.627502 40.0
706.335938 156.0
706.681946 112.0
706.802551 152.0
707.303955 140.0
707.817078 208.0
708.162109 72.0
708.328735 116.0
708.610779 32.0
708.803711 204.0
709.274841 64.0
709.518921 112.0
709.784241 92.0
710.274719 192.0
710.580505 48.0
710.839783 296.0
711.32373 156.0
711.831909 196.0
712.195679 32.0
712.340271 32.0
712.621033 32.0
712.808228 100.0
713.30719 192.0
713.812683 96.0
714.0 68.0
714.34198 128.0
714.81781 104.0
715.209839 32.0
715.341492 184.0
715.816101 172.0
716.31958 232.0
716.821167 180.0
717.333374 76.0
718.315063 128.0
718.791077 64.0
719.324158 112.0
719.512207 52.0
720.12793 32.0
720.29895 152.0
720.816711 276.0
721.304871 144.0
721.834412 244.0
722.823364 128.0
723.259216 56.0
723.587402 64.0
723.802856 64.0
723.93042 72.0
724.187683 96.0
724.3078 124.0
724.838867 88.0
725.783875 80.0
726.024353 36.0
726.333496 100.0
727.309937 108.0
727.808899 196.0
728.335693 120.0
728.809448 56.0
729.334229 224.0
729.838379 368.0
730.11792 44.0
730.342041 448.0
730.83252 352.0
731.13446 44.0
731.335205 224.0
731.842651 100.0
732.824585 84.0
733.352173 124.0
734.375 80.0
734.637573 28.0
734.827454 204.0
734.983154 48.0
735.138672 48.0
735.327026 364.0
735.553528 132.0
735.829224 308.0
736.330811 280.0
736.822205 356.0
737.329285 104.0
737.525696 80.0
737.832275 104.0
737.993164 40.0
738.3479 576.0
738.582092 40.0
738.839905 364.0
739.262024 84.0
739.818054 128.0
740.331421 176.0
740.575623 44.0
740.828003 44.0
741.357544 64.0
741.829346 516.0
742.1203 32.0
742.325439 128.0
742.82605 208.0
743.330322 312.0
743.833557 1164.0
744.338074 1228.0
744.62561 52.0
744.839722 920.0
745.33728 304.0
745.684387 76.0
745.839661 520.0
746.015137 32.0
746.206665 84.0
746.334717 192.0
746.833679 280.0
747.327271 204.0
747.820374 92.0
748.355896 188.0
748.81311 76.0
749.030212 40.0
749.309082 196.0
749.553711 64.0
749.843994 388.0
750.338379 324.0
750.705078 40.0
750.856934 236.0
751.002869 32.0
751.331482 208.0
751.838257 112.0
752.344604 1884.0
752.851685 2160.0
753.083069 36.0
753.335205 1160.0
753.599609 48.0
753.844543 488.0
754.010498 104.0
754.142212 44.0
754.342407 168.0
754.553223 28.0
754.837158 504.0
755.337402 404.0
755.623474 40.0
755.832764 604.0
756.334229 288.0
756.463013 72.0
756.693115 32.0
756.836182 220.0
757.339905 840.0
757.835632 928.0
758.34613 828.0
758.594238 44.0
758.849426 616.0
759.042358 52.0
759.331604 476.0
759.845215 160.0
760.333374 224.0
760.840454 124.0
761.186462 172.0
761.346008 152.0
761.678955 28.0
761.854858 76.0
762.332886 224.0
762.664429 36.0
762.838135 720.0
763.35144 280.0
763.842957 444.0
764.14386 36.0
764.343933 716.0
764.863342 404.0
765.14856 32.0
765.346558 392.0
765.493835 112.0
765.595825 56.0
765.844543 104.0
766.04425 36.0
766.342285 2236.0
766.843201 2472.0
767.076843 168.0
767.346741 1304.0
767.510681 84.0
767.65625 40.0
767.8349 460.0
768.096008 60.0
768.348083 780.0
768.840393 368.0
769.067993 32.0
769.340454 904.0
769.486877 52.0
769.838379 324.0
770.075928 40.0
770.34375 192.0
770.832581 184.0
771.350037 100.0
771.837952 116.0
772.253235 28.0
773.032837 44.0
773.310181 124.0
773.812805 76.0
774.334778 288.0
774.823853 92.0
775.337585 220.0
775.569275 32.0
775.842407 220.0
776.326538 92.0
776.826599 272.0
777.364258 404.0
777.629883 128.0
777.83429 92.0
778.346069 184.0
778.717346 100.0
778.860657 112.0
779.052612 40.0
779.334473 52.0
779.835632 32.0
780.323669 96.0
780.565613 36.0
780.840027 100.0
780.975281 76.0
781.866211 48.0
782.811157 68.0
783.816406 116.0
784.167175 112.0
784.345703 148.0
784.863525 96.0
785.327759 308.0
785.848389 232.0
786.39209 72.0
786.853455 128.0
787.314087 104.0
788.180786 100.0
788.77356 112.0
788.831482 48.0
789.191101 32.0
789.334351 100.0
789.830872 128.0
790.311707 72.0
790.823059 136.0
791.336121 80.0
791.789795 120.0
792.349548 216.0
792.833557 216.0
793.153564 84.0
793.381226 120.0
793.871826 36.0
794.247192 40.0
794.349121 84.0
794.823975 52.0
795.354919 60.0
795.507019 32.0
795.830688 172.0
796.862488 92.0
797.083069 64.0
797.322388 136.0
797.605774 140.0
797.88324 112.0
798.822083 164.0
799.160889 40.0
799.337036 344.0
799.496704 76.0
799.845825 196.0
800.322327 112.0
800.856506 208.0
801.320801 336.0
801.949524 84.0
802.375488 308.0
802.841187 72.0
803.324158 128.0
803.814575 260.0
804.319946 232.0
804.831299 100.0
805.208984 56.0
805.342407 128.0
805.842224 24.0
806.34613 144.0
806.529968 44.0
806.662231 52.0
806.855835 96.0
807.337036 148.0
807.833923 64.0
808.324402 136.0
809.338318 108.0
809.846191 108.0
810.390503 48.0
810.535645 36.0
810.837097 80.0
811.116516 36.0
811.337585 524.0
811.846497 348.0
812.342224 332.0
812.865784 132.0
813.372559 88.0
813.860107 76.0
813.987366 100.0
814.16925 32.0
814.394653 64.0
814.605835 40.0
814.751404 60.0
815.117493 364.0
815.315552 92.0
815.820251 96.0
816.332825 96.0
816.845154 92.0
818.467407 32.0
818.859192 136.0
819.288208 96.0
819.415955 160.0
819.5802 132.0
819.846802 124.0
820.345093 76.0
821.374512 104.0
822.100403 44.0
822.356323 36.0
823.032776 28.0
823.354553 124.0
823.801025 60.0
824.867126 96.0
825.373901 324.0
825.594971 148.0
825.857727 192.0
826.016296 28.0
826.355286 404.0
826.866821 300.0
827.362549 80.0
827.431152 104.0
827.867676 108.0
828.391174 200.0
828.601501 36.0
828.858398 44.0
828.986816 40.0
829.207092 88.0
829.359985 148.0
829.842773 216.0
830.365601 96.0
830.841553 120.0
831.367859 84.0
831.705322 48.0
831.834045 68.0
832.421021 52.0
832.447876 84.0
832.876526 132.0
833.268616 32.0
833.861267 444.0
834.188904 36.0
834.373291 256.0
834.872681 388.0
835.128113 56.0
835.37207 404.0
835.570251 36.0
835.868591 240.0
836.340027 152.0
836.531006 96.0
837.349915 104.0
837.838196 80.0
838.396973 116.0
838.86554 252.0
839.369141 256.0
839.878845 328.0
840.248047 84.0
840.37915 156.0
840.870789 276.0
841.118286 40.0
841.370361 228.0
841.849854 92.0
842.141174 44.0
842.378174 136.0
842.889343 800.0
843.379822 596.0
843.880188 724.0
844.377747 476.0
844.883545 240.0
845.359314 184.0
845.866699 788.0
846.372986 320.0
846.718018 36.0
846.888428 200.0
847.228149 32.0
847.381531 116.0
847.6828 52.0
847.874329 1952.0
848.368713 2012.0
848.670044 44.0
848.873413 2272.0
849.37262 900.0
849.630981 96.0
849.865601 1140.0
850.134338 36.0
850.385254 448.0
850.879517 268.0
851.362854 256.0
851.863708 280.0
852.10553 36.0
852.359802 96.0
852.529785 40.0
852.682495 40.0
852.861633 436.0
853.058167 44.0
853.363464 724.0
853.610352 48.0
853.867004 664.0
854.131775 164.0
854.357239 172.0
854.88916 172.0
855.118225 52.0
855.363342 336.0
855.700562 92.0
855.861694 356.0
856.216431 84.0
856.390625 324.0
856.561096 28.0
856.875793 4240.0
857.373108 3108.0
857.877441 2272.0
858.373718 860.0
858.688354 40.0
858.876587 808.0
859.0755 68.0
859.361328 368.0
859.676819 96.0
859.868591 6624.0
860.179626 92.0
860.373352 5148.0
860.56134 120.0
860.868286 3168.0
861.109131 40.0
861.380188 832.0
861.612 132.0
861.87677 532.0
862.133972 80.0
862.370728 232.0
862.563171 52.0
862.852966 92.0
863.104858 52.0
863.313354 120.0
863.868469 44.0
864.074524 40.0
864.402466 40.0
864.63678 112.0
864.875 128.0
865.386658 88.0
865.649231 36.0
866.56842 64.0
866.694641 44.0
866.906189 48.0
867.589478 40.0
867.844849 84.0
868.358398 140.0
868.491943 80.0
868.898376 52.0
869.516968 24.0
869.930542 100.0
870.174927 36.0
870.371643 52.0
871.359985 76.0
873.732422 28.0
875.05188 40.0
875.379639 52.0
875.768555 32.0
875.900574 144.0
876.334534 116.0
877.419922 136.0
877.844788 76.0
878.44928 72.0
879.394165 88.0
880.279846 56.0
880.398926 80.0
880.642151 24.0
881.342224 32.0
882.388367 120.0
882.908997 140.0
883.178772 44.0
883.311401 112.0
884.694885 44.0
885.396545 40.0
885.662109 32.0
886.326172 56.0
886.958008 112.0
888.435852 40.0
889.384155 60.0
890.353882 100.0
890.487061 112.0
890.962646 108.0
891.419373 148.0
892.618774 48.0
892.866333 180.0
893.09491 40.0
893.430847 76.0
894.402649 32.0
895.372803 68.0
895.8974 92.0
896.436646 176.0
896.889771 36.0
897.157104 44.0
897.328918 108.0
897.539001 136.0
897.901855 116.0
898.341248 24.0
899.315857 44.0
899.449646 56.0
899.640869 32.0
900.597046 56.0
900.941406 96.0
901.40564 80.0
901.881287 72.0
902.386414 172.0
902.549316 36.0
902.887146 88.0
903.372925 80.0
903.717834 32.0
903.932068 112.0
904.405151 140.0
904.877991 112.0
905.368835 76.0
905.884521 72.0
906.09552 44.0
906.371094 108.0
906.99762 72.0
907.151184 44.0
907.387573 204.0
907.688843 64.0
907.886719 104.0
908.111389 40.0
908.361084 76.0
908.495605 40.0
908.874329 96.0
909.339233 228.0
909.887878 240.0
910.367249 156.0
910.869934 56.0
911.395752 216.0
911.861877 224.0
912.367065 108.0
912.566833 36.0
912.880676 208.0
913.383728 320.0
913.883179 124.0
914.499939 100.0
915.097595 116.0
915.300964 88.0
915.830505 80.0
916.108582 48.0
916.384888 548.0
916.881226 796.0
917.369873 740.0
917.865234 260.0
918.371033 288.0
918.895691 104.0
919.05481 40.0
920.371765 64.0
922.459045 92.0
923.427307 36.0
924.144165 40.0
924.376709 120.0
924.888977 80.0
925.404114 100.0
925.850159 60.0
927.352905 72.0
927.732544 40.0
928.509277 44.0
928.917236 72.0
929.456116 120.0
931.172241 40.0
931.386169 104.0
933.359802 100.0
933.624695 76.0
934.364929 36.0
934.579285 132.0
936.424316 56.0
937.036255 32.0
937.309448 44.0
937.453064 100.0
938.42218 52.0
939.348816 72.0
940.375854 76.0
941.373047 52.0
942.433105 108.0
943.316956 140.0
945.425781 64.0
946.403259 92.0
947.378479 76.0
948.42688 72.0
953.478699 32.0
955.469727 76.0
956.458069 108.0
958.425476 80.0
961.437256 80.0
963.424683 56.0
964.481628 108.0
965.372192 84.0
966.473999 88.0
969.369385 88.0
970.302368 52.0
971.831909 64.0
972.388367 76.0
973.28302 96.0
973.442139 120.0
974.476562 52.0
976.427612 40.0
977.224487 72.0
977.443665 68.0
979.48822 52.0
980.435303 64.0
981.47345 76.0
982.38678 44.0
982.831848 40.0
984.411194 44.0
986.392151 124.0
986.632385 32.0
987.47345 40.0
988.409668 88.0
989.45752 36.0
989.597839 60.0
990.159424 84.0
990.380066 36.0
992.56781 64.0
993.692749 76.0
995.42157 52.0
995.562317 52.0
997.373291 96.0
998.374573 44.0
1000.495972 96.0
1002.351807 40.0
1004.44696 72.0
1005.389099 68.0
1005.70459 152.0
1006.392029 72.0
1008.131836 108.0
1008.438293 64.0
1009.427551 84.0
1010.427734 64.0
1011.494324 68.0
1013.421143 64.0
1013.563232 36.0
1014.460449 80.0
1015.593567 52.0
1016.48761 132.0
1019.375488 72.0
1020.382629 84.0
1020.556213 92.0
1022.430481 40.0
1023.409058 64.0
1025.041016 76.0
1025.423462 76.0
1026.388428 64.0
1027.450684 60.0
1028.104614 104.0
1028.390747 44.0
1029.494873 88.0
1031.438721 96.0
1032.506714 76.0
1035.680664 44.0
1036.829834 24.0
1037.384033 68.0
1038.472412 76.0
1039.664185 132.0
1042.070312 88.0
1044.561646 40.0
1048.473267 128.0
1049.656372 36.0
1050.627197 172.0
1051.495117 88.0
1052.508179 60.0
1053.438965 36.0
1055.384644 32.0
1056.855469 32.0
1059.440308 72.0
1060.94165 44.0
1061.502319 128.0
1064.490234 88.0
1065.514282 60.0
1066.492432 36.0
1069.461792 80.0
1070.451294 36.0
1071.431641 216.0
1072.526978 108.0
1073.447021 48.0
1075.483276 76.0
1076.570557 84.0
1078.474609 40.0
1078.621216 36.0
1080.506104 56.0
1082.427612 60.0
1082.551758 96.0
1084.595825 96.0
1086.453613 52.0
1087.431641 52.0
1088.515259 104.0
1089.51355 36.0
1090.494629 64.0
1091.461182 76.0
1092.4823 132.0
1094.451782 72.0
1095.461548 112.0
1096.446777 44.0
1097.523438 72.0
1098.473145 112.0
1100.439575 44.0
1101.49707 128.0
1102.461304 84.0
1106.512817 44.0
1107.577026 68.0
1108.397095 80.0
1108.476318 52.0
1109.508301 64.0
1110.591431 44.0
1111.447388 56.0
1113.524902 68.0
1114.449585 68.0
1115.525146 80.0
1119.104736 104.0
1119.424561 100.0
1120.469849 40.0
1123.525269 152.0
1124.479614 100.0
1125.371338 60.0
1126.559082 36.0
1128.485474 76.0
1129.567505 84.0
1130.541992 48.0
1132.578979 80.0
1133.45874 88.0
1135.799072 56.0
1136.465088 32.0
1137.540649 104.0
1137.797852 44.0
1138.528931 44.0
1139.51062 96.0
1140.475708 76.0
1141.52478 52.0
1142.543091 68.0
1143.44812 180.0
1144.521606 128.0
1146.436035 56.0
1147.407471 52.0
1151.427124 56.0
1152.515747 100.0
1153.526123 120.0
1155.432007 92.0
1157.487183 108.0
1158.498901 48.0
1159.530762 76.0
1160.50769 48.0
1161.354736 56.0
1161.528442 52.0
1162.549683 48.0
1164.376099 28.0
1164.593628 24.0
1166.443359 24.0
1167.597412 120.0
1169.521118 100.0
1171.511353 88.0
1173.572998 44.0
1174.490356 48.0
1177.57251 52.0
1178.447632 64.0
1180.220703 32.0
1184.475342 112.0
1185.240723 32.0
1186.557739 84.0
1187.414185 44.0
1188.558105 64.0
1189.41394 24.0
1190.498047 92.0
1191.547241 44.0
1192.515503 140.0
1195.474609 68.0
1198.488281 32.0
1199.569824 84.0
1200.552368 80.0
1202.507812 152.0
1203.591187 68.0
1203.878662 96.0
1204.652832 36.0
1206.467651 76.0
1207.508545 48.0
1207.973755 64.0
1208.527588 80.0
1209.458496 88.0
1210.50061 48.0
1210.722412 40.0
1211.587524 64.0
1213.562988 44.0
1216.095703 156.0
1216.562622 44.0
1218.501099 52.0
1219.521362 40.0
1220.500977 76.0
1221.547852 92.0
1222.015747 24.0
1222.505981 44.0
1225.561279 52.0
1226.387085 56.0
1226.677246 44.0
1228.486206 40.0
1229.402344 68.0
1230.609619 92.0
1232.645264 136.0
1233.494385 84.0
1234.499756 72.0
1235.516235 88.0
1236.519897 48.0
1238.537964 24.0
1239.278442 180.0
1239.457886 60.0
1239.929199 24.0
1240.468018 44.0
1241.411011 36.0
1241.703003 40.0
1243.433228 52.0
1244.444824 68.0
1245.560669 72.0
1246.496704 132.0
1246.784546 56.0
1247.527344 96.0
1247.752441 44.0
1249.584839 68.0
1250.568604 40.0
1251.47937 248.0
1252.428955 56.0
1253.508911 100.0
1255.532593 60.0
1256.481323 44.0
1256.662109 96.0
1257.481079 52.0
1258.53833 32.0
1259.465576 28.0
1261.479736 68.0
1263.450195 44.0
1264.130005 104.0
1266.55603 116.0
1267.538086 100.0
1268.50769 56.0
1269.529541 28.0
1272.620239 52.0
1273.529907 32.0
1277.308838 76.0
1280.500122 96.0
1282.234253 76.0
1284.609131 68.0
1285.574707 64.0
1287.214844 48.0
1289.319702 40.0
1290.487305 44.0
1292.603394 96.0
1293.557495 28.0
1296.700195 40.0
1297.595459 44.0
1297.825073 32.0
1299.623291 92.0
1303.549194 44.0
1307.234009 40.0
1307.602783 76.0
1312.493896 56.0
1315.567017 72.0
1316.594604 56.0
1317.440308 32.0
1319.500244 52.0
1319.847656 56.0
1320.635132 52.0
1325.596802 96.0
1327.584717 80.0
1328.566528 36.0
1332.638062 48.0
1334.546875 64.0
1334.919434 60.0
1339.814575 36.0
1340.514648 56.0
1341.494995 76.0
1341.86853 52.0
1343.560303 120.0
1344.567505 60.0
1345.116089 48.0
1345.590698 40.0
1346.589355 44.0
1347.548584 44.0
1348.595459 164.0
1350.615479 84.0
1351.529297 48.0
1353.73291 28.0
1359.484863 56.0
1361.577393 68.0
1362.589722 64.0
1363.600952 52.0
1367.534546 68.0
1367.699585 64.0
1368.603394 80.0
1373.681885 48.0
1379.843018 60.0
1382.543579 40.0
1384.582642 48.0
1385.618896 76.0
1386.646851 52.0
1387.549072 104.0
1388.641479 80.0
1391.564575 116.0
1391.968872 68.0
1393.562622 44.0
1394.562256 44.0
1394.831909 160.0
1395.609741 32.0
1398.540283 56.0
1399.613159 76.0
1399.851562 76.0
1401.640869 44.0
1402.69104 100.0
1404.601562 36.0
1406.561157 56.0
1408.595337 68.0
1411.657593 56.0
1412.591797 40.0
1413.636963 64.0
1414.532959 40.0
1416.715454 56.0
1417.723267 32.0
1422.527344 28.0
1428.581177 72.0
1429.604248 32.0
1430.58252 68.0
1431.631592 44.0
1432.57019 80.0
1433.535278 40.0
1435.70813 52.0
1436.612305 56.0
1440.562012 96.0
1443.640991 52.0
1447.542847 36.0
1451.668579 48.0
1453.508545 124.0
1454.557739 44.0
1455.570435 36.0
1458.549561 60.0
1459.596558 32.0
1463.641846 64.0
1484.604614 84.0
1495.786255 32.0
1496.106812 64.0
1497.611084 32.0
1503.586548 44.0
1504.624756 44.0
1507.66748 72.0
1509.771973 124.0
1511.580444 52.0
1516.019775 44.0
1516.590576 56.0
1518.552246 40.0
1524.565552 140.0
1525.592041 88.0
1526.436401 44.0
1527.283325 32.0
1527.582275 80.0
1528.60376 52.0
1531.670654 48.0
1532.668701 40.0
1533.617065 80.0
1534.191284 80.0
1534.669678 48.0
1534.890381 116.0
1537.588623 36.0
1548.555542 88.0
1550.638184 52.0
1551.692505 60.0
1554.656738 36.0
1560.644043 60.0
1563.641968 40.0
1579.667603 64.0
1582.653687 52.0
1588.770752 60.0
1593.678101 64.0
1597.650146 40.0
1598.567505 64.0
1600.555908 72.0
1604.740723 80.0
1606.298706 56.0
1608.675415 32.0
1610.670166 112.0
1613.587769 44.0
1614.740112 64.0
1615.585449 48.0
1616.673706 96.0
1617.695801 76.0
1618.635742 120.0
1621.676025 128.0
1622.634155 116.0
1623.665894 128.0
1625.669922 56.0
1626.672363 48.0
1633.492065 36.0
1671.112427 44.0
1690.869263 32.0
1694.724365 36.0
1698.688965 68.0
1703.657837 36.0
1712.667358 96.0
1713.696289 52.0
1714.672729 84.0
1715.72876 60.0
1719.691284 44.0
1774.412476 148.0
1988.85437 64.0
END IONS
