BEGIN IONS
PEPMASS=789.377
CHARGE=10
MSLEVEL=2
SOURCE_INSTRUMENT=LC-ESI-Orbitrap
FILENAME=f.ktahlan/KT-1/MUN/Methanol/SC/2 SC on GSPG meth-pos.mzXML;
SEQ=*..*
IONMODE=Positive
ORGANISM=GNPS-LIBRARY
NAME=Tunicamycin I -CH2 putative M+H
PI=Talhan
DATACOLLECTOR=lfnothias
SMILES=CCCCCCCCC/C=C/C(NC1C(O)C(O)C(CC(O)C2C(O)C(O)C(N3C=CC(NC3=O)=O)O2)OC1OC4C(NC(C)=O)C(O)C(O)C(CO)O4)=O
INCHI=
INCHIAUX=
PUBMED=
SUBMITUSER=lfnothias
TAGS=
LIBRARYQUALITY=3
SPECTRUMID=CCMSLIB00005435941
SCANS=3559
70.029221 8466.420898
70.065506 21855.876953
71.013184 10326.006836
71.049568 48589.996094
71.085876 34437.460938
72.044701 12867.423828
79.054451 71462.96875
80.049728 34523.632812
81.033646 78572.34375
81.070091 338214.53125
81.408333 5469.866699
82.065308 77859.554688
83.049339 79274.007812
83.085709 401495.34375
84.044556 1538131.875
85.028618 30785.099609
85.064842 23845.291016
85.101418 6322.858887
91.054504 8659.292969
93.033638 5032.118652
93.069962 92491.601562
94.065262 13698.652344
95.012833 44881.9375
95.085609 177306.15625
96.044434 735626.0625
97.028503 114179.4375
97.064934 49947.265625
97.101288 413085.6875
97.107834 9540.508789
97.589142 5079.325195
98.023735 7612.452148
98.060074 175635.515625
99.044212 31242.714844
99.080795 8648.969727
100.038437 5832.94043
101.023163 6336.654785
103.053955 7394.346191
106.064735 7944.541992
107.049202 12855.307617
107.08564 175824.78125
108.044342 34344.246094
109.028549 85245.234375
109.052361 6986.033203
109.101326 26076.574219
110.060013 98361.046875
111.044136 147445.21875
111.080658 36999.648438
111.116844 86546.9375
112.039238 35854.542969
113.034561 505493.5
114.054832 8879.828125
118.064873 7320.188965
120.080605 6628.296875
121.028595 33342.691406
121.101257 162465.28125
122.060173 25098.806641
123.044342 10518.492188
123.117096 50497.179688
124.039131 9427.563477
125.09613 32651.007812
126.055023 498154.40625
127.0392 43625.671875
130.065155 21256.958984
131.049271 11925.878906
132.886459 6133.37793
134.059952 30884.445312
135.044296 8335.859375
135.116791 35057.957031
136.075485 7041.96875
137.023956 6776.843262
138.055023 2914923.5
139.039001 178713.484375
139.057739 8265.995117
140.070465 30246.298828
144.065613 540607.4375
145.334122 5193.652832
146.059891 8719.092773
148.039505 36704.894531
148.075668 33673.785156
149.059998 11763.557617
150.055237 13778.260742
151.038925 10113.454102
152.070938 9590.485352
155.045227 26529.71875
156.065521 103001.6875
157.049606 9829.421875
158.060303 33085.574219
159.044464 8874.369141
162.05484 47414.121094
163.039169 33093.042969
163.1483 155208.71875
165.05481 7369.773438
166.086502 6295.225586
168.065643 590505.375
173.215988 5460.763672
175.062347 5619.052246
176.047638 6850.092773
176.070633 89932.773438
177.054825 9275.371094
178.050034 37078.011719
180.065475 12501.368164
181.158737 490407.21875
186.076172 535132.6875
187.040237 6111.112793
194.080673 29268.617188
198.185379 294383.21875
204.065994 213680.25
204.086807 916570.125
205.049438 74470.0625
222.076477 198875.21875
222.185577 12679.178711
223.060303 9844.621094
233.056519 5563.07666
240.086761 190607.765625
248.201431 57288.550781
252.196014 5958.584961
252.721558 5025.396484
258.096497 9811.304688
264.19574 1512410.125
269.076752 24325.882812
274.180115 81713.914062
276.195618 74843.320312
290.212311 39903.875
300.195801 6591.439453
314.21109 28106.841797
318.20636 282367.125
318.243835 11725.044922
320.221008 8261.174805
332.222076 9644.773438
334.103455 26631.921875
336.216492 160618.328125
352.114105 192612.390625
356.221375 12118.672852
358.201172 34277.441406
366.209045 7367.618164
378.226562 11727.975586
384.218231 59139.933594
402.227234 111214.015625
420.238281 861791.3125
438.250183 29997.5625
447.350708 7597.368164
456.260986 63525.792969
489.264771 6328.585938
496.243561 28820.486328
514.253784 61042.152344
532.265625 427415.03125
568.286804 621320.0
END IONS
