BEGIN IONS
PEPMASS=663.278
CHARGE=1
MSLEVEL=2
SOURCE_INSTRUMENT=LC-ESI-qTof
FILENAME=f.Esposito/E-dendroides-ref/oxetanabeodendroidin X.mgf;
SEQ=*..*
IONMODE=Positive
ORGANISM=GNPS-LIBRARY
NAME=oxetanabeodendroidin X M+Na
PI=Litaudon and Paolini
DATACOLLECTOR=Esposito
SMILES=O=C1C([C@H]2OC(C(C)C)=O)[C@@H](OC(C)=O)[C@](C)(O3)C[C@@]13[C@H](/C=C/C(C)(C)[C@H](OC(C)=O)[C@H](O)[C@@H](OC(C4=CC=CC=C4)=O)C2=C)C
INCHI=
INCHIAUX=
PUBMED=
SUBMITUSER=Esposito
TAGS=
LIBRARYQUALITY=3
SPECTRUMID=CCMSLIB00004680118
SCANS=1
51.032291 42.876419
55.026791 37.15057
55.0354 12.78409
57.042149 37.4515
57.079556 108.2528
57.374947 10.55208
65.047981 49.38612
67.064537 20.7868
69.044685 50.907539
69.080887 239.188599
69.088234 28.633329
69.097626 18.60243
69.104385 19.41507
71.059715 101.201797
71.068878 23.991159
71.075233 21.79018
77.049858 221.774002
77.057449 31.5
77.066704 29.103781
79.066612 21.56142
80.621712 10.25
81.043625 15.7597
81.081451 223.290695
81.098503 30.54394
81.106346 12.88542
83.023117 123.096397
83.061028 109.278999
83.069359 34.490528
83.079048 24.05809
83.097191 59.08778
85.03933 104.706398
85.057037 10.5625
85.077324 93.742554
85.094963 11.33059
85.330147 11.10125
91.065735 48.306709
91.076508 12.25347
93.081223 30.12405
93.087837 18.600491
95.022781 31.38942
95.061279 50.484852
95.073006 11.09007
95.096848 174.9664
95.104523 58.84816
95.114922 14.59167
97.04216 36.73114
97.051491 18.726561
97.075699 36.799728
97.078247 73.877083
97.087456 51.685421
97.246994 10.52778
97.321609 25.47229
99.056366 131.945206
99.064156 20.52557
105.046158 809.822205
105.05706 160.575302
105.066376 94.982292
105.074638 18.54018
105.082298 204.484299
105.090149 56.874901
105.102333 28.298901
105.388214 16.783091
106.048233 20.11779
107.098419 124.764801
107.111061 11.87202
107.56794 10.50347
109.077484 77.923576
109.097702 13.3316
109.114143 332.867493
109.122154 50.860329
109.136208 46.762981
109.338852 11.6
110.118431 37.130211
111.05603 151.501694
111.063354 17.342649
111.073547 16.004459
111.080788 11.73125
111.095299 19.850691
112.616699 11.77083
113.073624 57.963749
113.085365 14.00284
115.068298 30.53735
115.077568 12.54018
119.060318 26.05057
119.066307 31.8332
119.098679 71.507797
119.119514 11.53571
121.07856 108.437798
121.091621 29.769739
121.10363 10.0
121.116562 129.299896
121.135887 31.495041
121.145874 22.822371
121.293343 11.75184
123.018677 10.89063
123.056656 68.517464
123.069603 10.78125
123.091782 110.976601
123.113663 12.37202
123.13131 10.09573
125.034073 38.060341
125.047234 16.04018
125.072861 165.860901
125.081818 51.414471
125.096031 21.788179
125.10952 40.705521
125.133018 12.08817
125.417603 15.05114
125.424782 11.61161
126.648506 14.15625
127.088974 27.33482
129.082626 110.235199
129.092911 30.713539
129.103745 19.252081
131.099091 137.496002
131.108398 18.918751
131.122131 18.877081
133.078827 13.54086
133.115189 52.889992
135.058365 53.778019
135.094604 138.735199
135.102509 53.821991
135.116577 21.729731
135.130386 62.451721
135.577667 19.33333
137.074463 24.56658
137.083969 16.222919
137.109253 95.004471
137.121033 31.296881
138.464783 16.370529
139.089706 17.884609
141.106903 44.887932
143.099945 148.866501
143.110001 31.17222
143.121796 14.13125
143.366409 13.29167
144.112183 13.08482
145.041092 77.500214
145.079758 64.957428
145.097366 24.2875
145.11618 81.143898
147.094574 130.223297
147.113327 16.64867
147.130829 78.973427
147.48497 15.44444
149.074905 91.125839
149.098953 13.60208
149.110275 63.78746
149.121597 20.39716
151.089523 108.271202
153.068237 114.669098
153.081635 60.07531
153.088943 11.00446
153.104141 69.537399
153.114655 27.026039
153.130997 13.24479
154.074554 10.79018
155.09964 106.487602
155.126175 14.22014
156.109985 28.20089
157.10112 40.970699
157.116592 133.576294
157.126938 61.155628
157.1418 25.55117
159.09639 171.875397
159.114624 14.27431
159.132599 72.355026
159.139938 33.305069
159.153076 13.0625
161.077194 74.661858
161.099777 13.55655
161.111908 125.445999
161.134811 14.99784
161.147293 17.90461
163.091156 49.117691
163.101746 13.52083
164.091019 13.27841
165.105103 50.618111
165.129913 16.772921
166.094299 33.90057
167.084915 92.684692
167.099838 155.903305
167.109573 55.960239
167.125732 14.0375
167.138489 11.30972
169.115738 90.62693
169.139114 12.71733
170.122665 75.532013
171.099548 64.574043
171.132584 136.395203
171.146011 25.053619
171.166672 11.125
172.1035 68.660393
173.112106 277.686188
173.124252 12.52796
173.136261 36.64463
173.146881 21.47024
173.78212 10.00521
174.119858 61.822102
175.088852 71.201851
175.104523 30.3913
175.117599 10.10125
175.128067 200.667496
175.138855 32.254929
175.152451 22.015961
175.162506 11.2753
176.131134 29.03533
177.104568 21.5651
177.144028 76.257408
177.154144 14.80248
178.149414 34.06522
178.261017 11.05
179.123978 15.57692
181.101486 120.571602
181.117279 126.736099
181.137878 20.93498
181.149307 18.928129
182.126266 57.894531
182.139801 27.53788
183.096375 48.205078
183.13295 13.69141
184.1026 32.252079
184.11235 29.13039
184.128448 11.25893
185.111877 130.322693
185.125916 24.545959
185.150162 173.470703
185.163239 12.56579
185.174332 18.518021
185.18454 12.12708
186.086304 18.299999
186.120193 19.96125
187.093857 109.2873
187.127304 305.620789
187.14119 53.192501
187.155197 38.915829
187.169449 27.77951
189.0672 24.22522
189.107605 42.257381
189.122635 21.16226
189.147614 128.207596
189.216675 16.061581
191.125977 62.521042
193.098846 28.60227
193.11998 70.378769
193.134659 32.38044
193.147751 20.39904
194.124313 16.990129
195.120743 40.916672
195.133698 154.301498
195.1483 32.123699
195.162857 20.55382
196.106949 16.78125
197.113342 134.116592
197.150253 195.876907
197.160782 32.41851
197.182327 14.98333
197.196335 12.9
198.119308 57.408581
198.148315 10.62083
199.127304 222.992294
199.141907 40.583752
199.164993 82.527847
199.184692 18.88125
200.065903 13.25521
200.167816 17.776939
200.177811 11.83333
200.798172 13.76042
201.069122 32.9142
201.079865 16.112499
201.108231 208.816803
201.126907 52.24799
201.144485 179.471802
201.156967 42.230431
201.171921 18.435419
201.186676 16.801411
203.088211 27.275
203.103561 33.992321
203.122955 74.971397
203.139969 50.645828
203.163101 22.13125
204.109039 28.09186
204.120178 14.10208
204.59166 15.90089
204.604462 13.77098
205.100388 62.59462
205.113983 13.25893
205.13501 27.72197
206.131134 19.09766
206.461899 19.26923
207.116653 35.36264
207.134186 165.275696
207.147598 16.74337
207.159119 22.387501
208.142212 173.569702
208.179337 10.38036
209.112778 153.559097
209.125641 30.566179
209.147659 144.059692
209.164719 13.86458
209.179276 26.077391
210.121933 51.690842
210.155991 30.07753
210.55986 13.8
211.129349 169.647202
211.160568 39.3489
211.169739 31.52121
211.184555 12.52778
211.728165 16.20089
212.136276 86.61319
212.146713 27.90057
213.10849 126.062698
213.121155 33.072922
213.144363 251.687393
213.157394 61.70644
213.170853 21.866791
213.182648 46.721451
213.205612 14.27282
214.148865 38.698372
214.369919 13.0148
215.087494 133.593307
215.122665 328.150513
215.141754 10.55208
215.155426 64.295052
215.181488 22.440861
216.16185 11.00149
217.101318 12.34091
217.143005 84.15345
217.417267 14.50136
218.126007 40.502499
219.119202 19.251011
219.157379 63.113911
219.171143 13.14063
219.244476 12.27796
219.706924 11.25284
221.112732 17.420361
221.150146 109.871597
221.162079 14.09018
223.090775 29.158291
223.107162 11.53846
223.128372 65.243881
223.142838 26.901039
223.165573 182.010498
223.180756 33.17115
223.193024 23.856779
223.209274 11.8374
223.592468 15.52324
224.175308 17.20455
225.110016 44.34132
225.145233 245.593094
225.157379 54.62289
225.169418 52.580952
225.185455 48.162819
226.721634 10.375
227.126801 184.287292
227.144669 49.530861
227.160675 337.868713
227.17453 134.738907
227.195145 84.968033
227.20787 34.559422
227.227951 10.56642
228.198517 26.53125
229.104858 16.28125
229.14061 131.565094
229.169785 19.45685
229.179733 15.5226
230.869537 13.77841
231.116821 51.2621
231.131836 62.78587
231.14534 13.1381
231.165863 10.73125
232.143143 82.352348
232.168793 10.00347
233.097473 66.680656
233.142014 80.018768
233.158371 34.788559
234.122009 13.58333
235.129959 73.146667
235.15126 21.027679
236.138351 60.154171
237.146912 145.919205
237.165939 19.132811
237.181137 112.646797
237.192001 34.67226
237.219635 10.0948
238.113922 92.625
238.131805 12.11161
239.126328 30.7974
239.139069 14.61508
239.16098 121.638702
239.172821 17.393749
239.19371 58.61253
241.104065 73.753937
241.140579 286.794495
241.153366 59.656368
241.176895 681.391113
241.189072 124.900902
241.20694 56.845852
241.220551 30.776609
241.232513 19.94375
241.636978 10.85625
242.182983 33.086128
242.193329 20.25
243.12178 88.139297
243.135223 22.95994
243.154648 32.620949
243.188995 54.287281
243.207001 20.380211
243.589645 13.28571
244.040771 51.615261
245.134781 104.282898
245.149841 12.7625
245.16861 82.844063
245.179489 56.50285
247.116806 16.252081
247.166901 95.709297
247.955261 14.15125
249.148056 78.017258
249.17923 23.82445
250.155334 61.38438
250.169022 15.95513
251.125565 36.947781
251.161057 325.496185
251.173981 74.664978
251.194138 38.856171
251.807297 14.77044
252.168015 14.46591
253.139496 126.625504
253.15329 32.03685
253.172516 22.42869
254.113281 24.316669
254.131836 10.06066
254.146912 16.25284
254.186218 24.73769
255.123047 77.014809
255.155594 165.996201
255.174057 33.49826
255.193436 298.827515
255.210098 49.69698
255.223495 35.167561
255.244659 22.71129
256.123413 14.30671
256.159637 35.462021
256.196045 53.20549
257.136841 105.460297
257.154968 29.632811
257.171204 65.280403
257.190826 35.414768
259.115723 37.85667
259.130707 15.82187
259.152008 47.84766
259.185883 24.62007
260.127167 33.11779
260.137695 19.763889
260.148224 11.67014
260.190887 14.25
261.16507 38.90313
261.179565 17.049999
262.130676 19.9144
262.151367 40.559071
263.123657 20.507601
263.163177 36.75795
264.460663 15.75625
265.17807 381.798706
265.193604 101.2743
265.213409 35.8307
265.519226 10.6125
266.111572 12.16026
266.182709 76.866898
266.218628 11.65865
267.116669 23.77787
267.157013 142.771805
267.174042 27.197689
267.193146 67.239868
268.126556 13.03125
269.106354 14.75
269.135468 37.260422
269.155273 11.1125
269.173126 1147.253052
269.188812 139.301804
269.205505 89.973106
269.225006 50.09602
269.245209 17.98905
269.265839 21.318769
269.538788 10.60789
270.141998 15.80268
270.176666 52.515629
270.18692 17.195311
270.197906 12.55625
270.222595 11.72656
271.152863 147.206497
271.186035 39.988548
271.478851 10.76042
273.090485 10.37054
273.131287 66.025162
273.148682 30.52129
273.167053 101.246399
273.197388 71.959267
273.804199 16.52367
275.149414 15.775
275.166504 25.005211
275.181091 15.76389
276.153168 13.83333
277.124542 21.503469
277.141907 27.75312
278.1492 13.33741
278.246338 12.625
279.141357 15.25165
281.136749 29.10804
281.156311 13.60208
281.170929 20.975
282.380951 16.525
283.153015 35.047619
283.16861 16.76704
283.188965 413.152191
283.203186 56.048611
283.222687 34.700249
283.241241 12.76823
284.092438 13.1875
284.191315 39.847038
284.579132 10.61364
285.128998 14.56125
285.171112 60.661659
285.186523 23.8375
285.202026 12.25347
286.177521 11.5372
286.65036 10.65625
286.68045 16.2875
287.144379 43.011009
287.188293 170.995407
288.189423 10.8101
289.161591 15.45417
289.193573 19.015631
289.20462 10.82031
291.158081 186.391296
291.188965 23.917709
292.571014 10.775
293.172516 213.222
293.186676 50.050282
293.202637 18.73365
293.217896 13.55426
294.079437 17.535721
294.172394 19.638889
295.291931 19.15089
297.128479 37.3125
297.13916 22.0
297.197968 26.392811
299.149994 31.66964
299.182465 26.20455
299.210876 12.8006
301.177734 12.53125
301.200134 149.8974
301.216064 12.81667
301.235504 25.803261
302.204224 14.13281
303.140411 18.27796
303.177551 43.672729
307.150299 21.252081
307.168793 10.50446
307.19278 45.571812
308.929565 11.44444
309.169525 26.142309
309.193573 11.03646
311.184753 799.475525
311.200409 89.076393
311.217163 79.063438
311.236633 37.608528
311.261993 14.18904
311.277435 10.59186
311.289093 10.16806
312.188568 32.82143
312.237122 19.891541
312.248566 11.26071
315.138092 12.66125
325.123901 42.279339
325.137939 10.29018
325.200775 17.222321
327.139893 16.19602
328.146149 17.25
328.187714 22.960791
328.499603 10.2648
329.175751 22.58003
329.196045 1304.383057
329.212219 148.281601
329.230499 131.854004
329.246155 46.508789
329.263 34.602409
329.276581 17.965441
329.30014 19.49045
329.474121 25.378361
330.204987 43.896912
330.496918 15.19231
330.546234 17.267719
330.658112 15.61453
331.190216 12.25
333.167542 96.859718
333.185394 20.38681
335.144745 10.84375
335.188965 25.11875
339.178864 23.255211
339.191193 12.26042
343.212067 80.271172
343.253693 11.69127
347.208221 54.062599
347.231567 10.20536
349.336487 10.84918
350.567383 41.0625
350.581818 27.271641
351.17749 1036.010986
351.196503 189.612198
351.213623 137.315399
351.235321 38.801651
351.259491 17.55298
351.289825 10.19754
351.452423 11.26125
351.879395 13.01125
351.921814 23.08144
352.184357 18.72266
352.372864 12.50136
353.197388 68.943069
353.213104 20.445829
353.227753 24.43585
355.175873 26.66667
355.194092 13.07292
357.223541 26.250891
357.239716 12.53125
358.756439 12.65625
361.234192 11.01654
365.193726 42.464989
371.208801 146.269897
371.220367 35.799641
371.239685 23.14423
372.00473 11.15536
372.220184 14.79247
375.137787 27.821119
375.17691 23.863501
381.22995 33.1339
383.206329 19.762501
383.829803 13.42361
384.328308 20.037201
385.180328 10.00625
389.220703 167.471603
389.272491 10.52941
393.190002 1210.145996
393.210083 107.934898
393.234222 125.996696
393.274902 15.79722
393.309814 13.52639
393.653503 16.18524
393.792236 14.95511
394.193298 125.528099
394.211609 18.32143
394.233734 16.70347
394.377228 20.91761
394.447632 12.01339
395.20459 13.00449
395.229126 11.05903
395.739502 11.625
397.150848 10.00347
397.221283 11.39205
411.200165 474.027893
411.214569 164.414093
411.238159 46.865479
411.258209 10.03571
411.276245 13.14413
412.213928 20.69017
412.388489 11.625
413.179962 408.408813
413.195892 40.530231
413.216705 69.170441
413.243073 17.566469
413.27179 12.6375
413.571014 22.035561
414.182617 11.50893
421.220947 57.388191
421.238037 21.106251
421.257812 10.24479
422.227844 18.620529
423.50705 12.50149
427.208954 21.124081
427.222382 15.16518
440.311279 11.04018
451.777649 10.5
452.581207 12.39286
452.718262 15.15
453.214539 1878.662964
453.252747 257.250488
453.279053 21.36787
453.312805 39.15984
453.340393 12.55933
453.47699 13.01442
453.550934 11.6875
453.710571 14.9
453.92453 12.08333
454.086365 16.142771
454.211243 13.85392
454.221222 27.966089
454.971191 21.185221
454.988647 10.9125
455.209106 184.660995
455.23291 40.701229
455.269073 12.90446
456.210419 19.199011
471.223358 206.250793
471.247498 78.838737
471.27774 11.01518
479.432953 12.75781
481.245453 2120.764893
481.286804 199.724594
481.308838 32.2243
481.320526 20.702971
481.343292 35.33469
481.36972 19.08053
481.733307 25.08646
481.911041 11.67391
481.964294 18.0075
482.038422 17.70417
482.247253 100.644203
482.263489 13.40625
482.29361 32.0154
482.586853 10.11369
482.612061 14.76847
483.690521 12.51042
486.607117 12.51223
487.235199 25.70546
499.254211 194.389099
499.278381 54.45052
499.301605 14.16779
499.323181 11.34059
499.883636 14.00568
500.91571 11.84375
515.229431 733.763428
515.24762 82.763474
515.270569 77.621193
515.292786 35.026119
515.588623 12.51223
516.118958 11.8989
516.236511 24.75
533.232971 37.21973
541.266663 2998.654053
541.308105 267.164612
541.334045 147.680893
541.369141 31.027679
541.393188 18.777531
541.407959 25.88693
541.461121 16.548479
541.480591 12.39161
541.600525 16.018049
541.651245 12.52188
541.755676 24.390631
541.831604 39.617271
541.887878 14.59602
541.933411 21.40657
541.959961 13.05087
542.002625 11.29688
542.03302 11.31696
542.090637 11.6888
542.136169 16.398899
542.180481 13.94318
542.269348 157.748199
542.293335 24.54888
542.320312 22.82699
542.347595 27.576389
542.376587 17.74058
542.504517 19.891911
542.569397 20.64216
542.585449 12.50521
542.671997 19.75625
542.700989 11.18032
543.062744 32.736351
543.243713 15.14208
543.279419 19.57102
543.458313 21.027781
543.95874 13.59375
544.440125 10.27778
574.951172 13.44471
574.967102 12.5125
575.24707 110.3144
575.259705 72.971313
575.304565 30.62261
576.051331 13.67014
576.257019 15.82738
576.723083 13.26667
576.908508 12.0024
603.282471 695.0354
603.303589 141.022598
603.3255 95.587738
603.358215 25.014429
603.390381 11.16148
603.836121 14.61122
603.927856 13.06658
604.265442 22.47533
604.28363 34.899311
604.305969 20.90193
604.32782 14.13875
604.354858 10.79596
604.641724 14.59375
604.890808 17.03125
605.130676 10.00149
663.289124 21.19471
663.304932 430.76001
663.328491 117.7033
663.369202 28.09531
663.862854 11.33333
664.312744 15.12053
664.341003 11.0892
END IONS
