BEGIN IONS
PEPMASS=757.284
CHARGE=1
MSLEVEL=2
SOURCE_INSTRUMENT=LC-ESI-qTof
FILENAME=euphodendroidin_N.mgf
SEQ=*..*
IONMODE=Positive
ORGANISM=GNPS-LIBRARY
NAME=euphodendroidin N M+Na
PI=LITAUDON/TOUBOUL
DATACOLLECTOR=Esposito
SMILES=C[C@@]1(OC(C)=O)C[C@](O)(C([C@@H](C)/C=C/C(C)(C)[C@H](OC(C)=O)[C@H](OC(C)=O)[C@@H](OC(C2=CC=CC=C2)=O)C([C@@H]3OC(C4=CC=CC=C4)=O)=C)=O)[C@]3([H])[C@H]1O
INCHI=
INCHIAUX=
PUBMED=N/A
SUBMITUSER=lfnothias
TAGS=
LIBRARYQUALITY=1
SPECTRUMID=CCMSLIB00000840325
SCANS=1
69.032494 217.752594
69.069206 221.612503
77.038155 333.416992
83.048668 224.341003
91.053375 145.059998
95.084885 152.428299
97.027428 216.2258
105.032875 3320.013916
105.068352 155.138794
107.084915 211.800293
109.063484 160.269394
109.100441 497.730194
119.084999 160.038498
121.100006 152.429596
123.043007 431.811615
123.079773 276.609589
131.084396 144.502304
133.099228 211.101807
135.078781 225.404404
135.11412 145.860504
143.084335 279.78299
145.024887 205.164902
147.07814 175.493301
149.094238 145.619202
151.074722 274.49649
157.099106 372.413696
159.078247 268.701996
159.115128 201.520905
161.094681 159.929596
161.131393 152.589005
163.074432 148.144806
171.078979 237.918503
171.115692 472.630402
181.099304 167.250793
185.131653 285.552612
187.035339 239.322495
187.073883 387.859589
187.109985 354.298004
189.124771 287.234802
195.114929 242.378693
197.130997 196.959
199.109909 264.626892
201.12587 153.233505
205.083603 200.155502
209.093933 187.737396
209.130585 227.3647
211.108704 169.934799
213.124207 302.590607
215.069504 190.992706
223.109726 230.168106
223.146408 201.640793
225.124985 226.848206
227.107361 185.738297
227.139038 210.484894
231.136124 145.298904
233.078247 211.542297
235.10817 218.011505
237.124573 291.244995
237.164749 243.388
241.12114 398.308807
247.144897 157.390793
251.141586 148.348297
253.119583 159.474106
255.136536 260.409912
255.172775 374.598907
265.156555 1138.880005
269.151581 183.745605
273.145172 160.056305
283.167908 1973.656982
293.152313 914.301086
301.178406 469.979004
305.149048 313.376495
311.163208 2084.9021
312.166809 168.961807
329.172974 950.614624
333.144531 1310.540039
351.155151 1532.542969
352.156525 144.741302
353.173218 152.854904
365.170105 716.679688
371.181702 449.644592
393.166504 2610.10791
394.168213 207.339996
397.194489 228.676605
411.176758 1654.171021
412.178955 172.865005
415.188446 145.236206
425.192413 1285.656982
427.184296 183.243103
433.198242 181.010498
435.174622 180.817596
453.186737 4241.287109
454.190826 333.257111
455.18161 1248.655029
471.201904 464.522614
473.191132 841.670288
487.205292 250.2966
503.202118 164.7948
505.180664 401.317413
513.208008 1222.745972
514.208496 194.322403
515.201721 4580.397949
516.204956 653.323425
531.23584 259.290314
533.211304 468.383392
547.228943 464.059814
557.212402 958.028198
558.212036 177.306198
575.223694 33952.128906
576.227234 4213.174805
577.218628 244.7211
617.229309 168.806198
635.244995 44493.289062
636.248474 6237.545898
637.238525 3416.427979
638.24176 496.033508
653.271423 168.646301
675.276917 355.082611
679.245605 174.047897
697.261047 88367.460938
698.072144 155.428497
698.126953 159.639206
698.26355 13796.370117
698.389709 362.139313
757.282288 143261.59375
758.285095 20790.869141
758.434998 233.636307
758.777405 171.619293
END IONS
