BEGIN IONS
PEPMASS=568.287
CHARGE=1
MSLEVEL=2
SOURCE_INSTRUMENT=LC-ESI-Orbitrap
FILENAME=f.ktahlan/KT-1/MUN/Methanol/SC/2 SC on GSPG meth-pos.mzXML;
SEQ=*..*
IONMODE=Positive
ORGANISM=GNPS-LIBRARY
NAME=Tunicamycin in source fragment -C8H15NO6 M+H
PI=Tahlan
DATACOLLECTOR=lfnothias
SMILES=CCCCCCCCC/C=C/C(NC1=COC(CC(O)C2C(O)C(O)C(N3C=CC(NC3=O)=O)O2)C(O)C1O)=O
INCHI=
INCHIAUX=
PUBMED=
SUBMITUSER=lfnothias
TAGS=
LIBRARYQUALITY=3
SPECTRUMID=CCMSLIB00005435944
SCANS=3561
70.029129 8412.091797
70.065605 6033.590332
71.013 14995.455078
71.049507 26631.996094
71.086029 35009.15625
72.044708 19263.152344
79.054497 93980.429688
80.04969 10251.192383
81.033752 34434.527344
81.070129 337611.75
82.02919 4322.845703
82.065399 54411.6875
83.049339 101068.484375
83.085747 388622.6875
84.044594 1114144.75
85.028595 23505.625
85.065109 19874.302734
85.101166 4425.037109
85.336472 4041.636719
89.898796 4711.766602
91.054176 10362.523438
92.551308 3809.503174
93.033798 4501.629395
93.070068 99914.820312
94.065659 4604.814453
94.635506 3858.922363
95.012863 45562.464844
95.049385 9755.188477
95.085617 193335.890625
96.008217 7179.942871
96.044487 461187.34375
97.028542 73000.171875
97.064896 54472.277344
97.101295 394237.375
99.080406 9110.15625
103.054108 9065.908203
106.065262 17643.027344
107.04924 17667.201172
107.085632 166786.34375
108.044243 15094.149414
109.028793 8109.899414
109.052345 8568.774414
109.101212 39226.054688
110.060249 87149.320312
111.008286 4342.891602
111.044243 159341.8125
111.080917 37313.730469
111.116966 68482.648438
112.039558 50735.671875
112.076561 5142.743164
113.034645 483392.53125
113.095573 4309.757324
118.065285 7276.712891
119.049339 4225.230957
120.043892 13331.855469
120.081108 9660.351562
121.028526 26812.792969
121.06498 6106.410645
121.101257 142950.578125
122.059929 25774.789062
123.044174 19208.673828
123.116959 38787.792969
124.075935 6679.258789
125.095955 35085.472656
126.055435 5015.731934
130.065552 8681.586914
131.049438 9392.551758
133.100159 4794.194824
134.060028 35878.609375
135.044037 8477.104492
135.116837 24610.285156
136.039658 8723.382812
136.075729 7946.550293
138.055099 190463.96875
139.039047 158863.84375
140.070557 17255.978516
146.060394 8020.162109
148.03949 45880.976562
148.075775 36672.316406
149.059647 16037.822266
150.055206 20106.925781
152.070618 18976.574219
155.045547 27189.132812
156.06572 81596.539062
157.049667 21423.708984
158.059952 32091.634766
159.044022 8540.326172
160.039993 6376.757812
162.055405 38173.53125
163.039215 28251.111328
163.148239 139149.6875
164.069748 6804.650391
166.085907 6415.469727
176.070801 79662.125
177.055161 20853.253906
178.0504 44221.488281
180.065643 23809.896484
181.158798 512619.375
186.055069 6574.973145
187.038727 8944.53418
194.081406 27263.029297
198.185226 263718.96875
204.065674 219321.59375
205.049103 69953.992188
222.076401 194204.328125
222.185394 17763.076172
223.060074 19212.275391
233.055969 8415.795898
240.08699 180541.265625
248.200592 51677.949219
258.097565 18411.400391
264.195862 1227514.0
269.076508 34184.433594
274.180206 74011.023438
276.195648 60970.15625
278.219879 4438.930664
290.211578 46890.414062
292.191437 22812.554688
298.933319 4308.805176
300.197632 6629.369141
314.211334 36548.574219
316.093384 7998.619141
318.206482 274022.59375
332.222076 15825.397461
334.104523 20371.017578
336.217407 95649.648438
342.207642 6094.131836
352.114227 149135.4375
356.221405 5740.36084
358.201691 45462.605469
366.207184 5536.516113
384.217712 43194.199219
402.227783 110212.992188
420.238251 541153.0
438.248688 24301.222656
447.347412 19233.257812
456.258698 9197.954102
478.236389 5390.303223
489.25882 7637.123535
496.242432 7408.374512
514.25415 36481.125
532.265442 94751.75
568.28595 53301.445312
END IONS
