BEGIN IONS
PEPMASS=659.319
CHARGE=1
MSLEVEL=2
SOURCE_INSTRUMENT=LC-ESI-qTof
FILENAME=f.mernst/3DModels/spectral_data_ms2_v110.mgf;
SEQ=*..*
IONMODE=Positive
ORGANISM=GNPS-LIBRARY
NAME=Euphorbia factor L14 - Lathyrane diterpenoid M+H
PI=Dorrestein
DATACOLLECTOR=mersnt
SMILES=O=C(C1(OC(C)=O)C[C@]([H])(C)[C@H](OC(C2=CC=CC=C2)=O)[C@]1([H])[C@H]3OC(C)=O)/C(C)=C/C(C4(C)C)([H])C4([H])CC(OC(C5=CC=CC=C5O)=O)C3=C
INCHI=InChI=1S/C38H42O10/c1-20-17-27-28(37(27,6)7)18-30(46-36(44)26-15-11-12-16-29(26)41)22(3)33(45-23(4)39)31-32(47-35(43)25-13-9-8-10-14-25)21(2)19-38(31,34(20)42)48-24(5)40/h8-17,21,27-28,30-33,41H,3,18-19H2,1-2,4-7H3/b20-17+/t21-,27+,28-,30?,31?,32-,33+,38+/m0/s1
INCHIAUX=
PUBMED=
SUBMITUSER=lfnothias
TAGS=
LIBRARYQUALITY=3
SPECTRUMID=CCMSLIB00004678658
SCANS=1207
105.032433 216.0
107.050636 880.0
109.059464 212.0
121.077499 396.0
123.041283 220.0
133.094711 320.0
143.083908 172.0
146.097015 204.0
149.096222 1036.0
150.097778 372.0
151.094193 192.0
159.083405 308.0
161.097626 636.0
163.09404 236.0
171.079712 412.0
173.104126 584.0
175.073822 368.0
177.088974 500.0
179.083038 152.0
185.086456 336.0
187.077042 352.0
189.08165 680.0
191.100525 308.0
195.110153 812.0
197.123444 556.0
198.104858 228.0
199.107254 404.0
201.099869 248.0
202.091553 468.0
203.081863 512.0
208.125656 280.0
209.103546 748.0
210.125076 288.0
211.106613 828.0
213.097275 248.0
215.119904 576.0
216.098145 280.0
217.082184 508.0
218.091553 316.0
221.135254 360.0
222.103882 184.0
223.119354 1428.0
224.11322 604.0
225.114349 544.0
226.125946 504.0
227.106262 1428.0
231.090668 160.0
233.133102 1340.0
234.131058 308.0
235.100616 456.0
237.162476 764.0
238.157242 380.0
241.136124 356.0
245.120361 256.0
247.139587 2392.0
248.14682 516.0
249.138229 1184.0
250.118744 428.0
251.134613 1612.0
252.110504 368.0
253.125931 584.0
254.112137 248.0
254.688049 200.0
255.165207 740.0
256.13443 296.0
257.127258 556.0
260.113068 220.0
265.155182 4612.0
266.163757 1444.0
267.144226 1040.0
268.133881 252.0
269.149384 880.0
270.114502 212.0
275.141266 3504.0
276.147156 876.0
278.124939 152.0
281.174103 232.0
283.161774 2868.0
284.177246 836.0
293.150543 12068.0
294.157043 2780.0
295.161926 520.0
296.157623 164.0
311.16214 27040.0
312.16507 8736.0
313.168488 1352.0
329.179718 468.0
331.124878 152.0
333.152008 184.0
341.175018 412.0
353.177032 724.0
354.190826 588.0
355.176514 212.0
367.207062 208.0
371.184021 1036.0
372.177612 524.0
393.162689 340.0
395.221436 436.0
396.241486 156.0
413.242157 316.0
414.232452 344.0
415.208374 616.0
416.19516 176.0
433.195923 700.0
434.211456 176.0
435.223419 552.0
441.258209 196.0
455.246216 368.0
456.256927 424.0
459.250732 780.0
460.235748 464.0
475.20108 1600.0
476.250427 716.0
477.258972 716.0
478.251526 376.0
495.228699 1244.0
496.242645 252.0
520.270203 172.0
579.332886 1144.0
580.339233 2108.0
581.349182 652.0
599.29834 1800.0
600.296753 540.0
601.329102 196.0
622.331787 232.0
640.337402 548.0
641.317566 348.0
657.411194 204.0
658.420105 156.0
659.323303 568.0
660.329102 608.0
661.336548 5856.0
662.34552 1288.0
663.326965 492.0
END IONS
