BEGIN IONS
PEPMASS=921.897
CHARGE=2
MSLEVEL=2
SOURCE_INSTRUMENT=LC-ESI-qTof
FILENAME=f.philipwi/0_WilliamsFreshwaterCyanosStandardsConvertedTo_mzXML_v2/PW-3_P1-A-3_Microviridin_N_1808amu_01_15521_Scan496-539.mzXML;
SEQ=*..*
IONMODE=Positive
ORGANISM=GNPS-LIBRARY
NAME=Microviridin N M+H
PI=Philip Williams
DATACOLLECTOR=Williams
SMILES=O=C(CCC(NC(C(NC(C(NC(C(NC(C(NC(C1CCCN12)=O)CO)=O)CC(OC(C(NC(C(NC(C3CCCN3C(C4N(C(C(NC(C)=O)C)=O)CCC4)=O)=O)C)=O)C(NC(C(N5)=O)CC(C)C)=O)C)=O)=O)CC6=CNC7=C6C=CC=C7)=O)CCC(OC)=O)=O)C(NC(C(O)=O)CC8=CC=C(O)C=C8)=O)NCCCCC5C(NC(CC9=CNC%10=C9C=CC=C%10)C2=O)=O
INCHI=
INCHIAUX=
PUBMED=60159565
SUBMITUSER=philipwi
TAGS=
LIBRARYQUALITY=3
SPECTRUMID=CCMSLIB00000425011
SCANS=498
124.150459 116.0
142.069901 24.0
146.217728 36.0
150.089249 88.0
157.089005 212.0
159.086121 260.0
160.074081 84.0
163.006882 40.0
165.047836 96.0
167.106979 88.0
168.100021 128.0
170.064438 112.0
174.045135 84.0
174.422974 44.0
175.080246 128.0
181.999878 44.0
182.078339 208.0
182.477905 52.0
183.564468 40.0
185.087631 72.0
186.103668 84.0
194.252136 36.0
195.104172 320.0
197.114471 88.0
198.468155 40.0
201.162323 32.0
202.036224 120.0
203.047241 44.0
207.247025 76.0
211.100281 508.0
212.132187 84.0
213.673904 40.0
216.131531 52.0
217.097855 140.0
217.962814 40.0
219.140762 128.0
222.1138 136.0
223.066269 80.0
224.103775 48.0
225.09285 92.0
227.110168 88.0
230.117264 128.0
236.083023 84.0
238.124649 48.0
239.079758 100.0
239.158615 80.0
240.120972 128.0
241.183762 56.0
243.137939 52.0
244.162796 92.0
246.999786 44.0
247.096848 192.0
252.126266 508.0
253.119247 280.0
254.127289 92.0
255.660049 188.0
256.12912 72.0
257.068542 68.0
257.600281 100.0
260.133514 100.0
263.082245 88.0
265.06076 48.0
265.154175 48.0
265.808502 88.0
266.134583 1084.0
266.723846 68.0
267.015442 40.0
267.143066 352.0
267.985016 24.0
268.17569 104.0
269.155029 84.0
270.149445 84.0
271.082733 56.0
272.101746 60.0
274.1138 76.0
275.096191 140.0
278.138947 72.0
279.145508 100.0
282.119507 164.0
283.115051 88.0
284.081207 84.0
285.092041 44.0
285.824402 28.0
286.099274 32.0
286.590088 40.0
287.918945 36.0
288.102295 128.0
290.108002 88.0
292.120087 40.0
294.171936 64.0
294.675079 40.0
298.462311 44.0
299.085388 184.0
299.652863 116.0
300.117615 272.0
301.100128 64.0
302.143829 128.0
303.149933 96.0
304.149628 76.0
305.151001 60.0
308.152954 176.0
309.155151 144.0
310.111847 208.0
311.11499 124.0
313.130859 84.0
315.096649 44.0
315.651337 44.0
316.115845 64.0
316.353882 32.0
317.119781 180.0
320.163483 56.0
321.179413 72.0
322.242737 60.0
322.941132 48.0
323.184235 92.0
324.116821 52.0
324.661713 40.0
325.201752 128.0
328.113464 136.0
329.654114 48.0
330.120056 120.0
331.115143 76.0
332.551575 40.0
334.100128 144.0
335.080627 80.0
336.14389 104.0
337.06781 36.0
337.219971 164.0
338.215698 84.0
340.211548 108.0
341.164612 72.0
342.148621 132.0
345.084808 76.0
345.333496 52.0
347.159424 64.0
347.445282 44.0
347.599762 32.0
348.206146 48.0
349.173462 1352.0
349.491974 36.0
350.188263 272.0
351.176758 116.0
352.183472 104.0
353.1763 56.0
354.19104 64.0
358.144348 104.0
361.146973 32.0
363.124268 128.0
364.121002 96.0
365.187531 160.0
366.191772 64.0
367.131653 92.0
368.191559 112.0
370.89093 120.0
371.197876 28.0
373.153198 56.0
376.203583 92.0
377.339233 32.0
378.045349 80.0
379.147247 144.0
379.422363 40.0
380.453644 36.0
381.17746 148.0
381.635773 36.0
383.215149 80.0
384.205353 40.0
384.586853 160.0
385.172211 48.0
386.119446 84.0
387.122162 156.0
389.69754 104.0
390.843506 108.0
391.133423 32.0
391.226227 168.0
392.256226 128.0
395.139984 56.0
396.687408 140.0
397.1521 88.0
398.199677 84.0
399.13739 124.0
399.89328 152.0
401.079651 44.0
401.245605 80.0
402.15271 52.0
403.598511 40.0
404.149384 32.0
405.111053 96.0
406.163818 64.0
407.153625 76.0
408.247681 148.0
408.685699 104.0
409.162628 80.0
409.717285 124.0
411.176605 76.0
412.677368 44.0
413.162872 108.0
414.206818 44.0
415.21936 72.0
416.14212 108.0
418.147095 56.0
419.17746 96.0
420.065399 40.0
420.15686 72.0
421.172302 48.0
422.145294 84.0
423.32486 52.0
423.660431 96.0
427.005127 40.0
431.138977 84.0
431.270386 96.0
431.977875 44.0
432.157776 32.0
433.709595 48.0
434.147797 120.0
434.255463 76.0
434.50647 36.0
435.038147 36.0
435.264191 92.0
435.716492 48.0
436.22641 140.0
437.074738 80.0
438.154877 124.0
439.156189 96.0
440.185364 96.0
441.162231 140.0
442.162201 112.0
442.260803 36.0
443.682922 108.0
445.712738 84.0
447.200775 100.0
448.165405 52.0
448.732361 56.0
449.116425 64.0
450.205414 60.0
451.179779 36.0
452.182281 68.0
452.277191 52.0
453.240204 56.0
454.163483 84.0
454.258575 104.0
455.177704 84.0
455.395233 44.0
455.69986 92.0
456.244324 144.0
459.258392 76.0
461.220612 92.0
461.693207 144.0
462.252014 416.0
462.899323 52.0
463.254425 208.0
463.549774 68.0
464.247345 92.0
464.58432 48.0
464.692322 92.0
465.38501 64.0
466.141663 64.0
467.193848 52.0
468.139374 48.0
468.277313 64.0
469.229584 268.0
469.740631 68.0
470.21048 116.0
470.777374 40.0
471.192413 68.0
472.177246 88.0
472.715698 100.0
473.270233 124.0
473.741852 128.0
473.908356 40.0
474.158173 52.0
475.269257 84.0
476.159088 108.0
477.13327 64.0
477.230743 92.0
477.732178 64.0
478.225677 136.0
479.230316 136.0
480.269897 304.0
480.662537 68.0
481.190521 104.0
481.739227 140.0
482.225891 124.0
484.190796 56.0
485.201233 44.0
486.165558 56.0
486.73291 28.0
487.253418 128.0
487.746002 112.0
488.182526 80.0
489.183014 136.0
489.281708 104.0
489.714233 152.0
490.198669 76.0
490.692749 200.0
492.233093 56.0
492.6716 36.0
493.251892 108.0
494.739502 84.0
495.108215 88.0
496.18457 76.0
497.095947 176.0
497.284943 76.0
498.190887 72.0
499.315521 88.0
500.156281 120.0
500.698151 56.0
501.183228 92.0
502.19696 64.0
504.188782 276.0
505.233521 80.0
505.674225 44.0
506.10434 72.0
506.233429 108.0
506.850311 48.0
507.022552 68.0
507.166107 52.0
507.737396 112.0
508.056519 28.0
508.272064 52.0
509.254547 136.0
509.494354 44.0
510.300415 20.0
511.222412 52.0
513.752014 136.0
514.282532 76.0
516.213562 96.0
516.757446 88.0
518.180603 404.0
519.180176 52.0
519.746826 92.0
519.993896 76.0
520.182861 132.0
520.71405 116.0
521.186523 52.0
521.361145 68.0
521.492188 56.0
521.725098 76.0
522.312744 92.0
523.182129 32.0
524.78717 128.0
525.23999 80.0
527.243347 88.0
528.0047 32.0
529.749207 156.0
530.248169 136.0
530.732666 116.0
531.187988 84.0
531.481873 64.0
532.236328 112.0
533.216858 120.0
533.349854 36.0
533.54126 72.0
533.732666 52.0
535.28009 96.0
535.737366 80.0
536.253906 84.0
537.28772 120.0
537.731079 96.0
538.248535 84.0
538.736694 112.0
540.113525 72.0
540.217285 84.0
541.193909 72.0
542.055969 20.0
542.210327 40.0
543.229065 40.0
544.180359 92.0
545.266418 60.0
545.445007 52.0
545.764832 96.0
546.159851 176.0
546.732788 80.0
547.203186 96.0
547.575989 36.0
547.733215 104.0
549.26947 100.0
549.770935 148.0
550.757812 68.0
552.254822 104.0
553.237305 76.0
553.753845 76.0
554.233398 112.0
554.774292 168.0
555.254883 36.0
556.246643 92.0
556.457153 40.0
556.622559 44.0
556.769897 96.0
556.808594 76.0
557.254395 60.0
560.207642 36.0
561.218994 184.0
561.55127 36.0
561.915466 36.0
562.263672 164.0
562.760315 96.0
563.804199 100.0
564.25531 264.0
564.455261 40.0
564.748596 304.0
565.273376 92.0
565.788757 124.0
567.746399 124.0
568.254395 128.0
569.733154 156.0
570.246338 180.0
570.757751 100.0
571.271729 252.0
571.748047 36.0
572.23468 128.0
572.729004 108.0
573.263306 176.0
573.782349 188.0
574.236755 80.0
574.73938 108.0
575.301392 180.0
575.717896 56.0
576.313293 96.0
576.758362 84.0
577.309631 28.0
577.615967 148.0
577.784546 104.0
578.25824 512.0
578.596924 24.0
578.76593 244.0
578.896729 200.0
579.087646 32.0
579.264099 120.0
579.547913 136.0
579.76001 168.0
580.008423 32.0
580.284973 172.0
580.484436 56.0
580.786804 132.0
581.083557 40.0
581.529236 44.0
581.793457 128.0
582.276794 84.0
582.707581 52.0
584.245789 140.0
584.576843 96.0
584.907776 168.0
585.239746 52.0
585.917358 116.0
586.566711 24.0
586.782837 92.0
587.267761 332.0
587.754456 124.0
588.268982 216.0
588.776489 116.0
588.931152 32.0
589.28302 92.0
589.581055 116.0
589.728088 80.0
590.246765 64.0
590.8974 84.0
591.238342 92.0
591.362366 72.0
592.804871 140.0
594.300598 124.0
595.212952 180.0
595.337341 60.0
595.767883 332.0
596.224182 112.0
596.784668 80.0
597.22876 164.0
597.766113 108.0
598.280579 80.0
598.717224 124.0
599.278809 40.0
599.950012 28.0
600.637207 52.0
600.918457 36.0
601.277893 152.0
602.28418 80.0
602.775452 96.0
603.327271 92.0
603.556702 60.0
603.734436 100.0
604.26709 36.0
604.799988 136.0
605.301697 84.0
606.282288 104.0
607.263672 52.0
607.389343 36.0
607.757324 148.0
607.992493 52.0
608.264526 140.0
608.360962 68.0
608.78833 112.0
609.370422 56.0
609.748108 116.0
610.29126 84.0
610.765259 116.0
611.244385 52.0
611.786682 124.0
612.267517 76.0
612.774048 228.0
613.263306 88.0
613.72998 172.0
614.281494 168.0
614.763855 228.0
615.255615 72.0
615.728333 56.0
615.918152 36.0
616.234619 112.0
616.772705 124.0
617.270264 120.0
617.797974 120.0
618.277588 180.0
618.772461 92.0
620.212769 128.0
621.753601 120.0
622.278259 68.0
622.78717 152.0
623.27533 112.0
624.156006 60.0
624.777283 264.0
626.32373 32.0
626.786438 176.0
627.272339 172.0
627.600647 20.0
628.337708 56.0
628.781921 64.0
629.244141 80.0
629.774292 68.0
630.334351 80.0
630.788269 100.0
631.279785 72.0
632.096008 36.0
632.240234 68.0
632.352417 56.0
632.897522 28.0
633.234375 92.0
633.775879 116.0
634.2901 208.0
634.736877 108.0
635.173706 84.0
635.286316 128.0
635.771301 140.0
635.964233 52.0
636.205383 100.0
636.321716 68.0
636.763 172.0
637.293823 96.0
638.29303 172.0
638.793579 128.0
639.27179 96.0
639.812012 92.0
640.331055 140.0
641.316711 164.0
641.780579 132.0
642.022888 120.0
642.255432 96.0
642.79834 196.0
643.237793 44.0
643.428833 52.0
643.784607 72.0
644.295288 132.0
644.79425 156.0
645.269897 92.0
646.115723 60.0
646.301514 324.0
647.272583 200.0
647.931702 76.0
648.28241 176.0
648.811584 96.0
649.311646 84.0
649.813477 108.0
650.280823 124.0
650.758057 60.0
651.2948 24.0
651.782959 88.0
652.291443 172.0
652.805359 120.0
653.069214 44.0
653.781494 140.0
654.303101 124.0
654.617676 36.0
654.785034 68.0
655.009155 40.0
655.17395 40.0
655.351807 36.0
655.547607 28.0
655.817505 240.0
656.309631 280.0
656.797729 136.0
657.317505 204.0
657.948975 56.0
658.306702 128.0
658.80957 104.0
659.280579 96.0
659.815552 152.0
660.289795 232.0
660.797058 104.0
661.253113 128.0
662.256226 72.0
662.819214 132.0
663.307556 192.0
663.802979 108.0
664.302917 160.0
664.817749 144.0
665.30896 100.0
665.82074 124.0
666.313049 712.0
666.511719 28.0
666.807373 120.0
667.311157 248.0
667.813354 128.0
668.303467 200.0
668.455017 80.0
668.78833 168.0
669.273621 104.0
670.315063 92.0
671.315674 92.0
671.887451 96.0
672.296875 180.0
672.682129 48.0
673.309143 196.0
673.441467 44.0
673.798889 140.0
674.362915 176.0
674.798645 104.0
675.278931 172.0
675.815491 108.0
676.190247 32.0
676.319519 120.0
676.753967 124.0
677.533569 32.0
677.792236 88.0
678.795166 100.0
679.011108 60.0
679.326721 100.0
679.572876 152.0
679.825256 88.0
680.312317 476.0
680.62323 48.0
680.81012 460.0
681.0224 24.0
681.293518 200.0
681.799744 148.0
682.307129 152.0
682.803833 312.0
683.286621 120.0
683.803284 136.0
684.377502 100.0
684.778992 132.0
685.285095 96.0
685.561279 40.0
685.988647 64.0
686.35376 60.0
686.384216 52.0
686.469849 44.0
686.671387 168.0
686.804565 84.0
687.326294 196.0
687.80072 152.0
687.960144 80.0
688.292114 96.0
688.829834 64.0
689.214661 60.0
689.826111 224.0
690.018127 44.0
690.327454 228.0
690.554077 52.0
690.799622 84.0
691.270386 48.0
691.369568 96.0
691.827698 96.0
692.028931 32.0
692.381104 92.0
692.764771 92.0
692.890381 124.0
693.119324 24.0
693.284912 124.0
693.807556 84.0
693.975464 48.0
694.269897 108.0
694.764954 92.0
695.336914 112.0
695.830383 172.0
696.328796 88.0
696.799438 88.0
697.859924 52.0
698.284119 64.0
698.415771 24.0
698.702148 28.0
700.33136 44.0
700.400146 28.0
700.843689 72.0
701.323914 44.0
701.755249 44.0
702.244995 76.0
702.430847 164.0
702.796936 120.0
703.300537 84.0
703.810181 136.0
704.297913 172.0
704.806702 196.0
705.119629 24.0
705.321472 196.0
705.840881 180.0
706.186401 44.0
706.335938 256.0
706.804321 80.0
706.931946 88.0
707.29303 92.0
707.831238 88.0
708.135742 56.0
708.295044 100.0
708.814453 56.0
709.323669 200.0
709.85083 88.0
710.189758 132.0
711.804443 264.0
712.150818 56.0
712.316284 44.0
712.836243 80.0
713.322388 96.0
713.824768 208.0
714.391846 84.0
714.809326 192.0
715.295105 200.0
715.809937 440.0
716.266541 116.0
716.813232 108.0
717.325317 176.0
717.530151 36.0
717.820496 88.0
718.315857 56.0
718.82843 184.0
719.312439 280.0
719.808777 164.0
720.350281 84.0
720.96637 32.0
721.137512 40.0
721.32074 176.0
721.627808 84.0
721.802368 264.0
722.302002 32.0
722.80426 140.0
723.299805 168.0
723.818542 216.0
724.067627 44.0
724.308594 88.0
725.114319 52.0
725.268799 124.0
725.835388 164.0
726.387939 96.0
726.837341 100.0
727.777283 100.0
728.348999 84.0
728.499756 112.0
728.817261 280.0
729.292603 92.0
729.825134 108.0
730.152344 40.0
730.289185 72.0
730.827148 196.0
731.824097 100.0
732.341492 104.0
732.814575 208.0
733.343567 56.0
734.015747 24.0
734.314209 156.0
734.810364 44.0
735.309875 108.0
735.467102 32.0
735.81543 204.0
735.951233 36.0
736.286438 148.0
736.868042 76.0
737.31366 144.0
737.841064 536.0
738.323914 600.0
738.47998 44.0
738.664368 80.0
738.835266 268.0
739.032532 36.0
739.346619 164.0
739.847229 144.0
740.055298 36.0
740.311218 304.0
740.827026 212.0
741.061401 24.0
741.294678 76.0
741.837402 96.0
742.315125 92.0
742.519775 84.0
742.845886 176.0
743.335205 92.0
743.544922 68.0
743.845825 152.0
743.979492 120.0
744.335693 168.0
744.835449 180.0
745.334106 96.0
745.841064 80.0
746.329834 292.0
746.837952 140.0
747.332581 76.0
747.6875 56.0
748.140747 36.0
748.319397 112.0
748.449707 128.0
748.576721 116.0
748.816284 408.0
749.222168 60.0
749.553711 44.0
749.832947 128.0
750.319519 96.0
750.496399 32.0
750.9505 40.0
751.330139 348.0
751.659485 76.0
751.828918 520.0
752.327759 724.0
752.61084 60.0
752.829956 448.0
753.001953 88.0
753.360046 72.0
753.607971 24.0
753.844543 288.0
754.132996 36.0
754.33667 268.0
754.841736 92.0
755.347961 124.0
755.534058 36.0
755.841919 84.0
756.002197 56.0
756.049255 40.0
756.327454 156.0
756.703674 44.0
756.827576 264.0
757.000183 44.0
757.315552 128.0
757.61261 88.0
757.842529 232.0
758.328186 204.0
758.828613 168.0
759.077515 136.0
759.235596 36.0
759.589844 48.0
759.829895 152.0
760.339783 1448.0
760.694092 36.0
760.843445 1656.0
761.333191 380.0
761.555786 56.0
761.696533 44.0
761.854614 368.0
762.340759 680.0
762.83429 420.0
763.315918 200.0
763.839417 660.0
764.342957 96.0
764.672607 60.0
764.839355 136.0
765.042786 36.0
765.324646 464.0
765.501282 88.0
765.835449 204.0
766.345825 380.0
766.83783 328.0
767.335754 508.0
767.826355 172.0
768.338562 116.0
768.868591 144.0
769.324036 188.0
769.616089 40.0
769.852478 96.0
770.340576 184.0
770.588989 20.0
770.86676 116.0
771.008362 52.0
771.155334 36.0
771.352539 280.0
771.8479 336.0
772.338074 276.0
772.81543 256.0
773.334961 336.0
773.645508 36.0
773.829468 216.0
774.334229 1864.0
774.839417 1768.0
775.338501 692.0
775.845154 552.0
776.335327 1616.0
776.545959 36.0
776.834351 632.0
777.132263 36.0
777.334839 620.0
777.598206 36.0
777.848206 464.0
778.325928 172.0
778.590088 96.0
778.831177 108.0
779.354248 184.0
779.936462 152.0
780.294067 112.0
780.850586 124.0
781.349426 48.0
781.836121 96.0
782.062317 36.0
782.597168 40.0
783.329468 328.0
783.851929 176.0
784.36499 80.0
784.613525 36.0
784.832947 112.0
785.220703 32.0
785.345764 68.0
785.810303 52.0
786.335571 180.0
786.853027 108.0
787.115234 180.0
787.437195 36.0
787.669739 52.0
787.842651 72.0
788.063354 28.0
788.336426 80.0
788.689819 44.0
788.994141 128.0
789.361816 136.0
789.800049 28.0
790.35553 64.0
790.821533 64.0
791.215942 28.0
791.353333 96.0
791.915344 24.0
792.310059 156.0
792.740723 124.0
793.291138 60.0
793.83252 212.0
794.373108 180.0
794.985718 96.0
795.350159 88.0
795.866638 124.0
796.352295 144.0
797.349792 92.0
798.358826 124.0
798.877686 72.0
799.32605 144.0
799.803711 48.0
800.319702 172.0
801.854736 88.0
802.336853 56.0
802.660583 80.0
802.895386 52.0
803.274719 52.0
803.618042 32.0
803.907166 32.0
804.328735 124.0
804.52179 120.0
804.666443 36.0
804.811096 92.0
805.154724 36.0
805.334351 116.0
805.842224 92.0
806.32959 56.0
806.862488 164.0
807.338135 224.0
807.824829 80.0
807.898987 108.0
808.337158 148.0
808.830688 328.0
808.950317 40.0
809.355225 128.0
810.390503 84.0
810.842468 128.0
811.354919 180.0
811.829651 192.0
812.35144 96.0
812.925537 128.0
813.341187 324.0
813.860107 84.0
814.354553 212.0
815.279114 52.0
816.389771 92.0
816.871765 244.0
817.355347 48.0
817.883911 68.0
818.175598 32.0
818.387329 80.0
819.344238 260.0
819.839966 72.0
820.362793 96.0
820.832825 72.0
820.967651 44.0
821.362976 92.0
821.889526 112.0
823.343689 96.0
824.299133 84.0
824.838379 112.0
824.990662 24.0
825.338623 64.0
825.668274 152.0
825.842529 108.0
826.387207 100.0
826.68811 132.0
827.399048 116.0
827.893494 104.0
828.362976 184.0
828.861511 240.0
829.390686 124.0
829.841064 76.0
830.353577 128.0
830.849121 156.0
831.340698 136.0
831.701599 40.0
831.843201 124.0
832.391418 180.0
832.851074 52.0
833.047852 84.0
833.354187 80.0
833.860168 212.0
834.340637 204.0
834.870239 212.0
835.304993 100.0
835.40979 84.0
835.901978 108.0
836.82373 124.0
837.308228 128.0
837.830139 128.0
838.170349 32.0
838.384338 52.0
838.650208 36.0
838.853271 244.0
839.878662 208.0
840.375793 164.0
840.707886 36.0
840.848389 36.0
841.014771 44.0
841.439941 88.0
841.643372 60.0
841.883789 328.0
842.18512 96.0
842.376465 228.0
842.586792 36.0
842.860291 352.0
843.086426 68.0
843.364929 312.0
843.861938 380.0
844.086182 48.0
844.358521 108.0
844.893555 92.0
845.364502 96.0
845.855713 264.0
846.366211 408.0
846.551086 48.0
846.849426 392.0
847.347595 540.0
847.862427 272.0
848.374695 160.0
848.858765 208.0
849.149597 40.0
849.369324 248.0
849.864563 176.0
850.208679 36.0
850.406921 108.0
850.639099 216.0
850.881287 380.0
851.378296 600.0
851.860168 604.0
852.110229 120.0
852.369873 144.0
852.862671 556.0
853.0625 68.0
853.353577 164.0
853.535156 40.0
853.682983 120.0
853.870544 192.0
854.048096 60.0
854.33783 96.0
854.870667 300.0
855.077576 40.0
855.439514 76.0
855.6073 36.0
855.868652 1160.0
856.375305 692.0
856.86969 996.0
857.358826 316.0
857.667297 96.0
857.869873 384.0
858.358582 180.0
858.869446 284.0
859.367737 280.0
859.864075 560.0
860.144165 52.0
860.365723 628.0
860.692932 68.0
860.859253 1012.0
861.368347 1340.0
861.868164 1176.0
862.103577 40.0
862.36676 668.0
862.874756 1204.0
863.377563 232.0
863.687378 72.0
863.871216 444.0
864.04071 104.0
864.371887 424.0
864.873108 3020.0
865.377014 3776.0
865.872925 1504.0
866.150208 148.0
866.378723 840.0
866.566528 40.0
866.671631 72.0
866.869385 1844.0
867.376831 1296.0
867.863037 2156.0
868.365173 1372.0
868.54126 152.0
868.857849 1300.0
869.362793 528.0
869.86676 156.0
870.085022 36.0
870.396179 272.0
870.941345 32.0
871.341125 76.0
872.438538 56.0
872.978943 40.0
873.374451 32.0
874.410889 52.0
874.655945 36.0
874.831909 64.0
875.50061 40.0
875.900574 44.0
876.395752 60.0
876.862976 44.0
877.429321 192.0
878.864929 56.0
880.11261 148.0
880.850281 48.0
881.331543 52.0
881.928955 44.0
882.175049 52.0
882.459045 40.0
883.102966 44.0
883.254517 36.0
883.451233 52.0
883.86084 80.0
884.770752 48.0
885.445007 72.0
886.269226 36.0
886.572876 32.0
887.397705 72.0
887.65509 32.0
887.920959 36.0
888.471924 64.0
889.992554 64.0
890.3349 76.0
890.848511 48.0
891.367737 156.0
892.435303 108.0
893.914246 40.0
894.238281 48.0
894.486084 24.0
896.011902 128.0
896.34613 76.0
896.870728 76.0
897.28479 64.0
897.394836 80.0
897.863647 24.0
898.207458 48.0
898.436768 44.0
898.857117 168.0
899.354065 64.0
900.711853 32.0
900.845764 88.0
901.390808 100.0
901.880249 220.0
902.415283 32.0
903.366516 180.0
903.85199 132.0
904.254456 84.0
904.407837 216.0
904.881409 84.0
905.363403 124.0
906.402588 84.0
906.843994 112.0
907.386841 88.0
908.439331 60.0
908.87146 228.0
909.875854 236.0
910.148682 40.0
910.35553 100.0
910.888 276.0
911.225891 32.0
911.360596 96.0
912.852844 116.0
914.384277 72.0
914.962646 32.0
915.378601 108.0
915.541138 112.0
915.872681 232.0
916.36499 164.0
916.84729 52.0
917.376953 184.0
917.869934 216.0
918.030334 96.0
918.366699 624.0
918.591125 24.0
918.849487 96.0
919.093445 36.0
919.389404 256.0
919.883362 112.0
920.358032 436.0
920.906067 208.0
921.434448 128.0
921.950012 260.0
922.298157 76.0
922.462219 96.0
923.376343 264.0
923.53186 40.0
923.981995 44.0
924.158691 48.0
924.372742 3876.0
924.686829 36.0
924.868835 2956.0
925.37854 2352.0
925.876709 1312.0
926.231628 48.0
926.381348 692.0
926.650452 32.0
926.863586 216.0
927.40564 172.0
927.877808 212.0
928.370728 96.0
928.897827 40.0
929.092102 36.0
929.356995 76.0
929.541016 40.0
929.869446 76.0
930.21936 80.0
930.394348 40.0
931.892029 48.0
932.398071 48.0
933.468872 52.0
933.858398 36.0
934.423401 60.0
934.676758 32.0
934.852112 68.0
935.144531 52.0
935.397949 32.0
936.353455 44.0
937.094788 96.0
938.363586 68.0
939.340149 68.0
940.292175 72.0
940.884155 300.0
941.353455 52.0
942.460327 108.0
944.426453 32.0
945.210205 48.0
945.347412 36.0
946.386414 92.0
947.4375 68.0
949.487244 36.0
949.919434 96.0
950.332031 56.0
950.921631 92.0
951.078918 36.0
951.452454 100.0
952.003052 60.0
954.344971 76.0
955.400574 68.0
956.453125 64.0
958.129517 36.0
959.294006 52.0
960.439392 52.0
960.617188 44.0
961.447144 76.0
962.424683 72.0
963.34552 80.0
964.438904 48.0
965.641907 28.0
967.703003 44.0
968.952637 88.0
970.461243 92.0
971.194214 44.0
971.812012 140.0
972.447998 44.0
973.462036 56.0
979.375671 76.0
980.415344 52.0
981.393555 48.0
983.491394 52.0
987.533569 68.0
988.466187 48.0
991.447144 68.0
995.361206 52.0
995.502014 72.0
996.427368 60.0
997.433655 56.0
997.836365 128.0
999.407532 56.0
999.790405 100.0
1000.455688 72.0
1001.423645 40.0
1002.432495 32.0
1004.532532 52.0
1007.403381 76.0
1009.430237 88.0
1010.420166 140.0
1011.494324 60.0
1012.50824 64.0
1013.400879 80.0
1013.583496 32.0
1014.476624 36.0
1015.004578 116.0
1015.431091 48.0
1017.411987 100.0
1018.134399 120.0
1018.480164 36.0
1021.391235 72.0
1022.328552 36.0
1023.429443 52.0
1025.498901 96.0
1025.673828 112.0
1027.368896 92.0
1027.501709 72.0
1028.431641 68.0
1030.456299 60.0
1031.46814 64.0
1037.199341 44.0
1037.466187 24.0
1038.451904 68.0
1040.38269 80.0
1040.490723 40.0
1042.543579 60.0
1043.408203 32.0
1048.438232 120.0
1051.453857 40.0
1052.44165 36.0
1057.435669 52.0
1058.493164 96.0
1059.239868 80.0
1059.48877 92.0
1060.526489 60.0
1062.270874 32.0
1062.49939 40.0
1065.423462 108.0
1068.387573 32.0
1069.49707 52.0
1070.504883 112.0
1071.452515 56.0
1072.485596 96.0
1074.480103 40.0
1076.424194 44.0
1077.574707 44.0
1079.45874 104.0
1079.751953 48.0
1080.422241 60.0
1082.224976 36.0
1083.420532 36.0
1084.82666 60.0
1085.502563 64.0
1086.422852 56.0
1086.569946 136.0
1088.484375 72.0
1089.471558 156.0
1090.397461 32.0
1091.365845 108.0
1091.504395 100.0
1092.440063 28.0
1092.987915 44.0
1093.475464 88.0
1095.813599 48.0
1096.460815 56.0
1097.388672 64.0
1098.452759 60.0
1100.52417 60.0
1101.468628 116.0
1103.592407 32.0
1105.499023 36.0
1107.492188 60.0
1108.34082 60.0
1108.51062 52.0
1111.526367 72.0
1114.397095 84.0
1115.410889 88.0
1117.314209 64.0
1119.53125 44.0
1121.494263 40.0
1121.643677 156.0
1122.092041 76.0
1122.467285 84.0
1124.527466 32.0
1125.596558 56.0
1126.109863 112.0
1130.692017 72.0
1132.428833 36.0
1134.467529 60.0
1135.369507 64.0
1139.518555 104.0
1140.477661 76.0
1141.542114 44.0
1142.468262 48.0
1144.515991 40.0
1145.465088 56.0
1146.500854 52.0
1147.450684 36.0
1148.487305 60.0
1149.80542 148.0
1151.556885 24.0
1154.522217 36.0
1156.428955 76.0
1157.469604 40.0
1159.574097 112.0
1161.528442 48.0
1162.506226 152.0
1163.554321 56.0
1164.463135 28.0
1166.421509 44.0
1167.510254 32.0
1168.453735 100.0
1169.493164 76.0
1171.608521 64.0
1173.507446 92.0
1173.878784 28.0
1179.585693 36.0
1180.308228 100.0
1180.483521 52.0
1181.425415 40.0
1184.406982 120.0
1184.58252 40.0
1185.504028 40.0
1186.052856 32.0
1187.546021 96.0
1188.512695 40.0
1189.567749 36.0
1190.623291 48.0
1191.468628 64.0
1193.39624 72.0
1193.616455 44.0
1196.547119 68.0
1198.499268 96.0
1199.525635 64.0
1201.336548 68.0
1202.662598 52.0
1203.21521 32.0
1203.458496 76.0
1206.733398 48.0
1208.438965 48.0
1210.611572 80.0
1211.831665 52.0
1215.406738 80.0
1216.451416 40.0
1217.452026 72.0
1217.896973 60.0
1218.519897 60.0
1219.677246 32.0
1223.509155 52.0
1225.583496 40.0
1228.5979 56.0
1231.392334 32.0
1233.652466 100.0
1234.548218 40.0
1235.444214 24.0
1236.468384 40.0
1238.493164 32.0
1242.511841 36.0
1243.433228 56.0
1244.588135 96.0
1245.231934 68.0
1247.607788 56.0
1248.473145 100.0
1250.410767 28.0
1251.532227 108.0
1252.609375 64.0
1253.590942 40.0
1255.419678 36.0
1256.45874 72.0
1260.483765 52.0
1261.547607 72.0
1263.518066 44.0
1265.626221 64.0
1266.578735 84.0
1267.493774 248.0
1268.50769 80.0
1269.574951 52.0
1270.597168 32.0
1271.415283 112.0
1272.436523 52.0
1273.279663 32.0
1273.575439 28.0
1274.439941 76.0
1277.442993 36.0
1279.519531 56.0
1281.846191 96.0
1283.604126 52.0
1284.5177 80.0
1285.340332 60.0
1285.568848 60.0
1286.528931 64.0
1289.754639 60.0
1290.533081 80.0
1291.563721 72.0
1293.544067 136.0
1299.616821 28.0
1301.47876 32.0
1303.595215 120.0
1304.469971 116.0
1305.437012 44.0
1306.657959 44.0
1310.670166 52.0
1311.60498 68.0
1311.847412 88.0
1313.533203 40.0
1314.549927 44.0
1317.55603 84.0
1318.574219 32.0
1320.54248 64.0
1324.552734 32.0
1330.358643 84.0
1332.289062 40.0
1334.290649 136.0
1335.129028 136.0
1335.455078 112.0
1336.433594 44.0
1352.520508 96.0
1357.487915 64.0
1358.509033 76.0
1359.53186 76.0
1360.594727 56.0
1361.610718 48.0
1362.588989 172.0
1365.588989 64.0
1368.570312 68.0
1372.512695 64.0
1373.670166 48.0
1374.686157 60.0
1380.529785 60.0
1381.595703 52.0
1383.624756 44.0
1385.626465 60.0
1386.588867 72.0
1387.525269 48.0
1388.57019 68.0
1391.683472 68.0
1394.895508 152.0
1396.538574 64.0
1397.229492 44.0
1402.714966 64.0
1406.561157 40.0
1407.589233 44.0
1411.56189 40.0
1412.615723 40.0
1414.67688 52.0
1417.53125 48.0
1429.001709 28.0
1430.640747 40.0
1435.587402 64.0
1439.526733 60.0
1440.591064 40.0
1441.527344 52.0
1444.48877 72.0
1445.583496 44.0
1446.587769 76.0
1451.134277 36.0
1451.619995 116.0
1453.563477 92.0
1455.581177 44.0
1456.821777 40.0
1458.441528 64.0
1459.572144 60.0
1461.69165 40.0
1462.642212 56.0
1463.544312 96.0
1463.861328 48.0
1464.568604 52.0
1469.451416 28.0
1469.646118 80.0
1470.526733 36.0
1475.272461 100.0
1476.594849 60.0
1478.604004 36.0
1480.607788 44.0
1481.595825 36.0
1488.596558 64.0
1496.723267 44.0
1499.65918 24.0
1506.702393 60.0
1511.530884 64.0
1514.555786 52.0
1520.018066 140.0
1520.639404 40.0
1524.569214 40.0
1527.582275 76.0
1534.640625 76.0
1536.638916 68.0
1541.59021 44.0
1542.666626 56.0
1552.847778 32.0
1557.674072 28.0
1559.58667 40.0
1570.277954 136.0
1572.526733 52.0
1581.69873 56.0
1586.611938 64.0
1590.727661 44.0
1593.576294 60.0
1596.631226 56.0
1599.587036 32.0
1606.630859 72.0
1607.627441 72.0
1608.624268 92.0
1609.698242 24.0
1611.130615 28.0
1611.693604 56.0
1613.638916 44.0
1614.714478 40.0
1619.610352 32.0
1622.587402 64.0
1623.588867 52.0
1624.693481 52.0
1629.686279 44.0
1631.792236 40.0
1632.652588 140.0
1633.672485 76.0
1634.625854 32.0
1636.70105 48.0
1637.608765 52.0
1637.701294 72.0
1638.663818 88.0
1639.62915 40.0
1653.466675 36.0
1655.696411 32.0
1665.905151 112.0
1673.719116 48.0
1711.717896 52.0
1735.109497 140.0
1760.210571 100.0
1833.618896 32.0
1921.468872 72.0
END IONS
