BEGIN IONS
PEPMASS=819.305
CHARGE=1
MSLEVEL=2
SOURCE_INSTRUMENT=LC-ESI-Orbitrap
FILENAME=Cpd_13_819_terracinolide.mgf
SEQ=*..*
IONMODE=Positive
ORGANISM=GNPS-LIBRARY
NAME=13_-hydroxyterracinolide B M+Na
PI=LITAUDON/TOUBOUL
DATACOLLECTOR=Esposito
SMILES=O=C1[C@]2(OC(C)=O)[C@@]([C@@H](OC(C)=O)[C@@](OC(C)=O)(C)C2)([H])[C@@H](OC3=O)[C@](CC3)(OC(C)=O)[C@H](OC(C(C)C)=O)[C@@H](OC(C)=O)[C@@H](OC(C)=O)C(C)(C)/C=C/[C@]1(O)C
INCHI=
INCHIAUX=
PUBMED=N/A
SUBMITUSER=lfnothias
TAGS=
LIBRARYQUALITY=1
SPECTRUMID=CCMSLIB00000840546
SCANS=1
220.437378 2974.334961
240.624527 3276.515625
251.142929 4120.0
254.202362 2471.5625
271.622314 3028.716309
279.139587 6075.033203
296.429291 3224.90332
303.13623 6492.200195
303.691376 3708.282227
307.131866 5676.600586
311.901062 3220.120605
321.147278 12692.957031
330.633545 2582.077148
331.129303 4460.359863
339.15918 13306.626953
340.627167 3088.838379
345.437866 3172.12207
345.598053 3926.947266
349.145142 23778.199219
367.152405 31098.576172
378.755005 3089.418457
385.163177 6009.090332
391.155975 4823.605957
391.629944 3353.48584
399.181488 4482.603027
405.148071 3562.671875
409.164978 7204.571289
427.176422 12819.331055
445.187531 12394.821289
455.206207 5991.05127
457.28302 3184.870605
459.202972 7978.951172
469.186249 11844.554688
487.191467 15207.668945
491.16507 12457.474609
497.217224 6052.709473
515.228699 7326.242188
535.002869 3423.688965
535.227417 3704.897949
536.981567 2942.765137
539.226624 3718.555176
551.183899 83512.90625
554.444946 3179.427246
557.237671 26408.341797
564.14032 4984.274414
568.570984 3662.218262
569.196472 5214.844238
575.247803 12580.685547
579.219849 13978.936523
595.252319 24822.681641
597.232727 53877.464844
611.205383 51423.160156
617.256409 16931.208984
635.268372 6449.162598
639.243652 356439.28125
645.530945 3089.474609
655.270325 25339.125
657.252258 35006.046875
671.236572 34720.441406
677.283081 7638.069336
682.615784 3625.193848
686.81311 3492.193848
689.240784 4484.043945
694.618713 2881.249023
694.646423 3475.398926
694.992432 4627.536621
697.073975 3150.5625
699.262695 4049041.5
699.556274 13391.264648
699.584229 17355.494141
703.57251 4749.845215
703.925232 4549.512207
715.295715 12414.525391
737.30304 8432.46875
754.434998 4150.257812
758.886292 13041.769531
758.917908 12535.50293
758.981079 18134.119141
759.012695 16502.177734
759.075928 23969.443359
759.107544 22514.3125
759.13916 25627.199219
759.170776 21885.226562
759.202393 4264.67627
759.281433 3768028.75
759.360474 12416.694336
759.39209 25929.287109
759.423706 26779.001953
759.455383 26263.052734
759.487 20415.195312
759.518616 20771.783203
759.550293 18799.822266
759.581909 14001.158203
759.613525 16419.091797
759.645203 13246.861328
759.77179 11458.342773
759.803467 8498.033203
764.174683 3850.230957
END IONS
