BEGIN IONS
PEPMASS=502.77
CHARGE=2
MSLEVEL=2
SOURCE_INSTRUMENT=LC-ESI-Orbitrap
FILENAME=f.Rolandoo1/20190519 Moroidin paper GNPS/[Gln1]-moroidin.mzXML;
SEQ=*..*
IONMODE=Positive
ORGANISM=GNPS-LIBRARY
NAME=[Gln1]-moroidin M+2H
PI=Jing-Ke Weng
DATACOLLECTOR=Roland Kersten
SMILES=NC(C(NC(C(NC(CC(C)C)C(NC(C(C)C)C(NC(C(NC(C(NCC(NC(CC1=CN2C=N1)C(O)=O)=O)=O)CCCNC(N)=N)=O)CC3=C2NC4=C3C=CC5=C4)=O)=O)=O)C5C(C)C)=O)CCC(N)=O
INCHI=
INCHIAUX=
PUBMED=
SUBMITUSER=Rolandoo1
TAGS=
LIBRARYQUALITY=3
SPECTRUMID=CCMSLIB00005435913
SCANS=1
69.907616 333.254944
69.908173 603.256042
69.90873 737.091003
69.909279 644.448486
69.909836 379.337524
69.910393 3.787555
69.967514 316.074219
69.968071 609.498718
69.96862 742.487976
69.969177 607.674927
69.969734 304.581482
70.0625 6.239419
70.063057 774.877014
70.063614 3515.684082
70.064171 8708.133789
70.064728 14313.833008
70.065285 16220.354492
70.065842 11296.711914
70.066399 5884.985352
70.066948 1490.005005
70.067505 48.263905
70.853745 300.609711
70.854309 614.874634
70.854874 804.093628
70.855438 736.073425
70.85601 453.492157
70.856575 8.933076
72.076714 2240.814453
72.077293 1430.502441
72.077873 2734.218994
72.078453 7009.779297
72.079033 23097.212891
72.079613 62771.292969
72.080193 108208.148438
72.080772 137137.265625
72.081352 109076.210938
72.081932 64441.621094
72.082512 22993.476562
72.083092 5752.543945
72.083672 1403.863403
72.084251 536.222656
72.570091 289.122437
72.570671 519.265503
72.571259 595.692871
72.571846 459.934143
72.572433 219.074707
72.573021 39.014267
73.086319 304.769531
73.086914 607.706055
73.087502 801.299011
73.088097 766.825012
73.088692 516.848145
73.089279 153.798996
75.007973 360.672974
75.008591 736.499939
75.009201 921.10968
75.009819 774.149963
75.010437 414.659454
75.011055 18.488617
75.995773 384.021667
75.996399 578.017517
75.997032 672.871765
75.997658 609.643555
75.998283 404.35675
75.998917 119.739685
83.055077 87.943031
83.055801 1401.723755
83.056519 3527.619141
83.057236 8910.807617
83.057953 28246.990234
83.05867 78944.976562
83.059387 145170.28125
83.060104 195134.640625
83.060822 173059.84375
83.061539 110149.484375
83.062256 46661.558594
83.062973 12312.915039
83.06369 2605.434814
83.064415 867.251343
83.065132 168.554398
83.065849 8.214697
83.083076 356.602509
83.083794 1567.844238
83.084511 3395.541992
83.085236 4937.291016
83.085953 4627.703125
83.08667 3004.001221
83.087387 996.345154
83.088104 89.941551
84.038361 151.086349
84.039093 576.101318
84.039825 2415.832764
84.040558 4573.321777
84.041283 10560.073242
84.042015 33954.914062
84.042747 86561.390625
84.04348 154241.515625
84.044205 196524.453125
84.044937 166878.96875
84.04567 101444.117188
84.046402 41744.371094
84.047127 10849.02832
84.047859 3344.268555
84.048592 2609.059814
84.049324 2270.151611
84.050056 658.966492
85.026573 159.648651
85.027313 418.779816
85.028061 634.681702
85.028801 690.580444
85.029549 561.362793
85.030289 331.493073
85.031036 74.354912
85.472878 158.330231
85.473633 358.202057
85.47438 473.858063
85.475128 454.907135
85.475876 314.874603
85.476624 107.57196
86.090607 244.43251
86.091362 3232.561035
86.092125 7531.721191
86.09288 14610.509766
86.093636 40478.53125
86.094391 121705.28125
86.095154 244223.640625
86.095909 360820.28125
86.096664 363261.15625
86.097427 253667.671875
86.098183 123939.257812
86.098938 38799.449219
86.099693 8880.994141
86.100456 3755.303223
86.101212 2267.604004
86.101967 1106.850342
86.10273 233.725815
87.096848 140.975937
87.097618 782.213562
87.098389 1728.035767
87.099159 2469.870605
87.09993 2548.790527
87.1007 1902.337769
87.101471 898.364624
87.102242 164.737854
88.940666 269.923737
88.94146 631.903259
88.942253 1096.265625
88.943047 1377.2771
88.943848 1284.277954
88.944641 864.146545
88.945435 417.240479
88.946228 123.902222
95.493347 162.423767
95.494232 419.910736
95.495117 553.429993
95.496002 533.671875
95.496887 364.287933
95.497772 120.328629
97.023651 134.024078
97.024559 1183.909058
97.025459 5113.000488
97.026367 13561.222656
97.027275 24416.757812
97.028183 31302.291016
97.029083 26894.769531
97.029991 15953.712891
97.030899 6726.186035
97.031807 1706.730347
97.032715 298.457825
97.097092 201.109604
97.098 2101.976807
97.098907 7126.302246
97.099815 14668.770508
97.100723 21202.833984
97.101624 20791.589844
97.102531 13436.09375
97.103439 6099.762207
97.104347 1206.305054
97.105255 116.538956
99.41861 107.280785
99.419548 353.841156
99.420494 513.044739
99.421432 528.84314
99.422371 381.238129
99.423309 155.978561
101.062935 62.51759
101.063896 701.064026
101.064857 1859.375122
101.065819 2414.572754
101.066788 5429.11377
101.067749 17259.226562
101.06871 45930.25
101.069679 83767.484375
101.070641 112476.96875
101.071602 100080.09375
101.072563 60580.226562
101.073532 26155.914062
101.074493 6492.989746
101.075455 1683.990845
101.076424 511.655029
101.077385 192.970596
102.051781 93.037491
102.052757 357.150848
102.053734 618.412292
102.05471 750.673279
102.055687 662.562561
102.056664 410.667053
102.057648 142.25322
106.64817 104.636681
106.649216 461.250275
106.650261 763.822571
106.651306 863.315857
106.652351 689.616211
106.653397 326.833252
107.890144 174.998032
107.891205 681.010437
107.892265 876.861206
107.893333 824.325012
107.894394 555.71051
107.895454 224.281265
108.620644 62.201714
108.621719 287.838562
108.622795 455.712799
108.623863 509.582428
108.624939 404.94519
108.626015 192.990997
109.024292 155.389664
109.025375 1168.797241
109.026451 2988.804199
109.027534 4650.921387
109.02861 5200.516602
109.029694 4244.231934
109.030769 2393.003906
109.031853 644.592834
109.882042 129.496918
109.883133 622.435242
109.884224 837.62677
109.885315 822.107849
109.886414 574.068054
109.887505 242.002731
110.066849 34.981438
110.06794 300.792145
110.069038 872.295349
110.070129 1367.099121
110.071228 1467.611694
110.072327 1100.240601
110.073418 502.15921
112.082474 175.959167
112.083603 1264.068848
112.084724 3224.787842
112.085854 5211.364258
112.086975 6087.924316
112.088104 4932.284668
112.089226 2740.329834
112.090355 900.424255
112.091476 224.725418
113.066643 206.73494
113.067787 1242.990723
113.068924 2847.651367
113.070061 4201.466309
113.071205 4463.106934
113.072342 3124.573486
113.073486 1356.378174
113.074623 316.487274
115.082466 72.104248
115.083633 424.224152
115.084808 609.853149
115.085976 656.250977
115.087151 527.146484
115.088318 280.163422
122.394913 34.778042
122.396202 419.980255
122.397484 669.734497
122.398766 735.161011
122.400055 567.512451
122.401337 279.850952
123.373962 18.335617
123.375267 240.122101
123.376564 585.005798
123.377861 866.916992
123.379166 878.548523
123.380463 612.892822
123.38176 268.724396
123.494896 31.511744
123.496193 548.16925
123.497498 1037.749756
123.498795 1191.640747
123.500099 916.357849
123.501404 500.667938
123.502701 42.48307
123.504005 59.16544
123.505302 713.338562
123.506607 1064.27832
123.507912 672.704041
123.509209 208.451691
124.49115 8.650574
124.49247 300.473236
124.493782 1144.140625
124.495102 1710.994141
124.496414 1791.784912
124.497734 1297.594727
124.499054 581.086182
124.500366 12.699748
125.087273 307.608276
125.0886 1507.813232
125.089928 2817.035645
125.091248 10714.257812
125.092575 35768.382812
125.093903 76104.1875
125.09523 118318.179688
125.096558 122928.359375
125.097885 82118.914062
125.099213 40988.566406
125.10054 11505.78125
125.101868 2821.035889
125.103188 1261.379883
125.104515 364.421783
126.094841 60.573277
126.096184 1324.838867
126.097527 3287.812012
126.098869 4685.202148
126.100212 4603.284668
126.101555 3111.383789
126.102898 1292.515381
126.10424 202.980225
127.031784 2.000825
127.033142 378.51004
127.0345 2120.748779
127.035851 7911.923828
127.037209 15171.329102
127.038567 21594.681641
127.039925 19194.248047
127.041283 11914.576172
127.042641 4605.650879
127.043999 782.534546
127.045357 27.014481
128.069855 18.19515
128.071228 372.558105
128.072601 1346.262939
128.073975 1195.457153
128.075348 2020.381104
128.076721 5717.39502
128.078094 19051.324219
128.079483 41944.171875
128.080856 66067.890625
128.08223 70724.257812
128.083603 48356.929688
128.084976 24525.939453
128.086349 6918.693848
128.087723 1488.305298
128.089096 442.275879
128.090469 158.47142
129.059509 75.929138
129.060913 1343.894531
129.062302 4730.293945
129.06369 9432.150391
129.065079 13837.822266
129.066467 12919.344727
129.067856 7840.715332
129.069244 3243.757324
129.070633 448.473206
129.072021 34.502956
133.314468 384.631714
133.315918 686.741272
133.317383 820.20105
133.318848 700.191895
133.320297 410.584412
133.321762 28.506052
135.956894 322.845184
135.958405 661.738098
135.9599 898.085083
135.961411 883.004272
135.962906 621.281982
135.964417 37.667984
137.089767 2.0814
137.091293 500.925232
137.092819 1190.438721
137.09433 1926.290649
137.095856 2228.747803
137.097382 1857.127319
137.098907 1067.548462
137.100418 311.38681
137.101944 15.081758
143.092316 635.203308
143.093933 1543.634033
143.095551 2167.171387
143.097183 6548.174805
143.098801 8786.457031
143.100433 24129.21875
143.102051 84087.328125
143.103668 193338.078125
143.105301 314103.21875
143.106918 350173.96875
143.108536 247586.46875
143.110168 132396.96875
143.111786 42072.515625
143.113419 11833.883789
143.115036 6937.234375
143.116653 5250.225586
143.118286 2459.062988
143.119904 379.688354
143.121536 25.266039
144.102264 17.684608
144.103897 1195.721924
144.105545 5003.72998
144.107178 10755.588867
144.108826 16473.791016
144.110458 16916.753906
144.112106 11454.977539
144.113739 5633.789551
144.115387 1553.060059
144.11702 212.712952
144.118668 5.062362
145.043411 368.216248
145.045074 1555.75415
145.046722 4154.966797
145.048386 6925.610352
145.050034 7844.921875
145.051697 5632.322266
145.053345 2840.46582
145.055008 888.921631
145.056656 137.101364
154.852768 256.46991
154.854599 465.965179
154.856415 546.687744
154.858246 467.125671
154.860077 293.566071
154.861908 41.68338
159.971695 597.909973
159.973618 1097.085449
159.975525 1390.757568
159.977448 1272.529053
159.97937 798.484863
159.981293 91.106544
161.111572 541.833679
161.11351 1770.131226
161.115463 3116.059326
161.117401 3612.796387
161.119339 2875.208008
161.121277 1490.968018
161.123215 430.391449
161.125153 23.195955
163.11763 519.108948
163.119598 1161.838623
163.121582 1697.238892
163.12355 1773.057983
163.125534 1310.944946
163.127502 635.222839
163.129486 114.202141
164.331299 319.687897
164.333298 555.769531
164.335297 641.403137
164.337296 531.608093
164.339294 296.782135
164.341293 37.690056
168.071243 783.046936
168.073318 1638.764893
168.075378 2217.297852
168.077454 2135.251221
168.079514 1436.557129
168.081573 603.619995
168.083649 120.981003
185.15361 680.573242
185.156006 3495.170654
185.158386 14064.586914
185.160782 30147.089844
185.163162 47556.425781
185.165558 49067.5625
185.167938 34024.695312
185.170334 17019.765625
185.172729 5520.713379
185.17511 1419.691162
185.177505 177.045837
185.572372 399.619171
185.574768 753.510132
185.577164 934.992676
185.579559 863.147278
185.581955 579.193054
185.584351 107.829353
189.297302 217.798401
189.299774 458.963806
189.302246 578.594055
189.304718 505.94751
189.30719 302.544159
189.309662 83.42086
189.906265 387.148651
189.908752 752.355591
189.91124 948.045532
189.913712 868.308899
189.916199 556.307678
189.918686 150.371674
193.425995 257.694641
193.428543 472.669678
193.431091 567.578186
193.43364 518.673889
193.436188 356.109131
193.438736 69.770378
197.096939 238.291367
197.099564 565.10321
197.102188 783.059326
197.104813 736.939392
197.107422 469.229462
197.110046 102.865059
207.065155 288.965881
207.067978 562.278381
207.070801 689.78833
207.073639 598.465088
207.076462 347.358246
207.079285 67.650742
213.089798 169.916138
213.092743 468.244568
213.095688 743.734741
213.098633 788.320251
213.101593 554.887268
213.104538 104.177589
213.148788 139.504776
213.151749 1108.325684
213.154694 2497.720459
213.157639 4203.718262
213.160599 4336.192383
213.163544 2716.45874
213.166504 1163.256836
213.169449 334.05838
213.172394 38.064457
215.106659 327.802032
215.10965 648.308289
215.11264 840.676575
215.115631 820.660522
215.118622 596.066345
215.121613 306.401642
218.904449 420.096191
218.907532 793.787354
218.910599 926.196716
218.913666 806.970581
218.916748 515.464844
218.919815 120.029625
221.101242 2.97848
221.10437 410.180542
221.107483 2623.508301
221.110596 6399.210449
221.113724 10951.370117
221.116837 12710.930664
221.119949 9090.452148
221.123077 4888.163086
221.12619 1707.978394
221.129303 330.740753
231.101212 232.226349
231.104538 1296.697876
231.107864 3339.630615
231.111206 4894.728027
231.114532 4614.598145
231.117859 3030.192871
231.121201 1142.520996
231.124527 186.767029
233.106201 1211.930786
233.109589 3884.981445
233.112961 7653.294434
233.116333 10326.776367
233.119705 8775.68457
233.123077 4865.780273
233.12645 1861.776367
233.129837 332.294159
238.46814 287.284668
238.471634 658.130493
238.475128 892.689575
238.478607 860.326416
238.482101 585.037903
238.485596 138.777206
239.115417 180.655014
239.118927 549.721069
239.122437 1066.055908
239.125946 1420.142334
239.12944 1359.039307
239.13295 944.875
239.136459 464.278595
239.139969 93.481438
239.564819 370.216888
239.568329 728.489258
239.571854 865.900574
239.575363 744.75647
239.578873 453.981018
239.582397 115.50695
242.202179 284.637543
242.20575 629.676575
242.209335 821.933289
242.212906 734.450989
242.216476 438.147858
242.220047 96.434296
246.405594 229.745483
246.409271 506.540131
246.412933 710.966919
246.416611 743.223083
246.420273 579.707336
246.423935 319.155762
246.427612 73.267593
248.5466 279.830688
248.550323 604.667603
248.554031 819.075134
248.557755 846.2229
248.561462 692.850647
248.565186 167.444092
250.073212 418.99942
250.07695 799.696777
250.080704 936.141846
250.084457 819.744019
250.088211 526.080627
250.091949 145.701981
251.111343 200.564056
251.115112 1691.976929
251.118881 6429.47168
251.122665 12717.292969
251.126434 18142.804688
251.130203 17039.835938
251.133987 11274.543945
251.137756 4957.948242
251.141525 1342.456055
251.145309 186.33493
265.405334 249.542618
265.409424 623.503479
265.413544 872.88501
265.417633 807.737183
265.421722 480.188904
265.425842 102.280899
269.121399 143.978256
269.12558 1243.098511
269.129761 3815.320068
269.133972 7833.362305
269.138153 10046.244141
269.142334 8080.708496
269.146515 4339.126465
269.150696 1721.719604
269.154907 341.404785
271.146301 262.520935
271.150543 583.055664
271.154785 757.455322
271.158997 690.251648
271.163239 446.213043
271.16748 92.765816
287.123566 1212.723267
287.128174 3865.067871
287.132782 14770.842773
287.137421 49115.886719
287.142029 95200.164062
287.146637 137982.609375
287.151245 130057.6875
287.155853 86461.851562
287.160461 39769.324219
287.1651 12549.69043
287.169708 3254.036865
287.174316 872.000793
287.178925 130.945587
288.131897 463.270782
288.136536 1694.529297
288.141144 5458.42041
288.145782 10891.229492
288.150421 15679.68457
288.15506 14880.064453
288.159698 9909.023438
288.164337 4245.171387
288.168976 1044.042358
288.173615 105.915169
293.020844 216.117752
293.025604 456.127289
293.030365 610.602234
293.035126 596.059937
293.039886 421.606201
293.044647 89.475868
304.142944 401.288666
304.14798 1350.416138
304.153015 2397.035645
304.158051 2906.48291
304.163055 2547.485596
304.168091 1565.161133
304.173126 465.550995
304.178162 40.117199
305.121002 332.461639
305.126038 734.735168
305.131104 2149.194092
305.136169 5560.274902
305.141205 18843.658203
305.146271 63937.089844
305.151306 129404.976562
305.156372 196137.6875
305.161438 195736.453125
305.166473 134938.546875
305.171539 66021.546875
305.176605 21914.304688
305.181641 6045.95459
305.186707 3325.230713
305.191772 1781.985474
305.196808 1021.824341
305.201874 225.407318
305.20694 0.73894
306.139313 374.458282
306.144409 1811.213501
306.149475 7220.820312
306.154541 15484.799805
306.159637 23896.914062
306.164703 24409.763672
306.1698 17061.466797
306.174866 8276.070312
306.179962 2396.23291
306.185028 284.82843
308.160522 202.751144
308.165649 1210.225464
308.170807 2695.98877
308.175934 4019.419678
308.181061 3912.540527
308.186188 2603.716064
308.191315 1031.387451
308.196442 149.223312
310.139679 208.074966
310.144867 633.398499
310.150024 1257.772827
310.155212 1787.212891
310.1604 1882.192261
310.165588 1472.074341
310.170746 814.580872
310.175934 154.689911
318.659546 330.137421
318.664948 651.607239
318.670349 807.432007
318.675751 700.785645
318.681122 398.537476
318.686523 84.04908
327.175964 318.191101
327.18158 546.647095
327.187195 647.378967
327.19281 609.812134
327.198425 464.896149
327.204041 82.111664
328.160187 335.513794
328.165802 1161.522095
328.171448 2125.139648
328.177094 2786.231689
328.182739 2308.834717
328.188354 1166.288452
328.194 481.583374
328.199646 72.320595
330.677246 741.599487
330.682953 1368.079102
330.68866 1621.368408
330.694366 1377.745972
330.700073 783.97467
330.70578 130.546738
332.653137 296.056213
332.658905 652.355225
332.664642 919.999573
332.67041 928.713379
332.676147 664.367249
332.681915 313.675049
332.687653 47.648533
336.670135 465.66037
336.675995 1560.490967
336.681854 2712.074951
336.687714 3285.868164
336.693573 2875.242188
336.699432 1783.630127
336.705292 737.548401
336.711151 105.72197
337.168549 363.108765
337.174438 684.273499
337.180298 879.498413
337.186188 863.570618
337.192047 637.272644
337.197906 323.967926
337.203796 50.384228
345.673828 313.375519
345.679932 1750.241821
345.686035 3387.762207
345.692108 4646.27002
345.698212 4134.26123
345.704315 2600.778809
345.710419 928.172729
345.716492 117.456009
346.681519 239.558624
346.687653 475.650269
346.693787 604.034058
346.69989 563.384521
346.706024 385.452148
346.712128 70.041336
349.687775 505.460999
349.69397 1002.504028
349.700165 1296.660278
349.70639 1229.330322
349.712585 840.095337
349.718781 381.90686
349.724976 54.28463
351.168152 1115.880371
351.174377 2415.178467
351.180634 3211.381104
351.186859 3045.900146
351.193115 2091.290039
351.199341 976.320435
351.205597 142.02037
352.149841 245.544708
352.156097 602.429932
352.162384 1041.526245
352.16864 1367.027954
352.174896 1347.584595
352.181183 958.212219
352.187439 453.648193
352.193695 62.161697
352.683044 305.265991
352.689331 1314.166748
352.695618 2202.408447
352.701904 2556.516357
352.70816 2144.048584
352.714447 1245.930664
352.720734 111.847038
353.664795 614.761108
353.671112 3951.898926
353.677429 14410.745117
353.683716 28121.484375
353.690033 39816.144531
353.69635 34949.179688
353.702637 21779.207031
353.708954 9095.897461
353.715271 2467.642334
353.721558 623.103943
353.727875 75.129036
354.176178 861.216309
354.182495 2287.145508
354.188812 3612.7771
354.195129 3915.127197
354.201447 2988.236328
354.207794 1409.395142
354.214111 107.396027
359.661743 45.758854
359.668213 1608.576782
359.674683 7705.943359
359.681152 17072.203125
359.687622 27321.568359
359.694092 28627.09375
359.700562 19740.837891
359.707031 10100.583008
359.713501 3119.43457
359.719971 637.771545
359.72644 74.645866
360.173218 321.343231
360.179688 682.143433
360.186188 947.528809
360.192657 964.206909
360.199158 714.630615
360.205627 354.779419
360.212097 50.389149
363.679077 479.222809
363.685638 1245.452881
363.69223 1957.286865
363.698792 2136.443848
363.705383 1651.961304
363.711945 755.734192
363.718536 271.111084
363.725098 19.657633
364.667511 260.004211
364.674103 567.796509
364.680725 767.413757
364.687317 737.517822
364.693909 511.658661
364.700531 78.772583
368.172333 1101.446533
368.179047 4062.760498
368.18573 15957.607422
368.192444 41064.164062
368.199158 70200.289062
368.205841 84351.960938
368.212555 64553.113281
368.219238 36808.636719
368.225952 12946.682617
368.232635 3280.659912
368.239349 1116.797119
368.246033 152.097275
368.681946 457.863556
368.68866 1774.569824
368.695374 4798.818848
368.702087 8318.751953
368.708801 10356.533203
368.715515 7619.811035
368.722229 4069.146484
368.728943 1433.425415
368.735657 181.626633
369.185883 396.426849
369.192627 732.248779
369.199341 880.726318
369.206085 767.214172
369.212799 450.336243
369.219543 65.121483
370.703949 350.518768
370.710693 692.434326
370.717468 914.282898
370.724243 879.124878
370.731018 581.585876
370.737762 86.416626
371.707581 581.318726
371.714386 846.845398
371.721161 939.618896
371.727966 858.159607
371.734772 584.524048
371.741547 88.511673
372.70166 352.718353
372.708466 708.170715
372.715302 884.400757
372.722137 791.124939
372.728943 519.400513
372.735779 72.863571
373.179688 569.882019
373.186523 1174.808716
373.193359 1602.32959
373.200195 1572.405762
373.207031 1055.187256
373.213867 346.249115
373.220703 40.166496
373.672333 586.221558
373.679169 2355.081543
373.686035 4823.631348
373.692871 6290.740234
373.699738 5507.980469
373.706573 3205.554688
373.71344 1083.526855
373.720276 127.45771
374.159088 104.059853
374.165955 2339.448486
374.172821 7905.884766
374.179688 14593.320312
374.186523 19906.275391
374.19339 17158.875
374.200256 10122.334961
374.207123 3936.106201
374.213989 767.822693
374.220856 53.632561
374.674316 401.661285
374.681183 731.719116
374.688049 861.705505
374.694946 733.847229
374.701813 445.199249
374.708679 60.93956
375.128571 198.921494
375.135468 724.647705
375.142365 1527.921143
375.149231 2182.744141
375.156128 2197.55542
375.163025 1555.183105
375.169922 743.622925
375.176788 101.175987
378.185242 239.225952
378.19223 843.851135
378.199188 1560.482056
378.206177 1955.010864
378.213135 1774.619019
378.220123 1183.435303
378.227081 591.423401
378.23407 81.151932
379.156433 250.324875
379.163422 584.502625
379.170441 931.617249
379.177429 1109.923218
379.184448 1001.938904
379.191437 681.334656
379.198425 337.111267
379.205444 43.162571
379.219452 314.211578
379.22644 665.615479
379.233459 906.238525
379.240448 871.618652
379.247467 589.634888
379.254456 82.324532
379.703064 175.371933
379.710083 1222.29541
379.717072 3032.697998
379.724091 4163.648438
379.73111 3701.633057
379.738129 2179.554199
379.745148 599.707825
379.752167 55.582069
383.185486 255.668472
383.192596 616.92041
383.199707 897.241028
383.206818 915.222595
383.213928 671.56488
383.221069 333.025177
383.22818 42.822144
384.690613 278.367737
384.697754 901.629822
384.704926 1614.396729
384.712067 2128.074463
384.719208 2138.87793
384.726379 1604.401245
384.733521 836.948425
384.740692 118.185204
385.191895 346.102264
385.199066 1072.237427
385.206238 1677.019653
385.213409 1840.088013
385.220551 1443.006592
385.227722 559.226807
385.234894 62.705891
388.162262 183.516052
388.169525 1495.019653
388.176758 2976.949219
388.184021 3847.985107
388.191284 3489.349365
388.198517 2162.31958
388.20578 800.875183
388.213043 115.114799
388.670349 362.07489
388.677612 653.970337
388.684875 741.267395
388.692139 583.526184
388.699432 300.967834
388.706696 44.207924
392.174072 91.422165
392.181427 829.486267
392.188782 3595.531494
392.196136 6941.01709
392.203522 9420.464844
392.210876 8229.249023
392.218231 5067.920898
392.225616 1916.686646
392.232971 354.251709
392.240356 15.068474
393.140533 513.321045
393.147919 1777.859253
393.155304 3767.550537
393.162689 5784.288086
393.170105 5192.29834
393.17749 3053.452148
393.184875 1203.194092
393.192261 422.103638
393.199677 102.40786
393.207062 984.904053
393.214447 3287.725098
393.221832 6170.965332
393.229248 8269.508789
393.236633 7380.595215
393.244019 4441.999512
393.251404 1725.296143
393.25882 313.597687
393.266205 2.22149
393.695465 323.294342
393.70285 1311.754517
393.710266 3322.741943
393.717682 5377.862305
393.725098 6157.540527
393.732483 4838.88916
393.739899 2780.609375
393.747314 812.677063
393.75473 83.339333
395.188477 225.756149
395.195923 946.392151
395.203369 1893.997559
395.210815 2609.318359
395.218262 2648.883545
395.225708 2031.2052
395.233185 1192.674561
395.240631 288.93277
396.166107 506.105042
396.173584 886.915955
396.181061 999.467346
396.188538 1232.578857
396.196014 1328.089966
396.203491 1160.050903
396.210968 953.03186
396.218445 593.514465
396.225922 76.462738
398.712952 349.87027
398.72049 658.299866
398.728027 855.065735
398.735596 828.350098
398.743134 594.944092
398.750671 299.708832
400.682922 6.665753
400.690552 798.922241
400.698151 3681.142578
400.70575 8161.14209
400.713348 13015.953125
400.720947 13839.175781
400.728577 9707.107422
400.736176 4714.722656
400.743774 1248.700439
400.751373 36.088566
401.177704 27.055492
401.185333 889.069885
401.192963 3643.655273
401.200562 8063.567871
401.208191 12778.113281
401.21582 13345.617188
401.223419 9186.164062
401.231049 4778.269531
401.238678 1462.981201
401.246307 243.124725
402.200623 747.914062
402.208252 3426.258789
402.215912 12402.733398
402.223572 27081.310547
402.231201 43639.574219
402.238861 47801.386719
402.246521 34987.507812
402.25415 18694.548828
402.26181 6419.115234
402.26947 1316.805786
402.2771 78.598579
402.721191 569.52478
402.728851 1596.466553
402.736542 2348.572021
402.744202 2279.606201
402.751862 1498.609985
402.759521 633.755127
402.767181 75.535339
407.20285 264.457581
407.210632 599.155334
407.218414 890.067444
407.226227 952.575928
407.234009 732.667358
407.241791 378.562347
407.249603 44.73077
407.694122 212.23996
407.701935 1245.919678
407.709747 2480.608887
407.71756 3320.508301
407.725372 3158.378174
407.733154 2104.935791
407.740967 926.751892
407.748779 111.402824
409.212616 242.2285
409.220459 535.405212
409.228333 725.056091
409.236176 708.34436
409.244019 525.453003
409.251862 67.564079
409.70755 653.829712
409.715424 1328.312866
409.723297 1684.379639
409.73114 1483.395142
409.739014 881.33905
409.746887 116.547363
410.211273 1049.095703
410.219147 2238.467041
410.227051 3099.017822
410.234924 3066.874023
410.242798 2154.387939
410.250671 736.305237
410.258545 253.212601
410.266418 32.398724
411.213593 258.21524
411.221497 552.023254
411.229401 765.620361
411.237305 769.069031
411.245239 565.140808
411.253143 287.537903
411.261047 39.270958
412.712067 356.897186
412.720001 756.047974
412.727966 981.404175
412.735901 849.271912
412.743866 453.396393
412.751801 57.07066
414.690735 1004.88147
414.69873 3601.812988
414.706757 6730.280273
414.714752 8969.975586
414.722778 7417.765137
414.730774 4395.320801
414.73877 1447.643188
414.746796 141.949951
415.187622 932.008362
415.195648 1961.955078
415.203674 3321.181641
415.2117 3109.342773
415.219727 2407.639404
415.227753 1436.093262
415.235779 446.588654
415.243774 64.346809
416.184113 581.123535
416.192139 1634.6604
416.200195 5642.998047
416.208252 19760.964844
416.216309 60009.304688
416.224365 109955.0625
416.232422 150818.90625
416.240448 132523.28125
416.248505 84676.101562
416.256561 35244.101562
416.264618 9802.423828
416.272675 2278.736816
416.280731 160.970245
416.707886 1200.490356
416.715942 5210.896973
416.723999 10792.75293
416.732086 16505.646484
416.740143 16049.399414
416.748199 10502.569336
416.756287 4861.81543
416.764343 1452.416626
416.7724 160.460617
421.204285 280.592377
421.212494 639.844238
421.220673 1376.346313
421.228882 2256.398682
421.237091 2869.865967
421.24527 2862.884521
421.253479 2151.67749
421.261658 1286.169556
421.269867 387.60907
421.278076 33.429424
423.186646 589.195679
423.194885 3594.660156
423.203156 15092.951172
423.211395 46572.570312
423.219666 83791.726562
423.227905 112655.828125
423.236176 95548.929688
423.244446 59637.320312
423.252686 23532.992188
423.260956 6583.82666
423.269196 1653.542847
423.277466 126.074722
423.682343 1301.209473
423.690613 7329.640625
423.698883 29271.769531
423.707153 68953.140625
423.715424 113435.242188
423.723694 128856.75
423.731964 93578.0
423.740234 51607.867188
423.748505 17560.505859
423.756775 4901.405762
423.765045 1863.29187
423.773315 490.243225
423.781586 125.188828
424.187225 191.984985
424.195496 1470.576904
424.203796 5270.80127
424.212067 10436.361328
424.220367 14965.306641
424.228638 13897.273438
424.236938 9024.060547
424.245209 3645.006836
424.25351 822.527222
424.26178 23.796986
424.709595 353.282074
424.717865 2804.470947
424.726166 11731.731445
424.734467 24430.513672
424.742767 37588.632812
424.751068 37128.449219
424.759369 24733.753906
424.76767 11603.854492
424.77597 3561.947754
424.784271 1000.557373
424.792572 108.284309
425.224609 1132.083984
425.23291 2482.961182
425.241211 3613.629883
425.249542 3858.492188
425.257843 3001.975586
425.266174 1555.459839
425.274475 181.818924
425.732208 285.971649
425.74054 620.602539
425.748871 820.549622
425.757202 738.677124
425.765533 434.267181
425.773865 50.251251
427.218689 264.241272
427.227051 524.09259
427.235443 726.256897
427.243805 785.458984
427.252197 658.553223
427.260559 397.952606
427.268921 63.190605
428.696136 645.197388
428.704529 1122.475708
428.712952 1233.706421
428.721375 933.540955
428.729797 447.163483
428.73822 50.374355
429.193115 320.623993
429.201538 641.948914
429.209991 788.116638
429.218414 645.046814
429.226837 325.093018
429.23526 34.886719
429.716309 337.905487
429.724762 1348.068359
429.733215 2261.409912
429.741638 2634.893799
429.750092 2240.336914
429.758545 1366.178345
429.766998 474.717346
430.189697 6.477046
430.198151 588.562744
430.206604 4416.82666
430.215088 12030.945312
430.223541 21066.703125
430.231995 25245.976562
430.240479 18625.939453
430.248932 10266.195312
430.257385 3392.495361
430.265839 619.440125
430.274323 48.411037
430.706238 858.336853
430.714722 2778.148926
430.723206 5900.140137
430.731659 8126.611328
430.740143 7178.496094
430.748627 4133.450195
430.757111 1524.068481
430.765564 439.810944
430.774048 43.99411
432.201813 349.556885
432.210327 1629.482544
432.218872 4377.450195
432.227386 8219.682617
432.235901 9737.775391
432.244415 6905.683594
432.25293 3608.290283
432.261475 1197.531738
432.269989 120.239433
433.722321 1146.839966
433.730896 2274.614258
433.739471 2848.925293
433.748016 2528.554932
433.756592 1571.601929
433.765167 189.054123
434.71756 217.761246
434.726135 1822.955322
434.734741 4091.114258
434.743347 6315.345215
434.751923 6821.595703
434.760529 4873.507812
434.769104 2418.98877
434.77771 309.469971
434.786316 4.35707
436.2341 221.741409
436.242737 481.397583
436.251373 632.413208
436.26001 587.537231
436.268646 395.029358
436.277283 12.187628
437.185974 156.603912
437.194641 1498.351318
437.203308 5985.776855
437.211975 14058.969727
437.220642 23175.755859
437.229309 25907.9375
437.237976 18506.683594
437.246643 9387.541992
437.25531 2702.153076
437.263977 219.619965
437.272644 2.260365
437.68042 991.44812
437.689117 5075.242676
437.697784 18702.943359
437.706482 37278.261719
437.715149 56163.828125
437.723846 54539.628906
437.732513 36080.351562
437.741211 17018.638672
437.749878 5029.428223
437.758575 1041.028442
437.767273 75.529465
438.193115 544.888611
438.201813 1589.712402
438.21051 2806.06665
438.219208 3416.763184
438.227936 2981.005371
438.236633 1867.027344
438.245331 818.563843
438.254028 75.695251
438.706726 432.697876
438.715454 2863.12085
438.724152 11083.888672
438.73288 22061.232422
438.741577 32553.916016
438.750305 29912.542969
438.759003 19021.931641
438.767731 7987.949219
438.776428 2162.638428
438.785156 211.929245
439.072906 222.682617
439.081635 665.750671
439.090332 1080.526978
439.09906 1145.550171
439.107788 826.359253
439.116516 397.563721
439.125244 47.969528
439.221252 571.415466
439.22998 1149.413574
439.238708 1482.258057
439.247437 1371.595459
439.256165 907.35498
439.264893 408.611328
439.273621 44.604729
439.719177 898.811646
439.727905 1888.89624
439.736664 2501.28833
439.745392 2475.153076
439.75415 1814.304688
439.762878 595.726929
439.771637 62.149342
441.218048 384.484802
441.226807 1206.573975
441.235596 1909.502686
441.244385 2135.92041
441.253174 1753.229004
441.261963 753.20459
441.270752 289.43988
441.279541 29.709755
442.230347 1183.971069
442.239166 3205.73999
442.247986 5583.003418
442.256805 6685.828125
442.265625 4763.046387
442.274445 2600.313721
442.283264 896.461548
442.292084 88.400169
442.724579 276.826569
442.733398 780.561707
442.742249 1326.999023
442.751068 1572.092529
442.759918 1345.705688
442.768738 809.067627
442.777588 96.097313
443.724365 350.275391
443.733246 813.196594
443.742096 1263.329834
443.750946 1449.130371
443.759827 1241.738525
443.768677 766.157043
443.777557 308.311523
443.786407 30.734043
444.238861 418.389648
444.247742 660.760925
444.256622 713.843994
444.265503 585.418579
444.274384 352.21701
444.283234 45.012432
444.700867 1270.057373
444.709778 3910.362549
444.718658 6805.493164
444.727539 8154.693848
444.73645 6178.054199
444.745331 3359.542725
444.754242 1007.407043
444.763123 95.517677
446.207428 316.29007
446.21637 774.652588
446.225311 1133.533203
446.234253 1150.290894
446.243195 837.93396
446.252136 103.084488
448.225128 279.054321
448.234131 1439.134399
448.243103 2466.333252
448.252106 2913.589844
448.261108 2529.21875
448.270111 1575.906128
448.279114 507.002899
448.288116 44.629585
448.711395 279.538666
448.720428 1234.000122
448.729431 4791.977539
448.738434 8798.058594
448.747467 11276.392578
448.75647 9164.960938
448.765472 5392.175781
448.774506 1527.836182
448.783508 135.529129
452.703339 134.515717
452.712494 703.015747
452.721619 3767.701172
452.730743 7655.268555
452.739899 10634.683594
452.749023 9288.087891
452.758148 5730.180176
452.767303 2140.858643
452.776428 441.055359
452.785553 43.871437
456.721039 311.659302
456.730316 810.754028
456.739563 1261.975708
456.74881 1342.315918
456.758057 1000.062805
456.767334 501.460388
456.776581 76.124649
457.221222 740.94574
457.230499 3255.662354
457.239777 10973.666016
457.249023 21056.847656
457.258301 30832.769531
457.267578 27116.158203
457.276855 17186.755859
457.286133 7089.202637
457.29538 1554.647339
457.304657 64.230934
457.712921 3.066861
457.722229 865.099548
457.731506 3706.616699
457.740784 8599.084961
457.750092 13497.015625
457.759369 14806.246094
457.768646 10728.374023
457.777924 5657.456055
457.787231 1902.828369
457.796509 166.317108
457.805786 6.305242
458.233337 271.596008
458.242645 1541.552856
458.251953 4051.415527
458.261261 6846.638184
458.270538 7706.074707
458.279846 5683.764648
458.289154 2870.300781
458.298462 983.237732
458.30777 138.021393
462.211945 208.452637
462.221375 1366.827393
462.230804 4345.626953
462.240234 8661.078125
462.249634 12616.746094
462.259064 11998.857422
462.268494 7896.83252
462.277924 3476.735596
462.287354 1057.009399
462.296783 204.95343
462.702301 145.547226
462.711731 1019.502197
462.721191 4019.497803
462.730621 9631.675781
462.740051 15922.248047
462.749512 17850.773438
462.758942 13521.405273
462.768372 7110.760254
462.777802 2239.254395
462.787262 132.226273
463.231262 478.277191
463.240692 785.346802
463.250153 877.713135
463.259613 722.52832
463.269073 425.489105
463.278534 42.980148
464.215973 163.364105
464.225464 551.704529
464.234955 1004.220459
464.244446 1203.677246
464.253906 1005.916809
464.263397 578.173035
464.272888 58.551632
466.242615 1116.508301
466.252167 2897.795654
466.261719 4110.932129
466.27124 3994.336182
466.280792 2667.673828
466.290344 930.366089
466.299896 56.344975
471.207581 455.969543
471.217255 2713.175293
471.226959 12373.792969
471.236664 41076.476562
471.246368 74686.828125
471.256073 102899.664062
471.265778 87243.484375
471.275452 53460.617188
471.285156 21452.431641
471.294861 6414.657715
471.304565 2030.382812
471.31427 841.44635
471.323975 153.669693
471.712311 346.959595
471.722015 1791.729492
471.73175 6754.150391
471.741455 14409.332031
471.75116 23423.449219
471.760895 25472.085938
471.770599 18476.5
471.780304 9835.797852
471.790039 3128.921387
471.799744 302.175232
471.809479 0.214743
472.217865 314.571228
472.2276 804.103516
472.237305 1244.055298
472.24704 1385.480347
472.256775 1158.378296
472.26651 711.096375
472.276245 75.968735
472.733978 590.33667
472.743713 1104.160278
472.753448 1322.296143
472.763214 1146.046265
472.772949 721.301147
472.782684 19.328039
479.720276 492.266571
479.730255 2889.59082
479.740204 12659.709961
479.750183 39760.910156
479.760132 69768.3125
479.770111 92279.523438
479.78006 75154.59375
479.790039 45469.386719
479.799988 16923.169922
479.809967 4425.012695
479.819946 725.560913
479.829895 67.30098
480.208832 1060.664551
480.218811 3007.035889
480.22879 11461.604492
480.23877 39926.996094
480.248749 82582.1875
480.258728 128945.289062
480.268707 133203.75
480.278687 91834.789062
480.288666 46993.367188
480.298645 15342.34082
480.308624 3968.246582
480.318604 1435.164551
480.328583 75.774956
480.728119 1076.120239
480.738098 5207.392578
480.748108 12483.834961
480.758087 20255.994141
480.768097 21388.304688
480.778076 14588.177734
480.788086 7392.727539
480.798065 1961.477417
480.808075 175.767014
484.72049 179.295395
484.730591 1230.619995
484.740723 3767.510742
484.750824 6635.652344
484.760956 8699.316406
484.771088 7275.322754
484.781189 4337.67041
484.791321 1324.083252
484.801453 71.688988
485.074829 510.645477
485.084961 952.653137
485.095093 1221.361206
485.105225 1117.112915
485.115356 688.429871
485.125488 146.443039
485.206543 322.489899
485.216675 2846.384277
485.226807 11794.592773
485.236969 29545.072266
485.247101 50295.019531
485.257233 59944.324219
485.267365 45638.003906
485.277496 25797.859375
485.287628 8879.969727
485.29776 2287.64502
485.307922 642.831604
485.318054 52.677502
485.459991 488.385132
485.470154 1565.158936
485.480286 2338.253906
485.490417 2468.654053
485.50058 1883.794922
485.510712 978.50647
485.520874 96.858841
485.713654 308.049896
485.723816 1589.708984
485.733948 4795.741211
485.74411 8282.618164
485.754272 10232.057617
485.764404 8112.745117
485.774567 4812.379395
485.784698 1809.292969
485.794861 243.416199
488.732056 472.620148
488.74231 2498.217773
488.752533 8769.585938
488.762787 17539.021484
488.773041 26085.005859
488.783295 24822.101562
488.793518 16347.618164
488.803772 7328.576172
488.814026 1816.381104
488.82428 121.302139
489.254944 690.002869
489.265228 1542.181885
489.275482 2110.014648
489.285736 2023.21167
489.29599 1380.702026
489.306274 647.947205
489.316528 67.70005
493.23996 917.02002
493.250366 2836.98999
493.260742 5813.647949
493.271118 8271.1875
493.281525 7924.156738
493.291901 5197.693848
493.302307 2237.562988
493.312683 732.215027
493.323059 62.930103
493.676514 54.022724
493.68689 4417.957031
493.697296 12396.854492
493.707703 27436.054688
493.718109 33886.628906
493.728516 90578.578125
493.738922 322589.96875
493.749329 800542.4375
493.759705 1343929.375
493.770111 1593878.375
493.780518 1194658.875
493.790924 677900.75
493.801331 237363.6875
493.811737 70183.632812
493.822144 33300.710938
493.83255 24026.404297
493.842957 9717.085938
493.853363 2633.57959
493.86377 206.252411
494.186523 1026.523438
494.19693 11188.411133
494.207367 18295.199219
494.217773 46706.152344
494.22821 168988.515625
494.238617 533699.6875
494.249023 984990.0
494.25946 1390116.375
494.269867 1245485.875
494.280304 796431.3125
494.29071 350080.5
494.301147 107408.304688
494.311554 29330.59375
494.32196 15393.616211
494.332397 4970.40918
494.342804 927.283203
494.353241 61.137428
494.68692 152.368317
494.697357 1551.406006
494.707764 2773.50293
494.718201 7424.596191
494.728638 26994.376953
494.739075 85652.96875
494.749512 155703.171875
494.759949 214223.78125
494.770386 183840.359375
494.780823 114395.242188
494.79126 46219.320312
494.801697 13255.111328
494.812134 3681.77417
494.822571 2098.222412
494.833008 882.874084
494.843445 84.955582
502.242096 519.719177
502.252777 1085.079468
502.263428 1535.821289
502.274109 1586.736084
502.28479 1180.450195
502.295471 590.741821
502.306122 56.466133
502.690643 2141.223389
502.701324 4080.616943
502.712006 10227.176758
502.722687 13481.513672
502.733398 38871.015625
502.74408 138790.703125
502.754761 327185.78125
502.765442 539789.625
502.776154 618141.4375
502.786835 451128.4375
502.797516 249628.734375
502.808228 85152.6875
502.818909 24596.007812
502.82959 11854.259766
502.840271 7824.390625
502.850983 2736.248535
502.861664 664.350708
502.872375 50.978909
502.904449 93.817596
502.915131 568.292969
502.925842 965.585938
502.936523 831.161377
502.947205 323.447906
502.957916 27.501022
503.171875 247.78215
503.182587 1408.566162
503.193298 3960.067383
503.20401 5097.598145
503.214691 4161.643066
503.225403 2771.810303
503.236115 8221.263672
503.246826 29459.398438
503.257507 65803.375
503.268219 105541.484375
503.278931 114070.289062
503.289642 78166.703125
503.300323 40444.734375
503.311035 12257.984375
503.321747 3053.374512
503.332458 1227.940796
503.34317 136.021271
542.625732 479.851013
542.637756 791.297424
542.649719 896.882324
542.661682 782.786133
542.673706 526.626892
542.685669 43.786465
601.269104 508.402344
601.283081 942.078796
601.297058 1073.477417
601.311035 805.761719
601.325012 368.483398
601.338989 10.756542
607.268982 945.669067
607.283203 2996.076904
607.297363 4908.431641
607.311584 5925.766602
607.325745 4572.298828
607.339966 2437.557861
607.354126 506.340332
619.234497 15.589126
619.249084 450.383453
619.263672 1932.765625
619.27832 5405.004883
619.292908 9551.375977
619.307556 11699.095703
619.322144 8636.445312
619.336731 4496.664062
619.351379 1284.587769
636.26355 10.256295
636.278809 262.15802
636.294006 1237.071533
636.309204 3111.573975
636.324463 5859.087402
636.339661 6416.760254
636.354919 4318.354004
636.370117 1999.060547
636.385315 645.806885
671.441711 10.51776
671.458252 630.413391
671.474731 1087.942505
671.491211 1193.105713
671.507751 860.635925
671.524231 375.732788
689.293457 43.051994
689.310669 511.112122
689.32782 760.289673
689.344971 846.948669
689.362122 720.784424
689.379272 436.982361
701.287781 20.729448
701.30542 241.273911
701.322998 670.061218
701.340637 1159.583496
701.358215 1369.223877
701.375854 1139.722412
701.393494 656.766479
701.411072 237.595764
702.292603 64.768204
702.310242 716.735291
702.327881 1291.009521
702.345581 1538.13562
702.36322 1267.641602
702.380859 669.738831
706.297913 22.71489
706.315735 327.767151
706.333496 1496.44812
706.351318 3222.094971
706.36908 4610.273438
706.386902 4309.520996
706.404724 2606.874512
706.422485 986.171692
706.440308 229.540115
712.262268 35.219681
712.280273 393.338196
712.29834 933.554321
712.316345 1430.844727
712.334351 1519.212646
712.352417 1122.537109
712.370422 541.251892
712.388428 130.043777
717.335999 32.431416
717.354187 343.027405
717.372437 637.786194
717.390625 786.235046
717.408875 674.937378
717.427063 365.385315
718.284241 23.758858
718.30249 270.360718
718.32074 1676.837769
718.338989 4784.756348
718.357239 8554.9375
718.375488 10436.623047
718.393738 8211.345703
718.411987 4250.819824
718.430298 1397.707886
718.448547 234.261124
729.288025 17.121727
729.306702 205.561264
729.325378 596.364502
729.344055 951.585144
729.362732 997.421204
729.381409 697.833069
729.400085 286.113434
730.260071 38.20129
730.278809 526.143433
730.297485 1976.372437
730.316223 4139.203125
730.3349 5686.812012
730.353638 4845.76123
730.372375 2701.628662
730.391052 698.586121
735.300781 9.737629
735.319641 316.339355
735.338562 2939.814941
735.357483 9489.869141
735.376404 18987.591797
735.395264 27432.394531
735.414185 25867.751953
735.433105 16087.504883
735.452026 7379.338379
735.470947 1664.342896
735.489868 309.668365
746.33197 50.273876
746.351318 511.094788
746.370667 720.699524
746.389954 760.816528
746.409302 618.140686
746.42865 375.115936
747.260803 48.431042
747.280212 653.920776
747.299561 3480.438965
747.318909 11658.373047
747.338318 24733.341797
747.357666 36727.761719
747.377075 36675.960938
747.396423 23767.035156
747.415771 11447.104492
747.435181 2812.242432
747.454529 253.099701
748.307861 76.082253
748.327271 517.330872
748.34668 739.567627
748.366089 747.640747
748.385498 538.649597
748.404907 242.073227
758.266235 59.803104
758.286072 464.750763
758.305847 927.35321
758.325623 1262.395142
758.345459 1237.312988
758.365234 845.807922
758.385071 336.232178
768.364197 60.303898
768.384399 426.567078
768.404602 687.972351
768.424744 782.963013
768.444946 644.824036
768.465149 338.612701
774.315735 106.071487
774.336182 795.070251
774.356567 1278.304443
774.377014 1418.39917
774.397461 1091.673096
774.417908 523.071472
774.438293 3.697775
775.256348 40.81937
775.276855 776.454224
775.297302 3543.364746
775.31781 11044.615234
775.338257 20259.804688
775.358704 27855.550781
775.379211 23893.816406
775.399658 14036.213867
775.420166 5281.978516
775.440613 883.061829
776.30127 58.006115
776.321777 448.956329
776.342285 697.868469
776.362793 797.37146
776.383301 682.302002
776.403809 398.756012
779.201111 41.974113
779.221741 315.285461
779.242371 605.859009
779.263 768.465637
779.28363 704.679138
779.30426 425.627808
786.365417 137.526154
786.386353 1079.217041
786.407227 2162.440186
786.428162 3001.970215
786.449036 3004.147705
786.469971 2131.205322
786.490906 958.246948
788.313599 76.028053
788.334534 551.277039
788.35553 836.592163
788.376526 985.393494
788.397522 886.635193
788.418518 536.730347
791.302185 103.767204
791.323242 984.169067
791.34436 3326.354492
791.365479 6796.384277
791.386597 9049.564453
791.407715 7657.054199
791.428833 4188.688965
791.449951 1143.737549
791.471069 240.795975
801.359192 79.21003
801.380676 596.048157
801.402222 1014.328125
801.423706 1257.869019
801.44519 1211.7677
801.466736 906.42334
801.48822 463.985901
803.384949 55.735073
803.406555 443.370575
803.428101 1070.911011
803.449707 2040.567017
803.471313 2215.338135
803.49292 1114.969971
803.514526 551.537048
803.536072 151.87999
813.365906 75.06189
813.387878 566.866211
813.409912 1189.636108
813.431885 2235.96167
813.453857 2635.025635
813.475891 1998.255249
813.497864 838.529053
813.519897 332.007263
814.356567 47.729111
814.378601 389.293274
814.400635 974.928345
814.422668 1872.333862
814.444702 2294.556396
814.466736 1238.228638
814.488831 597.223999
814.510864 132.287964
818.381836 62.235607
818.404053 456.974274
818.42627 772.612366
818.448486 852.934692
818.470642 636.097229
818.492859 286.046051
829.323425 166.222488
829.346069 1404.106079
829.368713 3548.313965
829.391357 6489.878418
829.414001 7315.759766
829.436646 5248.852051
829.459351 2568.318604
829.481995 835.974426
830.366089 51.949772
830.388794 403.776703
830.411499 579.242004
830.434204 620.032104
830.456848 512.795349
830.479553 297.438995
831.34259 111.235954
831.365295 1474.463745
831.388 5365.024414
831.410767 16786.798828
831.433472 31565.349609
831.456238 44221.3125
831.478943 39150.4375
831.501709 23530.972656
831.524414 9725.783203
831.54718 2336.067383
831.569885 572.702637
832.366272 40.506405
832.389038 530.651794
832.411804 2189.13916
832.434631 4183.425781
832.457397 5795.999023
832.480164 4762.481934
832.50293 2484.034668
832.525696 696.025391
846.291931 58.485092
846.315247 551.940918
846.338562 2493.175781
846.361938 9286.996094
846.385315 26292.460938
846.40863 46655.757812
846.432007 61395.332031
846.455322 52000.503906
846.478699 30740.53125
846.502014 12378.016602
846.525391 3096.310547
846.548767 993.657104
847.343384 49.416023
847.36676 455.675049
847.390137 1597.852905
847.413513 2909.419678
847.436951 3622.04248
847.460327 3203.141602
847.483704 1950.750854
847.50708 502.049255
848.373352 80.436012
848.39679 1340.016846
848.420227 5050.109863
848.443665 13430.316406
848.467102 22421.726562
848.49054 27968.232422
848.513977 20976.888672
848.537415 11577.18457
848.560852 3507.220215
848.58429 222.834976
849.428711 94.167091
849.452209 562.713318
849.475647 959.158813
849.499146 1075.559326
849.522644 827.186096
849.546082 394.484375
857.323669 85.417023
857.347473 493.140564
857.371277 829.310913
857.395081 992.983887
857.418884 850.797363
857.442688 450.740967
859.350403 52.181801
859.374329 424.188782
859.398193 1500.957275
859.422058 3552.884766
859.445984 5278.624023
859.469849 5278.48877
859.493774 3625.680664
859.517639 1616.696167
859.541565 215.807373
860.354553 120.902672
860.378479 1058.033081
860.402405 3383.575684
860.426331 6017.285645
860.450256 7598.253418
860.474182 6208.130859
860.498108 3520.004395
860.522034 1186.824097
860.545959 180.448288
874.280151 75.025398
874.304688 792.450195
874.329224 2870.210449
874.353699 10936.875977
874.378235 30769.9375
874.40271 54120.738281
874.427246 71183.789062
874.451782 59782.003906
874.476318 35151.632812
874.500793 13828.09668
874.52533 3353.412598
874.549866 718.313538
875.335144 166.435455
875.35968 1334.618042
875.384216 3922.678467
875.408813 6965.355469
875.43335 8705.121094
875.457947 6849.561523
875.482483 3713.689697
875.507019 1186.297485
876.342773 79.712486
876.367371 1042.513916
876.391968 4261.316406
876.416565 14003.368164
876.441223 31568.947266
876.46582 49041.71875
876.490417 53605.644531
876.515015 36842.582031
876.539612 18850.144531
876.564209 4900.691895
876.588806 710.059387
877.401489 235.834778
877.426147 1491.044434
877.450806 3046.686279
877.475403 4390.279297
877.500061 4220.885742
877.524719 2555.930664
877.549377 896.761475
877.574036 129.62529
886.365784 118.924553
886.390808 813.493286
886.415833 2000.587402
886.440857 3468.011475
886.465881 3965.748535
886.490906 2952.120361
886.51593 1378.196167
886.540955 240.282852
888.320679 14.341233
888.345764 533.400635
888.370911 3668.427002
888.395996 10706.672852
888.421082 17716.630859
888.446228 20914.894531
888.471313 15635.884766
888.49646 8313.864258
888.521545 2438.790283
888.546692 461.097046
891.391357 95.633011
891.416626 581.167175
891.441833 993.341309
891.467102 1104.261719
891.49231 801.608887
891.517578 305.980621
904.350281 162.280579
904.376038 1358.415283
904.401855 6159.996094
904.427612 15916.898438
904.45343 26432.607422
904.479248 31207.935547
904.505005 23631.109375
904.530823 12650.728516
904.55658 4260.258301
904.582397 845.520508
905.382629 51.305706
905.408447 336.770294
905.434326 733.10968
905.460144 1067.72876
905.485962 1131.167603
905.511841 901.735779
905.537659 486.925232
987.44458 112.443687
987.473999 550.796021
987.503418 744.093933
987.532837 747.845093
987.562256 541.721191
987.591736 239.71843
END IONS
