BEGIN IONS
PEPMASS=413.288
CHARGE=1
MSLEVEL=2
SOURCE_INSTRUMENT=LC-ESI-qTof
FILENAME=f.amcaraballor/20150613_CocultureEndophytes_01_All_mzXML/A1_Green_P1-F-4_01_23326.mzXML;
SEQ=*..*
IONMODE=Positive
ORGANISM=GNPS-LIBRARY
NAME=Leupeptin analogue LVR (or VLR) M+H
PI=Pupo MT
DATACOLLECTOR=amcaraballor
SMILES=O=C(NC(C(NC(C=O)CCC/N=C(N)\N)=O)C(C)C)C(NC(C)=O)CC(C)C
INCHI=
INCHIAUX=
PUBMED=
SUBMITUSER=amcaraballor
TAGS=
LIBRARYQUALITY=3
SPECTRUMID=CCMSLIB00000840427
SCANS=237
142.096008 856.0
153.139435 628.0
181.132721 644.0
198.157654 452.0
223.158783 876.0
240.182175 784.0
241.167786 780.0
255.170486 968.0
281.101227 472.0
335.242432 404.0
353.256104 4400.0
354.257477 804.0
368.263367 432.0
377.26239 368.0
395.277466 14300.0
396.27948 3936.0
397.280212 564.0
413.28772 14396.0
414.293213 3556.0
415.292206 732.0
END IONS
