BEGIN IONS
PEPMASS=552.31
CHARGE=2
MSLEVEL=2
SOURCE_INSTRUMENT=LC-ESI-Orbitrap
FILENAME=f.Rolandoo1/20190519 Moroidin paper GNPS/[Gln1-Val9]-moroidin.mzXML;
SEQ=*..*
IONMODE=Positive
ORGANISM=GNPS-LIBRARY
NAME=[Gln1-Val9]-moroidin M+2H
PI=Jing-Ke Weng
DATACOLLECTOR=Roland Kersten
SMILES=NC(C(NC(C(NC(CC(C)C)C(NC(C(C)C)C(NC(C(NC(C(NCC(NC(CC1=CN2C=N1)C(NC(C(C)C)C(O)=O)=O)=O)=O)CCCNC(N)=N)=O)CC3=C2NC4=C3C=CC5=C4)=O)=O)=O)C5C(C)C)=O)CCC(N)=O
INCHI=
INCHIAUX=
PUBMED=
SUBMITUSER=Rolandoo1
TAGS=
LIBRARYQUALITY=3
SPECTRUMID=CCMSLIB00005435916
SCANS=1
78.48465 214.968185
78.485313 390.307373
78.48597 454.149902
78.486633 404.698059
78.487289 271.990997
78.487946 51.135483
83.053955 105.575134
83.054672 1939.081055
83.055389 2415.993408
83.056107 4625.164551
83.056824 9049.716797
83.057541 20934.265625
83.058258 54056.988281
83.058975 103375.6875
83.059692 147981.140625
83.060417 144354.84375
83.061134 96658.359375
83.061852 43975.558594
83.062569 10232.03125
83.063286 897.415894
84.037956 42.633381
84.038689 404.693024
84.039421 2882.808594
84.040146 7233.468262
84.040878 13451.535156
84.041611 31041.75
84.042343 76351.835938
84.043068 142806.171875
84.0438 197215.5625
84.044533 186297.265625
84.045265 120258.585938
84.045998 52758.890625
84.046722 10675.606445
84.047455 738.033447
84.06134 664.853821
84.062073 1454.685425
84.062798 2120.481445
84.06353 2217.686279
84.064262 1643.071289
84.064995 813.628174
84.06572 156.99118
85.044762 157.313354
85.045502 567.887817
85.046249 1113.511719
85.046989 1453.480591
85.047737 1322.067627
85.048477 813.513245
85.049217 307.800293
85.049965 75.729027
86.089447 41.251305
86.09021 753.06781
86.090965 3255.997803
86.091721 7200.727539
86.092484 14032.822266
86.093239 29559.169922
86.093994 76540.851562
86.094749 157960.9375
86.095512 244430.515625
86.096268 266462.09375
86.097023 195288.484375
86.097786 100286.28125
86.098541 29249.322266
86.099297 3163.534668
86.100052 77.039055
87.096451 509.452148
87.097221 1539.117798
87.097992 3508.993164
87.098763 4993.833496
87.099533 4661.419922
87.100304 2983.951904
87.101074 1204.028687
87.101845 138.501007
88.68869 230.357208
88.689484 515.846008
88.690277 776.771851
88.691063 1202.512085
88.691856 1477.922485
88.69265 1451.266602
88.693443 1058.999756
88.694237 747.313354
88.695023 413.824219
88.695816 460.349121
88.696609 604.828491
88.697403 726.281799
88.698196 681.890076
88.69899 439.908325
88.699776 50.548054
88.756836 159.850601
88.757629 387.868347
88.758423 580.150208
88.759216 630.940186
88.76001 509.324432
88.760803 296.544952
88.761597 63.100094
89.204117 313.765289
89.20491 594.881042
89.205711 749.251587
89.206512 695.123169
89.207306 462.942841
89.208107 58.198242
89.476349 161.344406
89.47715 341.832367
89.477959 422.507019
89.47876 391.517487
89.479561 271.816437
89.480362 70.196449
92.380524 247.246231
92.381371 582.870422
92.38221 1046.434082
92.383049 805.060242
92.383896 184.011993
92.3881 57.200909
92.388947 682.322083
92.389786 1283.108887
92.390633 888.959106
92.391472 293.267334
92.392311 47.862717
101.062599 21.657698
101.06356 489.944031
101.064522 2290.04834
101.065483 5152.309082
101.066452 10320.422852
101.067413 26293.441406
101.068375 62373.015625
101.069344 111472.671875
101.070305 146243.421875
101.071266 129661.992188
101.072227 78586.546875
101.073196 32325.339844
101.074158 5703.407715
101.075119 245.028839
102.051445 256.903198
102.052429 576.244934
102.053406 864.467651
102.054382 977.52771
102.055359 822.971375
102.056335 492.838165
102.057312 98.200699
102.070999 235.606857
102.071983 610.059143
102.07296 901.053406
102.073936 891.981079
102.074913 576.958374
102.07589 137.248779
110.067657 230.061234
110.068756 638.098877
110.069847 1002.636841
110.070946 1083.860229
110.072037 834.7724
110.073135 438.890289
110.074226 80.006119
110.807159 327.388672
110.808266 672.903076
110.809372 799.86969
110.810478 651.365112
110.811584 339.789124
110.812691 67.92804
111.051987 398.434631
111.053101 749.878479
111.054207 889.787415
111.055321 779.912598
111.056427 493.306274
111.057541 94.691452
112.082207 606.69751
112.083328 2524.613037
112.084457 5691.988281
112.085579 8687.525391
112.086708 8431.044922
112.08783 5506.979004
112.088959 2442.202393
112.09008 692.180725
112.091209 93.96035
113.066376 401.147339
113.06752 1207.884644
113.068657 2603.793457
113.069801 3662.578613
113.070938 2745.951416
113.072083 1668.852295
113.073219 757.238159
113.074356 100.390343
118.076454 286.386169
118.077675 1083.687378
118.078888 843.41333
118.080109 1319.032593
118.081322 3869.874268
118.082535 11478.857422
118.083755 23446.761719
118.084969 35058.515625
118.086189 35998.195312
118.087402 25144.943359
118.088623 12073.841797
118.089836 3182.739014
118.091057 323.222656
118.09227 29.073669
127.281784 228.0466
127.283142 478.173767
127.284508 576.109802
127.285866 496.571198
127.287231 291.801758
127.288589 76.234596
128.069702 37.13826
128.071075 311.200806
128.072449 877.030701
128.073822 1580.44104
128.075195 3569.282227
128.076569 9668.564453
128.077942 26461.269531
128.079315 50932.351562
128.080688 71656.765625
128.082062 68741.9375
128.08345 45663.265625
128.084824 20761.5625
128.086197 5153.04541
128.08757 707.263916
128.088943 90.495331
129.059372 560.295166
129.06076 2018.892456
129.062149 6283.936523
129.063538 11670.71582
129.064926 15425.148438
129.066315 13064.061523
129.067703 7865.157715
129.069107 2807.642578
129.070496 556.53241
129.071884 54.173958
129.395065 349.016663
129.396454 671.61908
129.397858 794.725403
129.399246 701.441589
129.40065 457.090057
129.402039 108.164299
134.775574 160.697266
134.777054 404.070831
134.778534 594.832458
134.780029 620.295837
134.781509 455.59375
134.78299 137.40155
135.881683 288.578308
135.883179 598.211792
135.884689 767.71283
135.886185 836.776489
135.887695 799.60498
135.889191 666.860413
135.890686 672.682373
135.892197 591.691162
135.893692 381.734924
135.895203 107.378601
136.873825 124.858307
136.875351 346.580292
136.876862 588.541016
136.878387 748.248657
136.879898 713.622253
136.881424 491.788605
136.882935 141.40918
136.996902 268.57785
136.998413 557.479492
136.999939 651.743042
137.001465 1161.447876
137.002975 1771.372681
137.004501 2224.311523
137.006027 2308.268311
137.007538 1936.621094
137.009064 1117.296265
137.01059 695.479431
137.0121 412.164795
137.013626 118.545456
137.248108 134.357452
137.249634 323.417267
137.25116 444.070587
137.252686 447.795685
137.254211 333.939972
137.255737 106.171104
139.092987 310.129333
139.094543 788.752258
139.0961 1172.309692
139.097656 1195.436401
139.099213 836.181885
139.100769 368.072754
139.102325 67.910286
146.735931 173.459015
146.737625 382.489136
146.739304 486.748566
146.740997 444.618958
146.742676 283.218811
146.74437 81.165154
152.07692 305.22403
152.07869 760.671997
152.080475 1129.861328
152.08226 1173.537109
152.08403 859.138428
152.085815 422.900055
152.087585 76.942398
159.56398 191.608521
159.565903 574.121216
159.56781 1283.336182
159.569717 1761.585938
159.571625 1800.639282
159.573547 1437.972778
159.575455 831.292725
159.577362 351.061584
159.579269 55.515781
159.619431 207.494812
159.621338 506.786377
159.623245 1109.699463
159.625168 1786.835449
159.627075 2808.328125
159.628983 4367.878906
159.630905 4151.961426
159.632812 3106.523926
159.63472 2293.857178
159.636642 1588.74939
159.63855 1104.153809
159.640457 589.852234
159.64238 110.17437
159.678711 270.472351
159.680634 596.258789
159.682541 788.643188
159.684464 931.560486
159.686371 931.182739
159.688278 769.801575
159.690201 561.827515
159.692108 365.893158
159.694031 78.029602
163.028961 311.30072
163.03093 1849.307983
163.032898 7006.105957
163.034882 15433.738281
163.03685 24704.261719
163.038818 26890.037109
163.040802 19587.572266
163.04277 10201.454102
163.044754 3177.668701
163.046722 341.674194
163.048691 2.968232
164.03627 433.68808
164.038269 1501.741455
164.040253 2514.890381
164.042252 2824.920166
164.04425 2222.594971
164.046234 1181.880005
164.048233 266.091217
175.139984 898.592468
175.142181 2552.674316
175.144379 5040.371094
175.146576 6970.689941
175.148773 6484.756348
175.15097 4094.983887
175.153168 1761.219482
175.155365 360.097595
176.046768 220.135788
176.048981 534.821716
176.051193 728.938538
176.053406 658.232239
176.055618 384.831604
176.057846 141.262009
185.151672 232.816406
185.154068 1044.193481
185.156464 3511.747314
185.158844 9380.205078
185.16124 17412.443359
185.16362 23238.162109
185.166016 20336.107422
185.168396 12332.979492
185.170792 4915.253418
185.173187 843.554688
185.175568 39.422028
213.146698 221.818634
213.149643 1151.890015
213.152603 2970.982178
213.155548 4834.922852
213.158493 5458.604004
213.161453 3863.209961
213.164398 1974.744507
213.167343 309.926514
213.170303 14.882401
215.457977 477.734406
215.460968 725.285156
215.463974 815.400452
215.466965 693.778992
215.469971 429.627045
215.472961 33.699928
220.84993 342.578888
220.853043 659.075134
220.856155 780.17804
220.859268 633.326172
220.862381 349.870972
220.865494 29.746256
225.095886 296.936218
225.099091 594.796204
225.10228 730.187744
225.105484 644.856506
225.108688 418.526825
225.111893 29.693544
226.272491 331.254578
226.275711 619.553833
226.278946 768.114563
226.282166 662.514709
226.2854 368.720795
226.28862 38.068615
242.110611 10.226184
242.114182 537.130188
242.117752 1153.891724
242.121323 1605.982666
242.124893 1541.999634
242.128464 1051.114624
242.132034 498.811157
242.135605 1.943223
242.611465 567.252991
242.615051 747.722961
242.618637 811.952515
242.622223 683.252197
242.625809 396.763428
242.629395 2.257503
255.05632 314.473816
255.060181 556.517944
255.064041 675.793823
255.067902 601.088379
255.071762 391.859406
255.075623 176.259537
255.079498 9.963052
265.579346 14.857878
265.583466 428.539001
265.587555 628.357056
265.591675 711.065552
265.595764 587.948792
265.599884 315.475739
267.99646 205.416748
268.000641 385.784882
268.004791 469.822601
268.008942 398.772034
268.013123 222.637634
268.017273 2.409882
270.961975 17.0471
270.966187 318.712799
270.970428 626.335815
270.97467 791.110535
270.978882 670.106934
270.983124 346.518738
271.4617 29.958368
271.465942 524.88501
271.470184 748.207092
271.474426 767.379761
271.478668 599.794128
271.48291 335.36087
273.046234 74.283752
273.050507 1303.085449
273.05481 2419.335205
273.059082 2901.440674
273.063354 2437.156494
273.067627 1378.085815
273.071899 229.515579
283.040985 34.685688
283.045471 879.117859
283.049988 3179.863037
283.054504 5330.633301
283.059021 6088.277344
283.063538 4458.972656
283.068054 2210.917725
283.072571 476.528046
294.383331 48.07362
294.388123 509.236938
294.392914 758.995483
294.397705 828.551819
294.402496 675.422668
294.407288 379.179962
297.059479 23.010962
297.064331 346.468903
297.069183 586.749146
297.074036 678.864197
297.078888 556.959229
297.083771 301.053955
297.881622 55.987186
297.886505 529.766479
297.891388 768.085205
297.896271 799.984802
297.901123 631.047119
297.906006 346.720703
298.589752 21.93384
298.594635 310.966553
298.599548 566.956787
298.604431 703.542542
298.609314 615.46698
298.614227 354.183502
301.050995 47.909096
301.055969 779.392456
301.060913 2362.447998
301.065857 4878.317871
301.070801 5560.96875
301.075775 3901.851318
301.080719 1764.651978
301.085663 532.380798
308.15799 110.770279
308.163116 874.851013
308.168243 2001.089844
308.17337 3002.782227
308.178497 3179.32959
308.183624 2417.097412
308.188782 1246.056396
308.193909 286.456451
314.158325 102.706184
314.163605 673.11676
314.168884 1518.229736
314.174164 2214.629883
314.179443 2452.664551
314.184723 2029.490479
314.190002 1164.16748
314.195282 378.365601
322.148132 28.278343
322.153625 273.468964
322.159088 1383.562012
322.164581 4145.545898
322.170074 7019.779297
322.175537 8213.257812
322.18103 6271.240234
322.186523 3475.608643
322.191986 1041.878784
322.197479 140.351364
322.664124 47.258297
322.669617 421.77829
322.67511 1475.563232
322.680603 2585.196533
322.686096 3726.277832
322.691589 4805.803711
322.697083 3578.631348
322.702576 1797.564453
322.708099 695.028442
325.045868 18.535986
325.051422 375.002991
325.056976 1667.242798
325.062561 3001.438232
325.068115 3655.1604
325.073669 3153.806152
325.079224 1912.330444
325.084778 723.348328
328.157562 220.277161
328.163208 1333.582642
328.168823 2788.377686
328.174469 4140.050293
328.180115 3350.862061
328.18573 1810.510864
328.191376 636.395508
328.654144 55.548126
328.65979 343.807007
328.665436 780.639282
328.671112 1181.456909
328.676758 1216.602539
328.682404 861.451172
328.688049 369.744232
329.679108 108.124893
329.684784 544.370667
329.69046 792.098389
329.696136 820.891846
329.701813 609.127319
329.707489 267.082001
330.663239 51.5555
330.668915 782.690369
330.674622 2720.132568
330.680328 5521.67041
330.686035 8293.448242
330.691742 7571.255859
330.697449 4338.956543
330.703125 1944.33728
330.708832 487.990204
331.171234 95.831421
331.176941 637.186829
331.182648 1315.096436
331.188385 1736.662598
331.194092 1677.456055
331.199799 1102.552856
331.205505 276.77005
334.499084 67.370285
334.504883 411.384338
334.510681 809.646179
334.516479 1056.136108
334.522278 1025.729126
334.528076 942.863464
334.533875 783.206299
334.539703 664.776062
334.545502 674.221741
334.5513 515.65686
334.557098 269.972015
336.661621 173.531464
336.66748 1511.025146
336.67334 4817.001465
336.679199 9968.09668
336.685059 13766.914062
336.690918 12960.77832
336.696777 8527.397461
336.702637 3856.418701
336.708496 1045.254883
336.714355 175.696091
337.160034 86.798195
337.165894 487.615601
337.171783 1312.626221
337.177643 2976.032471
337.183533 4144.394043
337.189392 3854.229492
337.195251 2190.797363
337.201141 1088.54895
337.207001 212.325089
343.059601 154.951218
343.065613 942.269409
343.071625 2127.181885
343.077667 2825.288574
343.083679 2618.293945
343.089722 1687.671265
343.095734 655.588928
344.67392 126.023361
344.679993 647.50061
344.686066 898.940125
344.692139 866.79541
344.698181 569.323242
344.704254 208.186813
345.171997 85.193359
345.17807 786.632324
345.184174 3318.885742
345.190247 8369.189453
345.19632 13089.577148
345.202393 15193.613281
345.208496 11558.958984
345.214569 6284.691895
345.220642 1964.876099
345.226746 333.314911
345.68335 117.745018
345.689423 591.962585
345.695526 1043.897095
345.70163 1274.007812
345.707733 1151.856445
345.713806 784.351257
345.71991 341.739258
349.678864 100.116905
349.685089 469.360138
349.691284 769.496216
349.697479 883.03363
349.703674 705.608459
349.709869 329.150482
350.181641 86.375
350.187836 439.499939
350.194061 835.973755
350.200287 1059.306519
350.206482 961.338745
350.212708 640.382019
350.218903 275.411652
351.152954 82.984741
351.15921 628.411621
351.165436 2217.997559
351.171692 5370.028809
351.177917 8506.28418
351.184174 9745.232422
351.190399 7470.248535
351.196655 4115.510742
351.202881 1411.002441
351.209137 455.167358
351.215363 724.919312
351.221619 799.951111
351.227844 593.84198
351.2341 261.221008
353.668396 130.83075
353.674713 621.339172
353.681 1110.962402
353.687317 1406.153564
353.693634 1332.768677
353.699921 950.65094
353.706238 425.905853
354.167145 111.309441
354.173462 479.035187
354.179779 716.859802
354.186096 801.472656
354.192413 668.045898
354.198761 349.878204
355.047241 46.875423
355.053589 272.669128
355.059937 487.680023
355.066284 571.436401
355.072632 447.857605
355.078979 201.351868
356.191833 208.841248
356.198212 938.414551
356.20459 1433.39502
356.210968 1549.237061
356.217346 1186.000977
356.223724 554.457764
356.702332 66.702049
356.70871 370.257416
356.715088 619.632263
356.721497 703.234009
356.727875 547.766113
356.734253 249.278748
358.394714 55.306274
358.401154 317.35257
358.407593 514.232239
358.414032 542.35022
358.420471 380.09845
358.42688 151.76976
359.174438 245.642044
359.180878 1237.544067
359.187347 2582.106445
359.193787 3989.366699
359.200256 4341.597656
359.206696 3000.227051
359.213165 1392.880493
359.219635 579.156555
359.226074 212.80217
359.671936 109.750824
359.678406 478.284149
359.684875 766.276184
359.691345 839.455078
359.697815 673.275818
359.704285 334.212463
362.18811 123.222168
362.194641 540.944092
362.201202 793.581787
362.207733 878.110535
362.214264 720.929565
362.220795 364.931183
363.663177 145.172256
363.669739 766.866821
363.676331 2256.017578
363.682892 5261.116211
363.689484 7915.069336
363.696045 8713.450195
363.702637 6484.4375
363.709198 3354.656982
363.71579 894.39624
363.722351 183.342316
364.176636 103.125015
364.183228 476.456604
364.189789 947.500977
364.196381 1406.530029
364.202972 1566.710571
364.209564 1308.580078
364.216156 813.14978
364.222748 324.001831
364.697784 184.278839
364.704376 750.75293
364.710968 1034.463989
364.71759 1043.725952
364.724182 762.735535
364.730804 328.124207
365.15387 169.47699
365.160492 1076.710693
365.167084 2880.591797
365.173706 5018.172363
365.180328 6237.039551
365.186951 5212.64209
365.193573 2982.194824
365.200195 1042.877319
365.206787 178.605911
368.182983 157.512863
368.189667 805.686584
368.196381 1634.460938
368.203064 1914.213135
368.209778 1665.654297
368.216492 1043.243164
368.223175 360.518829
370.694397 444.001831
370.701172 2351.701904
370.707916 5589.110352
370.714691 9320.09668
370.721466 11526.507812
370.728241 9500.754883
370.735016 5492.034668
370.74176 1837.286499
370.748535 160.494431
372.187714 211.158554
372.194519 973.588379
372.201355 1724.738525
372.20816 2205.110107
372.214966 2035.752197
372.221771 1216.144409
372.228577 284.105835
373.676392 166.43219
373.683258 729.98822
373.690094 1094.737549
373.69693 1098.151123
373.703796 764.20166
373.710632 337.393463
374.02594 64.920052
374.032806 331.259338
374.039673 499.567871
374.046539 520.652161
374.053375 378.979523
374.060242 164.439728
378.168488 104.546722
378.175476 848.685425
378.182434 2842.413574
378.189423 8244.536133
378.196381 17020.058594
378.203369 25003.482422
378.210358 25316.507812
378.217316 16709.376953
378.224304 8149.983887
378.231262 1912.694336
378.238251 224.858368
378.685028 211.207947
378.692017 1183.085083
378.699005 2738.53418
378.705994 3907.646484
378.712982 4048.624023
378.719971 2880.156738
378.726959 1465.311646
378.733948 361.717041
379.195648 139.227005
379.202637 886.08136
379.209656 2762.402832
379.216644 7138.818848
379.223633 13182.545898
379.230652 18362.21875
379.23764 17514.337891
379.244659 11329.007812
379.251648 5252.589844
379.258667 1171.987183
379.707275 135.194077
379.714294 869.737305
379.721313 2270.687744
379.728302 3490.226318
379.735321 3660.143066
379.74234 2370.349609
379.749359 1101.315918
379.756378 362.067657
383.168457 110.776321
383.175568 631.188843
383.182678 1813.767822
383.189789 3464.250732
383.196899 4627.365234
383.20401 4445.905762
383.211121 2921.995605
383.218231 1218.537842
383.225342 272.608765
383.673889 297.504272
383.68103 1207.500122
383.688141 1862.256226
383.695282 1988.732788
383.702393 1429.302612
383.709534 580.664062
384.680634 79.690979
384.687775 566.339661
384.694946 1719.368408
384.702087 4415.005859
384.709259 7833.869141
384.7164 10576.058594
384.723572 8941.865234
384.730713 5074.961914
384.737885 1913.102539
384.745026 433.908234
385.189056 89.669441
385.196228 487.541962
385.2034 1193.985229
385.210571 2221.337891
385.217743 2864.748047
385.224915 1830.757812
385.232086 898.451294
385.239258 346.911865
386.698822 309.178528
386.706024 1259.354126
386.713226 2094.391357
386.720459 2437.461182
386.727661 2083.63501
386.734863 1267.850098
386.742065 439.07608
387.724731 401.249725
387.731964 1563.552124
387.739197 2454.610596
387.746429 2832.035156
387.753693 2390.286865
387.760925 1374.865723
387.768158 368.49057
388.224701 129.781113
388.231964 502.766205
388.239227 787.325928
388.24646 818.009399
388.253723 588.738831
388.260986 266.939636
391.678284 32.795372
391.685638 566.25824
391.692993 2394.816895
391.700348 5487.925293
391.707703 8748.837891
391.715057 9503.608398
391.722412 6253.532227
391.729736 2888.174561
391.737091 581.22345
392.163849 87.431511
392.171204 765.262695
392.178589 3862.419189
392.185944 12491.724609
392.193298 26129.3125
392.200684 37822.996094
392.208038 38307.34375
392.215393 25909.957031
392.222778 12764.560547
392.230133 3742.743896
392.237488 796.617432
392.672455 250.855865
392.67981 765.080505
392.687195 2754.619385
392.69458 6092.970215
392.701965 8883.762695
392.709351 9058.330078
392.716705 6475.387207
392.724091 3315.812012
392.731476 928.849426
392.738861 132.16539
393.182037 91.651917
393.189423 556.403198
393.196808 1585.980957
393.204224 5411.680176
393.211609 16006.020508
393.218994 32474.074219
393.226379 46580.210938
393.233795 46486.054688
393.24118 30797.722656
393.248566 14993.745117
393.255951 3926.302002
393.263367 663.307861
393.692596 157.144882
393.700012 884.227173
393.707428 2502.08374
393.714844 6903.486816
393.722229 13156.128906
393.729645 18335.8125
393.737061 16505.900391
393.744476 9903.114258
393.751862 4345.432617
393.759277 982.257019
398.204773 124.482452
398.212311 484.431793
398.219849 801.222778
398.227386 932.107544
398.234924 774.427246
398.242462 361.1362
398.694977 155.656235
398.702515 619.811951
398.710083 1061.585815
398.717621 1257.625488
398.725159 1058.1427
398.732727 623.62915
398.740265 216.652374
399.201202 309.34787
399.208771 1154.969604
399.216339 1745.173584
399.223907 2028.838257
399.231476 1800.863159
399.239014 1101.602051
399.246582 317.034821
400.193787 132.54187
400.201385 805.012634
400.208984 2386.218018
400.216553 4672.208984
400.224152 6270.023926
400.23175 5713.976562
400.239349 3450.205566
400.246948 1354.978149
400.254517 285.608002
400.680054 270.242493
400.687683 1794.24646
400.695282 6602.174805
400.702881 16888.296875
400.71048 28636.621094
400.718079 35418.042969
400.725708 28612.109375
400.733307 16060.801758
400.740906 5881.178711
400.748505 1180.843628
401.182465 243.018768
401.190094 1337.205811
401.197693 4083.737549
401.205322 9036.883789
401.212952 13699.34082
401.220551 14985.514648
401.22818 11115.711914
401.235809 6016.741211
401.243408 1945.541138
401.251038 256.285339
401.70871 80.897514
401.716339 1252.182129
401.723969 4537.184082
401.731598 10410.62207
401.739258 16175.791016
401.746887 17982.441406
401.754517 12822.727539
401.762146 6640.861816
401.769775 1553.748291
401.777435 142.168106
401.785065 16.211006
402.213043 410.681
402.220703 1849.164307
402.228333 4108.501465
402.235992 6576.608887
402.243652 7930.087891
402.251282 6406.473145
402.258942 3737.887451
402.266602 1237.679321
402.274231 97.385185
403.193848 251.935867
403.201538 1429.783447
403.209198 3923.060059
403.216888 7546.307129
403.224548 10099.363281
403.232239 8675.043945
403.239929 4909.916504
403.247589 1904.305786
403.25528 423.270538
403.700989 222.951843
403.708679 968.841797
403.71637 1812.710693
403.72406 2257.894287
403.73175 1989.186768
403.739441 1237.039062
403.747131 445.013428
405.677124 157.190811
405.684875 887.567749
405.692627 2341.660645
405.700378 3906.221191
405.70813 4467.615723
405.715881 3181.609375
405.723633 1273.164185
405.731384 309.712067
406.173431 160.404114
406.181213 1490.243408
406.188965 4413.928711
406.196716 7110.539062
406.204498 7396.030273
406.21225 4433.934082
406.220032 1922.660034
406.227783 784.46991
406.235535 1214.039673
406.243317 1773.480957
406.251068 1441.455688
406.25885 432.366791
407.192169 248.69809
407.199951 1442.263184
407.207733 4430.160156
407.215546 9371.421875
407.223328 13478.69043
407.23111 13518.137695
407.238922 9142.388672
407.246704 4578.122559
407.254486 1298.831665
407.262299 82.069412
407.691254 102.050423
407.699066 677.112488
407.706848 2254.311035
407.714661 4919.690918
407.722473 7622.797852
407.730286 8033.684082
407.738098 5572.734375
407.74588 2623.385254
407.753693 722.133972
409.194031 151.83522
409.201874 871.574829
409.209717 2322.290771
409.21756 4136.375
409.225433 5199.986328
409.233276 4333.561523
409.241119 2500.742188
409.248962 991.095947
409.256836 164.56839
409.696808 135.944885
409.704651 524.327454
409.712524 938.661316
409.720398 1202.509399
409.728271 1096.717773
409.736115 680.17511
409.743988 228.873001
411.210693 174.452698
411.218597 577.073303
411.226501 812.491333
411.234406 819.531006
411.24234 551.026794
411.250244 190.866608
411.717194 259.677521
411.725128 770.359497
411.733032 924.391846
411.740967 889.485596
411.748871 652.654663
411.756805 277.337708
412.20874 165.181549
412.216705 1006.47937
412.22464 2650.520996
412.232574 4343.591309
412.240509 5188.430176
412.248444 4269.042969
412.256378 2336.264648
412.264313 783.708191
412.272247 258.359955
414.191833 38.81123
414.199829 660.190613
414.207794 2466.913574
414.21579 5078.874023
414.223785 7297.099609
414.231781 6750.42041
414.239777 4009.757568
414.247772 1413.23877
414.67981 352.485291
414.687836 2419.377686
414.695831 7710.955078
414.703827 15240.336914
414.711853 20855.789062
414.719849 19424.021484
414.727875 12598.371094
414.73587 5869.043457
414.743866 1687.268066
414.751892 343.411591
415.184723 231.285339
415.192749 1073.730347
415.200775 2375.40918
415.208771 3684.929443
415.216797 4012.308594
415.224823 2818.025635
415.232849 1306.685791
415.240875 249.043457
415.706604 469.004974
415.714661 2915.899414
415.722687 7994.80127
415.730713 14487.788086
415.73877 18645.609375
415.746796 15914.682617
415.754852 9358.915039
415.762878 3896.558105
415.770905 824.955261
415.778961 70.870399
416.197296 43.303715
416.205353 677.025391
416.213379 3140.206299
416.221436 7748.81543
416.229492 12792.936523
416.237549 15832.211914
416.245605 13200.118164
416.253662 7862.704102
416.261688 3108.640625
416.269745 561.097351
416.713013 135.314087
416.7211 540.275635
416.729156 906.44635
416.737213 964.450806
416.7453 676.606201
416.753357 273.961304
417.698822 133.240265
417.706909 1180.734985
417.714996 4954.169922
417.723114 12030.498047
417.731201 19882.642578
417.739288 23557.453125
417.747375 18544.703125
417.755493 10348.941406
417.76358 3884.744141
417.771667 740.383972
417.779785 17.02519
418.209229 407.787292
418.217346 2201.055908
418.225464 5182.410645
418.233582 7843.098633
418.241669 8347.93457
418.249786 5890.310059
418.257904 2801.059326
418.266022 542.657837
419.713531 134.323715
419.72168 546.236267
419.729828 1351.121582
419.737976 2428.258301
419.746155 2797.245605
419.754303 2294.264893
419.762451 1300.054199
419.770599 436.40448
420.203156 246.881058
420.211304 1287.566772
420.219482 3192.033447
420.227661 6131.580078
420.235809 8490.255859
420.243988 7098.477539
420.252167 3799.491455
420.260315 1465.978394
420.268494 149.847366
420.709991 110.914459
420.71817 799.169861
420.726349 3331.553711
420.734528 7728.193848
420.742737 11668.330078
420.750916 13330.716797
420.759094 10543.302734
420.767273 5874.84375
420.775452 2025.292114
420.78363 375.917633
421.217743 227.511948
421.225952 1206.649292
421.234131 2703.039062
421.24234 3868.315674
421.250549 4019.089844
421.258728 2842.824707
421.266937 1384.721069
421.275146 319.653259
421.701782 280.528625
421.709991 914.66272
421.718231 1339.265381
421.72644 1450.327271
421.73465 1214.511597
421.742859 788.003296
421.751068 305.925049
422.705353 186.12355
422.713593 679.770142
422.721832 1195.751953
422.730072 1514.412109
422.738312 1385.177734
422.746552 886.761414
422.754791 316.102814
423.183716 0.74946
423.191956 676.40271
423.200226 3903.174072
423.208466 11015.256836
423.216736 21068.802734
423.224976 28810.302734
423.233246 26933.134766
423.241486 17105.884766
423.249756 7960.243164
423.257996 2230.874023
423.266266 441.633514
423.340576 65.184746
423.348846 306.447327
423.357117 778.790527
423.365356 1602.801514
423.373627 2309.778564
423.381897 2489.15332
423.390137 2080.21582
423.398407 1241.521973
423.406677 387.649811
423.687683 413.832245
423.695953 2500.932861
423.704224 7071.179199
423.712494 13423.033203
423.720764 18176.900391
423.729034 16875.640625
423.737305 10844.743164
423.745575 5120.650391
423.753845 1323.55188
423.762115 73.155083
424.192566 305.49762
424.200836 1146.248535
424.209137 2362.124023
424.217407 3745.072021
424.225708 4015.219971
424.233978 2720.946533
424.242279 1156.974854
424.250549 563.713379
424.25885 174.067398
425.704285 125.738731
425.712616 639.83075
425.720947 2030.41626
425.729279 4270.633301
425.73761 6253.655273
425.745941 6555.791992
425.754272 4659.510742
425.762604 2187.796875
425.770935 431.254822
426.212769 479.616394
426.22113 1677.835815
426.229462 3120.569092
426.237793 4175.45752
426.246155 3543.684082
426.254486 2092.434082
426.262848 849.236023
426.271179 155.943344
427.224121 265.157806
427.232483 838.3797
427.240845 1159.028809
427.249237 1175.037231
427.257599 837.018372
427.265991 324.33963
427.710175 167.301132
427.718536 610.712585
427.726929 1046.455688
427.735321 1305.574097
427.743713 1232.369995
427.752106 858.019592
427.760498 337.225708
428.684753 152.567215
428.693176 569.980164
428.701599 901.236694
428.709991 925.126587
428.718414 593.324219
428.726837 337.530029
428.73526 682.184387
428.743683 1352.315308
428.752106 1693.108276
428.760498 1447.876343
428.768921 826.493042
428.777344 253.322479
429.704895 144.517654
429.713348 606.553894
429.721802 1732.109985
429.730255 3634.818604
429.738708 4693.60498
429.747131 3906.123047
429.755585 2090.074463
429.764038 598.900085
430.203674 174.030487
430.212128 645.900391
430.220581 1138.37561
430.229034 1450.949463
430.237518 1414.224243
430.245972 1059.425171
430.254425 576.682068
430.262878 177.139633
432.198853 196.052856
432.207367 1128.591064
432.215881 2957.949463
432.224426 5005.307129
432.232941 6008.19873
432.241455 4994.900879
432.249969 2980.719727
432.258514 1149.027222
432.267029 144.936554
433.70224 54.927029
433.710785 768.887451
433.71936 3032.032471
433.727936 6969.831543
433.736481 10723.811523
433.745056 11920.123047
433.753632 8584.023438
433.762177 4513.529297
433.770752 1119.146851
434.207977 476.789551
434.216553 2178.651855
434.225128 4800.855957
434.233704 7450.774414
434.242279 8605.865234
434.250854 7172.017578
434.25943 4526.262695
434.268036 1995.794556
434.276611 388.843445
434.705994 312.997437
434.714569 2339.104736
434.723175 9208.794922
434.731781 21821.255859
434.740356 35978.53125
434.748962 43006.667969
434.757538 34584.957031
434.766144 19679.316406
434.77475 7827.088867
434.783325 1882.54248
434.791931 245.51088
435.21347 298.753174
435.222076 1775.621338
435.230682 4886.099121
435.239288 8945.920898
435.247894 11761.908203
435.256531 10560.216797
435.265137 6455.931152
435.273743 2832.783936
435.282349 620.451172
437.19165 159.965576
437.200317 609.778198
437.208984 1340.375366
437.217651 2237.826904
437.226318 2642.454102
437.234985 2389.915771
437.243652 1604.21521
437.252319 616.719482
437.686127 55.463024
437.694824 966.088806
437.703491 3174.024658
437.712189 5534.570801
437.720856 6825.688965
437.729553 5746.746582
437.73822 3364.445312
437.746918 1205.875122
437.755585 219.822098
439.6987 174.600891
439.707428 1256.368408
439.716187 5088.106934
439.724915 11951.353516
439.733673 18922.730469
439.742401 20927.292969
439.75116 15284.142578
439.759888 7763.680176
439.768646 2275.539062
439.777374 320.372894
440.206207 150.577744
440.214935 1039.377686
440.223694 3111.460449
440.232452 5705.55127
440.241211 6681.071777
440.249969 5011.405762
440.258728 2659.413818
440.267487 781.154663
440.276276 142.411011
440.714569 212.183075
440.723358 715.977173
440.732117 1182.49353
440.740875 1482.260742
440.749664 1471.344849
440.758423 1150.285522
440.767212 674.549194
440.776001 228.722504
441.206268 275.927399
441.215057 1155.083984
441.223816 3016.28418
441.232605 5654.532227
441.241394 7043.17334
441.250183 6058.249512
441.258972 3515.838867
441.267761 1437.07373
441.27655 420.688782
441.71637 264.383575
441.725159 1074.932251
441.733978 2056.050537
441.742767 2702.110107
441.751587 2536.278076
441.760376 1690.981812
441.769196 633.418884
442.236176 108.485352
442.244995 405.643158
442.253815 641.331665
442.262634 679.614136
442.271454 490.692871
442.280273 194.249207
442.712738 276.421265
442.721588 1173.457031
442.730408 2833.647461
442.739258 4721.883301
442.748077 5270.824219
442.756927 3939.321289
442.765747 1989.335083
442.774597 850.672363
442.783417 178.010559
443.216644 120.167564
443.225494 982.918396
443.234314 3097.095215
443.243164 8372.271484
443.252014 15355.036133
443.260864 20991.837891
443.269714 19074.728516
443.278564 11577.708984
443.287415 4838.583496
443.296265 768.70636
443.721375 128.240814
443.730225 749.461426
443.739105 2352.058594
443.747955 5128.607422
443.756836 8014.704102
443.765686 8386.566406
443.774567 5680.688965
443.783417 2507.223389
443.792297 665.903687
445.704376 144.416
445.713287 532.551636
445.722229 934.135986
445.73114 1121.178711
445.740051 995.283569
445.748993 658.625366
445.757904 264.333832
448.204102 18.897903
448.213104 530.720276
448.222107 3349.756592
448.23111 11252.797852
448.240112 24690.955078
448.249115 37365.648438
448.258118 40583.683594
448.26709 29072.074219
448.276093 15106.098633
448.285095 4336.354492
448.294098 676.92218
448.699371 287.092102
448.708374 1536.436523
448.717407 5940.740723
448.72641 17155.578125
448.735413 33863.148438
448.744446 47324.027344
448.753448 46445.5
448.762482 31384.058594
448.771484 15504.873047
448.780487 4667.21582
448.78952 987.71051
448.798523 111.107399
449.213501 491.137268
449.222534 2566.412354
449.231567 6107.397461
449.240601 9606.825195
449.249634 10324.27832
449.258667 7484.682129
449.2677 3811.388184
449.276703 1372.475098
449.285736 389.524353
450.217285 199.924484
450.226318 777.657227
450.235382 1710.702148
450.244446 2857.176514
450.25351 3178.601562
450.262573 2119.033447
450.271637 910.161194
450.28067 273.173431
450.724945 187.44371
450.734009 587.356689
450.743103 876.048523
450.752167 915.370789
450.76123 652.66748
450.770325 239.609985
451.733765 195.520432
451.742889 1011.42981
451.751984 2796.084473
451.761078 4834.072266
451.770203 5423.916992
451.779297 4160.855469
451.788391 2159.239014
451.797516 568.933167
452.244019 246.442642
452.253143 742.571838
452.262268 1078.417847
452.271393 1166.922485
452.280487 949.38147
452.289612 548.901672
452.298737 172.179321
453.706635 425.081421
453.71579 1782.209473
453.724976 3607.091309
453.734131 4992.353027
453.743286 4808.978027
453.752472 3129.00708
453.761627 1330.931885
453.770782 236.741425
454.21106 202.392044
454.220215 639.506409
454.229401 971.304321
454.238586 1064.032837
454.247772 891.138916
454.256958 507.949646
454.266113 16.231501
456.727264 149.731476
456.736511 1310.656494
456.745789 4055.506348
456.755035 8049.705566
456.764282 11598.708984
456.77356 10784.759766
456.782806 6510.197266
456.792053 2387.304932
456.801331 123.121422
457.190369 139.777344
457.199646 960.971741
457.208923 2230.1875
457.218201 5729.17041
457.227448 20601.193359
457.236725 59259.792969
457.246002 116822.210938
457.25528 163663.0
457.264526 159143.4375
457.273804 106483.25
457.283081 51828.273438
457.292358 15808.703125
457.301636 4175.355469
457.310913 1234.730713
457.32016 321.543549
457.7099 153.508392
457.719177 1229.237305
457.728455 5803.232422
457.737762 18025.689453
457.74704 36626.417969
457.756317 52324.941406
457.765625 52082.59375
457.774902 35198.941406
457.78418 17113.757812
457.793488 4935.034668
457.802765 1206.976074
457.812042 333.008728
458.239594 203.685898
458.248901 641.345947
458.258209 907.308105
458.267517 875.288513
458.276825 597.12262
458.286102 219.203079
458.742279 326.489502
458.751587 877.3078
458.760925 1089.244385
458.770233 978.018921
458.779541 613.395569
458.788879 203.260498
459.227112 216.879318
459.23645 780.294128
459.245789 1795.449463
459.255127 2993.790039
459.264465 3185.620117
459.273773 2007.396973
459.283112 721.941406
459.29245 188.345825
462.199493 311.459808
462.208893 1908.209839
462.218323 7643.667969
462.227753 24501.117188
462.237183 50760.839844
462.246613 73768.671875
462.256012 74751.445312
462.265442 51545.191406
462.274872 25559.988281
462.284302 7872.588379
462.293732 2248.397217
462.303131 1041.800415
462.312561 321.94455
462.699249 96.611969
462.708679 1253.635742
462.71814 5918.780762
462.72757 16774.642578
462.737 32034.765625
462.74646 43609.65625
462.75589 40945.617188
462.76532 26638.150391
462.77475 12446.4375
462.78421 3427.493896
462.79364 603.419739
463.20929 208.202972
463.21875 1205.580811
463.22821 3306.409912
463.23764 5906.072754
463.247101 7236.04541
463.256561 6060.223633
463.266022 3576.216797
463.275482 1391.304321
463.284912 197.063263
464.222412 223.878296
464.231903 873.562378
464.241364 1646.101807
464.250854 2047.65564
464.260345 1885.427246
464.269836 1252.636719
464.279327 473.015442
465.714966 72.580765
465.724518 710.316589
465.734039 3564.423828
465.743561 11684.447266
465.753082 24846.314453
465.762634 36518.480469
465.772156 37974.351562
465.781677 26554.742188
465.791229 13337.724609
465.800751 3718.753174
465.810272 566.169922
466.230011 385.896698
466.239563 2609.230469
466.249084 7070.84668
466.258636 12098.402344
466.268188 14678.335938
466.27774 12119.655273
466.287292 6986.137207
466.296844 2711.161865
466.306366 516.722595
470.681213 13.076861
470.690887 629.190613
470.700562 1097.817139
470.710236 957.819458
470.71994 1693.863525
470.729614 5329.837402
470.739288 17903.53125
470.748993 38902.488281
470.758667 59019.867188
470.768341 62617.722656
470.778046 44956.207031
470.78772 23066.345703
470.797424 7365.748047
470.807098 1526.353271
470.816772 213.767868
471.185089 318.401276
471.194794 3829.733398
471.204498 8700.475586
471.214203 19488.101562
471.223877 68832.757812
471.233582 196926.875
471.243286 386130.0
471.252991 538922.8125
471.262695 520966.0625
471.2724 347353.0625
471.282104 168212.796875
471.291779 51902.457031
471.301483 15250.764648
471.311188 6973.775391
471.320892 3368.709961
471.330597 387.752808
471.689789 464.469757
471.699524 1786.537231
471.709229 3641.258301
471.718933 10392.242188
471.728668 37047.234375
471.738373 90010.101562
471.748077 155104.125
471.757812 190720.984375
471.767517 158353.328125
471.777222 92418.148438
471.786957 38920.699219
471.796661 10970.076172
471.806396 3837.771484
471.816101 2163.937988
471.825836 1500.046509
471.835541 981.788635
471.845245 84.123535
472.691895 239.542725
472.70166 618.691956
472.711395 1074.629028
472.72113 3525.242188
472.730896 13782.152344
472.740631 36111.105469
472.750366 65859.960938
472.760132 85442.695312
472.769867 75389.742188
472.779633 46382.679688
472.789368 20494.535156
472.799103 5663.374023
472.808868 1553.971069
472.818604 551.516174
472.828369 179.160263
473.208801 334.86792
473.218567 2698.619141
473.228302 10923.21582
473.238068 26283.214844
473.247833 44897.429688
473.257599 55460.460938
473.267365 46908.640625
473.27713 28122.177734
473.286896 12150.477539
473.296661 2948.835693
473.306427 299.692017
473.716766 389.210754
473.726532 1762.199707
473.736298 4322.528809
473.746094 7519.062988
473.755859 9061.654297
473.765656 7411.217285
473.775421 4196.260742
473.785187 1723.42334
473.794983 503.234283
474.235321 388.361908
474.245117 1984.297485
474.254913 6443.240723
474.264709 12911.851562
474.274506 18574.251953
474.284302 18712.033203
474.294098 13119.40918
474.303894 6505.05127
474.31369 2087.841797
474.323486 435.209106
474.744934 325.316742
474.754761 1270.170654
474.764557 2850.098389
474.774384 4437.739258
474.78418 4668.487793
474.793976 3212.77417
474.803802 1466.230835
474.813599 439.473236
476.219604 311.773071
476.229462 1086.761108
476.239319 2136.456055
476.249176 3058.118896
476.259033 2921.77002
476.26889 1706.116943
476.278717 613.276978
476.288574 151.241623
476.722565 338.942261
476.732422 1007.836487
476.742279 1422.737793
476.752167 1467.809082
476.762024 1125.070801
476.771912 616.690796
476.781769 187.001205
477.364716 99.51326
477.374603 330.727112
477.384491 498.707458
477.394379 544.067749
477.404266 437.27002
477.414185 195.692764
478.712555 217.252914
478.722473 634.756958
478.732391 883.126465
478.74234 900.463745
478.752258 673.757996
478.762207 281.951111
479.249298 331.028534
479.259247 882.724976
479.269196 1108.952271
479.279144 979.846558
479.289093 614.153442
479.299042 200.750381
479.717194 323.413239
479.727142 2341.687988
479.737122 10132.12793
479.74707 27197.017578
479.75705 49918.40625
479.766998 65316.789062
479.776978 58468.300781
479.786926 36662.246094
479.796906 16565.851562
479.806854 4656.168945
479.816833 1190.651611
479.826813 312.582855
480.215729 69.905869
480.225708 1047.558228
480.235657 4715.684082
480.245636 12383.392578
480.255615 22848.984375
480.265594 30143.65625
480.275604 27207.798828
480.285583 17142.492188
480.295563 7835.962402
480.305542 2054.105713
480.315521 212.779648
481.725983 487.407349
481.735992 2666.726074
481.746033 7036.308105
481.756073 12426.040039
481.766083 15520.010742
481.776123 13221.849609
481.786133 7918.833008
481.796173 3248.196777
481.806183 684.508911
481.816223 73.538681
482.237671 318.586639
482.247711 1264.837524
482.257751 2545.860107
482.267792 3385.402344
482.277863 2993.814697
482.287903 1660.611938
482.297943 598.167786
482.307983 160.798203
484.707245 214.521301
484.717377 1169.456299
484.727478 4947.799805
484.73761 15467.123047
484.747711 31368.283203
484.757843 44766.359375
484.767975 44147.816406
484.778076 29776.75
484.788208 14435.938477
484.79834 4481.589844
484.808441 1259.642456
484.818573 203.721085
485.193298 221.566025
485.20343 1177.893433
485.213562 4551.078125
485.223694 15929.609375
485.233856 39559.640625
485.243988 70528.75
485.25412 91731.65625
485.264252 81840.539062
485.274384 50799.371094
485.284515 22970.195312
485.294647 5985.763672
485.304779 1166.616455
485.314941 351.440948
485.700378 197.253784
485.710541 643.922913
485.720703 3292.684326
485.730835 10630.796875
485.740997 20442.359375
485.751129 27810.714844
485.761292 25543.623047
485.771454 16607.107422
485.781586 7459.658691
485.791748 1966.332153
485.80191 329.079437
486.716949 372.261169
486.727142 2249.380615
486.737305 6704.453125
486.747498 12842.177734
486.75769 17154.927734
486.767853 15356.723633
486.778046 9538.464844
486.788239 4104.737793
486.798401 1002.421204
486.808594 115.245544
487.206024 339.77301
487.216217 2282.218262
487.22644 7468.719727
487.236633 16254.318359
487.246826 25171.992188
487.257019 27603.046875
487.267212 20615.148438
487.277405 10978.945312
487.287628 3644.042969
487.297821 379.410156
487.716278 583.120972
487.726501 2579.115234
487.736694 5476.201172
487.746918 8160.637695
487.757141 8103.737793
487.767334 5380.030273
487.777557 2370.621094
487.787781 782.014587
487.798004 174.293732
488.227325 63.423546
488.237549 1074.178955
488.247772 5367.237793
488.258026 12813.583008
488.26825 20908.414062
488.278473 23276.417969
488.288696 17720.714844
488.29892 9708.948242
488.309174 3694.793701
488.319397 883.566345
488.32962 90.713211
488.739166 439.356354
488.74942 2231.640625
488.759674 5133.752441
488.769897 8290.198242
488.780151 9075.805664
488.790405 6791.507324
488.800659 3598.963623
488.810913 1223.283325
488.821136 191.410767
493.694153 281.572418
493.704559 772.731262
493.714966 1548.881348
493.725372 5227.583496
493.735779 19853.705078
493.746185 48120.433594
493.756592 82521.523438
493.766998 99698.632812
493.777374 81540.054688
493.787781 47343.566406
493.798187 19689.357422
493.808594 5690.330078
493.819 1820.414185
493.829407 789.746216
493.839813 303.317627
494.21463 732.337097
494.225067 4498.05127
494.235474 16189.359375
494.245911 35413.792969
494.256317 55402.320312
494.266724 61456.359375
494.277161 46860.65625
494.287567 25691.876953
494.298004 9723.768555
494.308411 2268.94873
494.318848 221.244476
494.715057 215.104294
494.725494 1102.456665
494.735931 3793.320801
494.746368 7766.068359
494.756805 10867.227539
494.767242 9913.367188
494.777679 6252.751953
494.788116 2662.544189
494.798553 599.1427
495.728668 298.680908
495.739136 1349.225708
495.749603 2839.544922
495.760071 3992.332031
495.770538 3786.50293
495.781006 2417.318604
495.791473 970.250427
495.801941 156.2677
499.094727 163.240906
499.105286 470.51712
499.115875 621.197876
499.126434 581.805786
499.137024 379.172852
499.147583 133.688965
502.228271 150.729355
502.238922 906.353638
502.249603 3106.885254
502.260284 6807.976074
502.270966 10063.208984
502.281616 10085.133789
502.292297 6726.539551
502.302979 3029.103027
502.31366 544.536133
502.730225 159.927765
502.740906 1152.361816
502.751617 3272.679688
502.762299 5762.600586
502.77298 7344.23291
502.783661 6511.511719
502.794373 3939.841797
502.805054 1419.918579
502.815735 140.666687
506.751556 212.150253
506.76236 748.04303
506.773193 1774.261841
506.783997 3036.586182
506.79483 3391.887939
506.805634 2596.333984
506.816467 1356.345703
506.827271 352.521576
507.271149 258.046143
507.281982 745.953735
507.292816 1104.395264
507.30365 1131.834595
507.314484 784.531677
507.325317 266.000519
515.272888 270.479431
515.283936 828.166138
515.295044 1352.673218
515.306152 1604.960693
515.317261 1446.424927
515.328308 984.719604
515.339417 344.639709
515.772278 536.359985
515.783386 1481.794067
515.794495 2124.586426
515.805603 2233.849854
515.816711 1701.490112
515.82782 797.968018
515.838928 30.041634
520.750549 294.313568
520.761841 2533.947754
520.773071 5704.317383
520.784363 8417.222656
520.795593 7584.472656
520.806885 4756.217773
520.818176 1927.549927
520.829407 455.303162
520.840698 133.366547
521.246704 220.758026
521.257996 1054.282104
521.269287 2591.403076
521.280518 4254.488281
521.291809 4658.927246
521.303101 3538.936523
521.314392 1942.298706
521.325684 568.627869
521.74353 491.084839
521.754822 1682.183105
521.766174 3001.465332
521.777466 3908.773926
521.788757 3859.320312
521.800049 2878.639893
521.81134 1572.709961
521.822632 697.209961
521.833984 212.952515
522.241089 290.107849
522.252441 1273.736572
522.263733 2624.836914
522.275085 3779.654785
522.286377 3819.212891
522.297668 2688.477051
522.309021 1346.385498
522.320312 365.163452
529.22467 375.953766
529.236206 790.854797
529.247742 1029.831665
529.259277 3142.183594
529.270813 11604.912109
529.282349 27111.179688
529.293945 45272.585938
529.305481 53382.707031
529.317017 42741.085938
529.328552 24168.939453
529.340088 9449.786133
529.351685 2238.709961
529.36322 394.706635
529.732971 210.091019
529.744507 1250.837646
529.756104 5728.58252
529.767639 19414.037109
529.779175 41087.875
529.790771 62939.359375
529.802307 67810.625
529.813904 50536.644531
529.825439 27043.484375
529.837036 9850.24707
529.848572 2164.996338
529.860168 245.983185
530.242004 188.516068
530.253601 1274.332642
530.265137 4259.314941
530.276733 10105.677734
530.28833 16925.330078
530.299866 20534.126953
530.311462 16478.666016
530.323059 9142.759766
530.334656 3238.784424
530.346191 226.09581
530.740173 193.213806
530.75177 655.832886
530.763367 1200.708984
530.774963 1554.615601
530.78656 1508.238647
530.798157 1096.308105
530.809753 564.418335
530.82135 118.730766
534.247131 198.220154
534.25885 1917.194702
534.270569 5512.137207
534.282288 9783.162109
534.294006 11972.200195
534.305725 9268.65332
534.317444 5259.695801
534.329102 2059.425537
534.34082 563.117737
534.727539 143.676514
534.739258 728.267273
534.750977 3368.412354
534.762695 10685.760742
534.774475 21272.810547
534.786194 29951.099609
534.797913 29257.513672
534.809631 19899.242188
534.82135 9617.188477
534.833069 2651.103027
534.844788 303.315399
534.962097 145.300018
534.973877 987.6026
534.985596 2278.530029
534.997314 3129.233154
535.009033 3041.916016
535.020752 2098.257324
535.032532 956.764709
535.04425 260.376495
535.232056 173.721115
535.243774 996.953979
535.255554 3412.441895
535.267273 8374.060547
535.279053 14111.828125
535.290771 17141.705078
535.30249 13822.495117
535.31427 7784.580078
535.325989 2800.133301
535.337769 289.466461
535.749023 299.759247
535.760803 712.935303
535.772583 970.082214
535.784302 1072.984985
535.796082 932.413025
535.807861 582.676208
535.81958 176.864609
536.243225 216.884232
536.255005 746.414307
536.266785 1423.764526
536.278564 1879.72583
536.290344 1788.289917
536.302124 1243.302124
536.313904 623.417114
536.325684 174.282028
538.250488 451.808289
538.262329 2053.300781
538.27417 7363.303711
538.286011 17798.25
538.297852 30761.035156
538.309692 37349.21875
538.321533 30570.46875
538.333435 17632.427734
538.345276 7100.595215
538.357117 1577.74939
538.368958 171.170273
538.76001 113.001465
538.771851 1382.972168
538.783752 4649.841309
538.795593 9081.929688
538.807434 12434.285156
538.819336 11703.682617
538.831177 7589.83252
538.843018 3298.650146
538.854919 594.015564
542.263123 384.269775
542.275085 925.041687
542.287048 1217.907227
542.299011 1165.3125
542.311035 777.802185
542.322998 244.474197
543.198242 93.898071
543.210266 2066.576172
543.222229 12413.274414
543.234253 23598.599609
543.246277 44237.199219
543.25824 138582.375
543.270264 443854.0625
543.282288 916844.8125
543.294312 1372785.75
543.306274 1418167.375
543.318298 1014122.125
543.330322 515977.84375
543.342285 179648.1875
543.354309 51982.113281
543.366333 24061.017578
543.378357 13178.955078
543.390381 4128.486328
543.402344 1169.166626
543.702759 1377.423218
543.714783 9969.075195
543.726807 21531.521484
543.738831 38641.679688
543.750854 117164.773438
543.762878 391720.53125
543.774902 860634.0625
543.786926 1383960.625
543.79895 1565539.25
543.810974 1213113.375
543.822998 675764.0625
543.835022 268195.9375
543.847046 75600.085938
543.85907 27371.478516
543.871094 14734.092773
543.883118 4702.447266
543.895142 483.078735
544.195984 690.669067
544.208008 2154.024902
544.220032 5639.388672
544.232056 8583.100586
544.244141 20116.261719
544.256165 71083.492188
544.268188 186695.90625
544.280212 339789.96875
544.292297 441304.21875
544.304321 388073.21875
544.316345 242943.078125
544.328369 107804.734375
544.340454 32384.96875
544.352478 11255.381836
544.364502 6557.935059
544.376587 2950.954834
544.388611 453.568817
544.750122 168.259811
544.762146 927.081543
544.774231 2678.275146
544.786255 4595.996582
544.79834 5247.620605
544.810364 4144.000977
544.822449 2211.57251
544.834534 591.06665
551.761169 337.326447
551.773499 1295.44104
551.785767 2564.116211
551.798035 3580.983643
551.810364 3442.681885
551.822632 2334.53418
551.834961 1146.766479
551.847229 294.149475
552.09314 214.238678
552.105469 552.464722
552.117737 723.612366
552.130066 681.08783
552.142334 453.785156
552.154663 153.872925
552.191589 131.034317
552.203857 3248.933594
552.216187 7678.751953
552.228455 17100.175781
552.240784 26228.894531
552.253113 56192.414062
552.265381 187783.8125
552.27771 528574.9375
552.289978 1004762.5625
552.302307 1373329.5
552.314636 1278788.5
552.326904 840191.0625
552.339233 391021.15625
552.351562 120460.867188
552.363831 36554.792969
552.37616 17377.681641
552.388489 6587.209473
552.400757 183.88385
552.708679 690.980347
552.721008 4159.413574
552.733337 9784.667969
552.745667 14525.578125
552.757996 35671.367188
552.770264 122972.96875
552.782593 294948.15625
552.794922 509278.0
552.807251 620682.875
552.81958 511679.34375
552.831909 302831.65625
552.844238 127433.289062
552.856567 37530.269531
552.868896 14677.525391
552.881226 8974.712891
552.893555 3767.613037
552.905884 622.018005
552.9552 301.734711
552.967529 1552.964355
552.979858 3568.723633
552.992188 3211.880859
553.004517 1576.789795
553.016846 595.200745
553.029175 114.365593
553.26355 119.562431
553.275879 945.269592
553.288208 2278.395264
553.300537 3212.040283
553.312927 3178.209473
553.325256 2259.978271
553.337585 1145.7229
553.349915 301.700012
570.24115 227.347427
570.254089 713.70575
570.266968 1238.150391
570.279907 1531.031372
570.292786 1437.607666
570.305725 1026.947266
570.318665 535.199158
570.331543 137.168945
573.261536 177.767761
573.274597 592.668213
573.287598 1062.700073
573.300598 1310.956299
573.313599 1152.817383
573.32666 694.544373
573.339661 191.208313
604.846375 178.85704
604.860535 456.626556
604.874634 622.907898
604.888733 571.106567
604.902832 349.199524
604.916931 97.460014
605.269775 186.13768
605.283875 462.122498
605.298035 620.083984
605.312134 588.593384
605.326233 401.820587
605.340393 126.588913
638.441772 213.985184
638.457092 464.78714
638.472412 801.705078
638.487671 1184.312866
638.502991 1777.120972
638.518311 2236.00708
638.533569 2571.612061
638.548889 2475.230225
638.564209 1895.5896
638.579468 1016.541443
638.594788 576.989197
638.610107 384.477753
638.625366 114.98558
669.019592 193.162506
669.036011 442.855255
669.052429 618.369568
669.068848 646.64209
669.085266 514.482727
669.101624 147.854935
672.313354 455.225922
672.329834 1121.463989
672.346375 2419.285645
672.362915 3138.446777
672.379456 2143.955566
672.395996 1267.415527
672.412537 654.246948
672.429016 132.954437
684.28949 765.717468
684.306458 1730.535889
684.323425 2351.385498
684.340393 2262.954834
684.357422 1567.455078
684.37439 666.644287
684.391357 107.474121
689.341309 235.568436
689.358459 655.382935
689.37561 1026.804932
689.392822 1109.102295
689.409973 874.58374
689.427124 507.978333
689.444275 103.925804
700.316589 432.537506
700.334167 1381.862549
700.351746 2259.996582
700.369324 2498.433838
700.386902 1989.72168
700.40448 1130.85791
700.422058 257.73587
701.284119 95.170418
701.301697 1087.544067
701.319336 3859.669678
701.336914 7575.206543
701.354553 10368.834961
701.372192 9162.047852
701.389771 5581.386719
701.40741 2209.612549
701.424988 428.316895
701.442627 19.581764
706.329834 202.465958
706.347595 692.2995
706.365417 1189.163696
706.383179 1336.563599
706.401001 1057.438843
706.418823 596.116394
706.436584 113.454361
712.294617 836.961182
712.312622 1705.417114
712.330627 2052.043945
712.348694 1733.67749
712.366699 1037.726807
712.384705 207.434128
718.317017 583.885132
718.335266 1480.804932
718.353516 2313.727051
718.371765 2656.78418
718.390015 2331.625732
718.408264 1292.816284
718.426514 583.31427
718.444824 103.306221
728.332825 429.530792
728.35144 810.90625
728.370056 1005.285645
728.388733 911.881775
728.407349 593.469177
728.426025 110.435051
729.284241 519.92395
729.302917 2353.427979
729.321594 5375.137207
729.340271 8648.21875
729.358948 8639.168945
729.377625 5759.838867
729.396301 2557.031738
729.414978 620.675659
729.433655 56.853043
730.312439 517.596558
730.331177 1095.221069
730.349854 1518.688843
730.368591 1596.661255
730.387268 1271.664185
730.406006 733.958496
730.424744 129.991241
735.334778 507.827881
735.353699 1623.691895
735.37262 4583.086426
735.391479 7224.759277
735.4104 7210.047852
735.429321 4887.143066
735.448242 2142.311279
735.467163 343.927063
736.356812 397.834747
736.375793 767.635254
736.394714 1022.168091
736.413696 1042.70166
736.432617 778.293701
736.451599 146.562286
747.315125 418.461823
747.334473 898.057373
747.353882 1235.221924
747.37323 1241.15332
747.392578 897.417053
747.411987 433.296692
747.431335 71.524025
749.080994 183.007767
749.100464 477.654907
749.119873 816.595459
749.139343 1037.374512
749.158752 986.442505
749.178223 683.724915
749.197632 321.015045
749.217102 56.238567
754.318176 372.362122
754.33783 781.154846
754.357483 1083.72522
754.377136 1110.879639
754.39679 795.86499
754.416382 150.370407
755.321045 319.27594
755.340698 729.292786
755.360413 1147.713135
755.380066 1446.185547
755.39978 1484.209717
755.419434 1190.70459
755.439148 685.718872
755.458801 109.910706
766.324646 856.74939
766.344727 2049.000488
766.364868 3901.945068
766.38501 4194.62793
766.40509 2939.249023
766.425232 1092.51709
766.445374 91.987976
768.360291 541.615967
768.380493 2174.628174
768.400696 4068.180176
768.420898 5498.265625
768.441101 4468.807617
768.461304 2612.738525
768.481506 809.274109
768.501709 100.003868
772.374573 562.458862
772.394958 1070.211426
772.415283 1306.111816
772.435669 1144.442505
772.455994 723.866699
772.476379 111.387444
780.394775 494.250977
780.415466 811.353577
780.436096 927.325928
780.456787 799.664368
780.477478 503.787262
780.498169 161.087234
783.317627 325.579071
783.33844 1860.537598
783.359192 5704.223633
783.380005 10569.725586
783.400818 13870.453125
783.42157 12022.243164
783.442383 7340.589844
783.463135 2740.056396
783.483948 268.100586
784.337219 475.894775
784.358032 999.370911
784.378906 1922.181519
784.399719 2526.449463
784.420532 2436.565186
784.441345 1690.063232
784.462219 565.934875
784.483032 77.677414
785.3797 996.075623
785.400574 3924.217285
785.421387 7789.208496
785.442261 11321.794922
785.463135 10225.624023
785.484009 6363.482422
785.504883 2528.367188
785.525757 388.785156
785.546631 24.500219
791.340393 363.792969
791.361511 782.9245
791.382629 1040.248047
791.403748 926.18988
791.424866 510.593964
791.445984 68.630089
796.366821 872.962646
796.388123 2102.990967
796.409424 3086.482666
796.430725 3148.996338
796.452026 2291.167236
796.473389 1141.782715
796.49469 168.75119
797.710999 278.908081
797.732361 522.287109
797.753723 622.2099
797.775085 920.842163
797.796448 1048.128174
797.81781 866.388733
797.839172 666.135071
797.860535 402.920624
797.881897 68.045837
800.32373 181.461304
800.345154 879.877075
800.366638 4096.401367
800.388123 10040.114258
800.409607 17459.119141
800.43103 20320.017578
800.452515 15098.923828
800.473999 8173.570801
800.495483 2776.526855
800.516968 358.64801
801.355164 494.34079
801.376709 1432.52771
801.398193 2638.52832
801.419739 3724.427734
801.441223 3459.179199
801.462769 2286.162842
801.484253 899.764587
801.505798 102.392685
802.410217 685.614868
802.431763 1212.522705
802.453308 1519.716431
802.474854 1448.502563
802.496399 1000.037964
802.517944 455.022247
802.539551 54.991837
805.371033 344.740906
805.3927 1259.184937
805.414368 2356.788574
805.436035 2971.975098
805.457703 2655.556885
805.479431 1673.469849
805.501099 482.623444
805.522766 49.21777
806.412292 516.443848
806.434021 926.656921
806.455688 1123.191406
806.477417 987.004517
806.499146 603.031494
806.520874 31.898376
811.32019 1190.092896
811.342102 4997.23291
811.364014 9844.735352
811.385925 14347.670898
811.407837 13507.368164
811.429749 8809.737305
811.45166 3907.355225
811.473572 951.469299
811.495483 107.474281
812.351013 487.649628
812.372986 1223.325806
812.394958 1865.287231
812.41687 2653.2854
812.438843 1589.466919
812.460815 791.887695
812.482788 157.206436
813.361877 523.991516
813.38385 3127.107666
813.405823 8600.425781
813.427856 15250.318359
813.449829 18894.125
813.471863 14928.227539
813.493835 8413.567383
813.515869 2958.669678
813.537842 458.606323
813.559875 23.358393
814.352539 116.111748
814.374573 1171.229858
814.396606 3671.397217
814.41864 7373.493652
814.440674 10071.973633
814.462708 8587.05957
814.484741 5254.611328
814.506836 2152.583252
814.52887 341.269623
814.550903 11.516687
817.401917 554.396057
817.424072 1176.532837
817.446289 1498.713989
817.468445 1304.798706
817.490601 792.822815
817.512756 120.909882
828.323853 626.013245
828.346436 2684.397949
828.36908 9159.03418
828.391663 17991.335938
828.414246 26361.921875
828.43689 24601.201172
828.459473 15891.93457
828.482117 7018.257812
828.5047 1770.721924
828.527344 51.234013
829.319336 57.677605
829.34198 1121.354492
829.364624 4058.249023
829.387268 7770.916016
829.409912 11329.140625
829.432617 10894.864258
829.455261 7147.354004
829.477905 3387.347168
829.500549 1095.564575
829.523193 161.805603
830.384705 319.969238
830.40741 1847.622681
830.430115 4121.883789
830.452759 6463.489746
830.475464 7106.891113
830.498169 5356.766602
830.520874 2999.280518
830.543579 908.068237
831.361206 86.785286
831.383911 1062.044312
831.406677 3579.400146
831.429382 7156.757324
831.452148 10164.958008
831.474854 9283.06543
831.49762 5324.620605
831.520325 2211.20874
831.543091 462.963837
831.565796 57.373474
834.369629 515.162354
834.392456 2383.510254
834.415283 8444.810547
834.438171 16467.59375
834.460999 23702.630859
834.483887 21796.654297
834.506714 14137.542969
834.529602 6162.509766
834.552429 1586.185425
834.575317 122.814003
835.398926 422.771881
835.421814 1967.343994
835.444702 3873.564453
835.46759 5184.57959
835.49054 4336.566406
835.513428 2321.404541
835.536316 945.074463
835.559204 100.397545
841.406738 568.874695
841.429871 978.753174
841.453003 1101.327026
841.476135 909.428772
841.499329 582.894226
841.522461 62.522396
842.356384 466.400848
842.379517 2119.319336
842.40271 4929.973145
842.425903 7915.583496
842.449097 8440.948242
842.47229 5878.369629
842.495483 2864.470215
842.518677 1103.413574
842.54187 137.334396
843.400513 659.66803
843.423706 1090.077637
843.44696 1215.341309
843.470154 1001.826721
843.493408 585.168701
843.516663 60.754734
845.401367 726.255432
845.424683 1271.514282
845.447998 1360.42041
845.471313 928.232239
845.494629 332.666382
845.517944 28.351391
846.334473 524.040894
846.357788 2272.293213
846.381165 7710.679199
846.40448 14501.624023
846.427856 20534.443359
846.451172 18311.849609
846.474548 11532.126953
846.497864 4733.268066
846.52124 1330.804443
846.544617 116.956627
847.36261 311.237122
847.385986 1283.819702
847.409363 2893.395508
847.4328 4122.145996
847.456177 3100.520996
847.479553 2007.640869
847.50293 930.667053
847.526367 97.893394
848.416077 455.143219
848.439514 1570.318115
848.462952 3300.078613
848.486389 4073.693848
848.509827 2738.845947
848.533264 1483.994141
848.556702 412.908752
848.580139 31.579338
856.368164 813.555237
856.391968 1635.215576
856.41571 2051.068359
856.439453 1767.671509
856.463257 986.908264
856.487 102.141052
857.343262 574.056763
857.367065 1331.508301
857.390869 2520.823975
857.414673 3069.465576
857.438477 1630.306274
857.46228 685.343323
857.486084 184.475113
858.367737 126.533096
858.391541 669.334351
858.415405 2602.659424
858.43927 5077.432617
858.463135 7193.02832
858.486938 7043.97168
858.510803 4732.84082
858.534668 2060.888916
858.558533 465.464569
859.370117 326.030396
859.393982 828.15387
859.417908 1742.615112
859.441772 2805.367188
859.465698 2906.672852
859.489563 1584.572144
859.513428 818.583008
859.537354 76.01976
867.404419 445.880829
867.42865 856.906189
867.452881 1133.000977
867.477112 1054.189575
867.501343 622.041382
867.525574 55.181519
873.36969 283.923462
873.394165 830.43219
873.41864 1466.731201
873.443115 1745.601196
873.46759 1448.579346
873.492065 830.539795
874.324951 128.034348
874.349487 2022.432373
874.373962 6625.252441
874.398499 11895.240234
874.423035 15973.077148
874.44751 12591.133789
874.472046 7322.453613
874.496582 2682.458984
874.521118 643.852295
874.545593 77.56427
875.380005 611.807861
875.404541 1122.256714
875.429138 1392.026001
875.453674 1309.879517
875.47821 957.365662
875.502808 522.113892
876.363159 13.117496
876.387756 545.542297
876.412354 2871.918701
876.436951 6743.723633
876.461548 10973.110352
876.486145 12002.241211
876.510742 8396.612305
876.535339 4146.158203
876.559998 1034.317993
876.584595 54.659996
887.41333 697.210693
887.438354 1165.385864
887.46344 1350.315552
887.488525 1157.276123
887.513611 692.831909
890.353333 181.343475
890.37854 1457.293945
890.403748 4309.404297
890.428894 7453.590332
890.454102 9377.735352
890.479309 7699.228027
890.504517 4473.276367
890.529724 1611.716675
890.554871 343.788086
890.580078 21.223379
891.387085 521.230774
891.412292 1011.88385
891.437561 1352.487549
891.462769 1371.508911
891.488037 1100.942017
891.513245 701.757324
891.538513 52.400497
896.430054 426.85498
896.455505 1040.265137
896.480957 1549.905151
896.506409 1545.503784
896.53186 1028.158691
896.557312 415.583649
896.582764 27.62516
904.423279 717.868286
904.449097 1447.084961
904.474854 1905.002563
904.500671 1761.577271
904.526428 1132.874878
904.552246 487.213989
904.578064 30.646778
913.439392 680.167603
913.465576 2002.79834
913.49176 2876.237549
913.517944 3058.196777
913.544128 2375.340576
913.570251 1240.932495
913.596436 80.911453
924.400513 666.05426
924.427124 2734.200928
924.453796 5112.965332
924.480469 6923.943359
924.50708 5971.220703
924.533752 3618.060547
924.560425 1322.254883
924.587036 382.889679
924.613708 18.217016
925.414001 280.733856
925.440674 799.373718
925.467407 1430.604858
925.49408 1770.63916
925.520752 1567.947021
925.547485 988.599609
925.574158 415.759888
925.600891 21.077818
928.410889 363.096802
928.437744 1441.6604
928.464539 2406.789062
928.491394 2735.198486
928.518188 2153.275391
928.545044 1128.585938
928.571899 139.02121
930.398987 410.376617
930.425903 2327.39502
930.45282 8598.924805
930.479736 19838.996094
930.506653 32591.316406
930.533569 36446.105469
930.560486 26276.330078
930.587402 14126.242188
930.614319 4550.039551
930.641235 971.842407
930.668152 40.811417
931.449341 1160.52356
931.476318 4250.130859
931.503296 7578.690918
931.530212 9722.052734
931.55719 7865.603516
931.584167 4744.116211
931.611145 1534.482544
941.366394 12.724234
941.393799 633.759521
941.421204 3257.990723
941.448547 9418.05957
941.475952 15993.707031
941.503357 19724.416016
941.530762 15061.222656
941.558167 8226.111328
941.585571 2753.811523
941.612915 647.284058
941.64032 30.280283
942.407959 348.956329
942.435425 1729.791748
942.46283 3875.399658
942.490295 6035.59082
942.5177 5901.510254
942.545166 3651.56958
942.572571 1375.963135
942.600037 502.513153
942.627441 23.60465
945.377625 430.752014
945.405212 2935.053223
945.432739 11321.578125
945.460327 23164.914062
945.487854 34887.660156
945.515442 33386.738281
945.54303 21517.0625
945.570557 9960.804688
945.598145 2903.452637
945.625732 1050.049561
945.65332 85.647804
946.398254 562.459412
946.425842 2134.293701
946.45343 5471.029297
946.481079 9116.18457
946.508667 10177.583984
946.536255 7328.938965
946.563904 3884.273438
946.591492 997.512756
946.619141 51.116932
947.420471 134.154312
947.448181 1519.134277
947.47583 6248.704102
947.503479 15437.525391
947.531128 25806.037109
947.558777 29441.771484
947.586426 20948.847656
947.614075 11114.022461
947.641724 3257.895264
947.669434 586.944763
947.697083 12.209447
948.444397 95.832321
948.472107 1945.872314
948.499817 4921.222656
948.527527 8442.897461
948.555237 10232.613281
948.582947 7005.737305
948.610596 3790.930176
948.638306 1178.964233
948.666016 297.559418
948.693726 10.596004
956.415344 548.032288
956.44342 1054.322144
956.471497 1253.93335
956.499512 977.265625
956.527588 460.949219
956.555603 22.850708
957.425842 559.203613
957.453918 948.661621
957.481995 1152.103394
957.510071 1045.251831
957.538208 694.54834
957.566284 35.209106
958.437866 381.854248
958.466003 2553.517578
958.494141 5048.555176
958.522278 6867.854004
958.550415 5662.768066
958.578552 3300.510498
958.606689 901.261353
959.395203 38.828827
959.42334 838.273865
959.451538 2918.175537
959.479736 6086.244629
959.507874 9096.891602
959.536072 8537.677734
959.56427 5282.353516
959.592468 2093.643555
959.620667 505.912659
959.648804 31.100832
960.438599 322.736176
960.466797 773.243408
960.495056 1218.218262
960.523254 1341.549561
960.551514 1017.728699
960.579712 489.380737
960.607971 23.204357
962.445557 429.901398
962.473877 871.974487
962.502197 1209.512207
962.530518 1226.47522
962.558838 871.918518
962.587158 373.670227
969.362305 351.452057
969.39093 1818.771362
969.419556 7594.87793
969.448181 19813.351562
969.476807 33260.765625
969.505432 39505.425781
969.534058 28910.128906
969.562683 15924.553711
969.591309 5032.375
969.619934 1232.047241
969.64856 159.964096
970.393372 313.765137
970.422058 2588.808594
970.450684 6734.700684
970.47937 11331.317383
970.508057 13396.291016
970.536682 10230.179688
970.565369 5543.085938
970.594055 1849.359619
970.622742 174.903687
973.381226 804.841125
973.409973 4186.623047
973.438782 12057.500977
973.46759 21223.931641
973.496399 27330.578125
973.525208 22570.863281
973.554016 13534.589844
973.582825 5294.094238
973.611572 1305.507812
973.640381 25.681337
974.389832 383.413086
974.41864 1703.043213
974.44751 5172.716797
974.476318 8829.09375
974.505188 10186.491211
974.534058 7099.909668
974.562866 3614.016602
974.591736 690.391052
974.620605 21.921244
975.400024 724.073486
975.428894 2409.969238
975.457764 9834.489258
975.486694 31294.498047
975.515564 55438.972656
975.544434 74164.132812
975.573364 60952.675781
975.602234 36822.5
975.631165 13502.488281
975.660034 3239.594971
975.688904 629.32428
975.717834 10.644235
976.411804 1.468329
976.440735 1123.358887
976.469666 5567.654785
976.498596 15218.061523
976.527527 25615.974609
976.556458 30046.519531
976.585388 21358.470703
976.614319 11551.15332
976.64325 3339.553223
976.67218 574.400696
976.701172 13.90106
985.442261 524.305176
985.471558 2188.18457
985.500916 4090.685059
985.530273 5279.686523
985.55957 4197.464355
985.588928 2490.792236
985.618286 1097.119385
985.647583 103.463928
986.41095 309.377319
986.440308 2045.084595
986.469666 6326.125
986.499084 11016.504883
986.528442 13782.932617
986.5578 11029.830078
986.587219 6315.567871
986.616577 2057.31958
986.645996 399.890015
986.675354 37.810509
987.381042 891.341553
987.410461 2730.321777
987.43988 9530.267578
987.469299 19766.09375
987.498718 30715.039062
987.528137 30993.330078
987.557556 20725.451172
987.586975 10095.791016
987.616455 2789.251709
987.645874 243.11055
988.382019 56.765072
988.411499 902.011108
988.440979 3030.561279
988.470459 6209.530762
988.499878 8801.832031
988.529358 8271.762695
988.558838 5213.687012
988.588318 2010.052734
988.617798 318.339691
988.647278 4.338368
990.447754 634.117859
990.477295 1296.635986
990.506836 1791.749634
990.536377 1754.865112
990.565979 1175.508545
990.59552 481.829376
990.625061 4.498202
1003.400757 664.15625
1003.430908 2465.529053
1003.460999 10012.182617
1003.49115 23157.332031
1003.521301 36393.566406
1003.551453 39129.6875
1003.581604 26578.832031
1003.611755 13487.525391
1003.641907 3871.25415
1003.672058 1059.997559
1003.702209 143.688965
1004.426208 773.665466
1004.456421 3518.10791
1004.486572 9371.951172
1004.516785 16091.911133
1004.546936 19544.902344
1004.577148 15222.785156
1004.607361 8684.345703
1004.637512 2675.025635
1004.667725 304.339996
1086.463623 16.96616
1086.497559 424.176605
1086.531616 937.603149
1086.565552 1243.335815
1086.599487 1106.213135
1086.633423 658.631897
END IONS
