BEGIN IONS
PEPMASS=487.15
CHARGE=1
MSLEVEL=2
SOURCE_INSTRUMENT=DI-ESI-qTof
FILENAME=gnps_GlaucolideA_pos_MplusNa.mgf
SEQ=*..*
IONMODE=Positive
ORGANISM=GNPS-LIBRARY
NAME=Glaucolide A M+Na
PI=Norberto Lopes
DATACOLLECTOR=Denise Silva
SMILES=O=C(C)OCC1=C([C@@H](OC(C(C)=C)=O)C[C@]2(OC(C)=O)C)[C@@](OC1=O)([H])[C@@H]3[C@@](O3)(C)CCC2=O
INCHI=InChI=1S/C23H28O10/c1-11(2)20(27)30-15-9-23(6,32-13(4)25)16(26)7-8-22(5)19(33-22)18-17(15)14(21(28)31-18)10-29-12(3)24/h15,18-19H,1,7-10H2,2-6H3/t15-,18-,19+,22+,23+/m0/s1
INCHIAUX=N/A
PUBMED=N/A
SUBMITUSER=rsilva
TAGS=
LIBRARYQUALITY=3
SPECTRUMID=CCMSLIB00000081474
SCANS=1
173.053406 357.0
185.087646 150.0
189.081894 216.0
199.068115 123.0
203.098373 250.0
213.085587 255.0
217.078415 273.0
231.093414 794.0
241.075378 155.0
249.104874 283.0
259.088837 917.0
277.099213 893.0
299.081909 128.0
313.098175 140.0
319.110596 300.0
341.092102 1035.0
359.103668 485.0
401.114685 279.0
427.124603 478.0
487.150116 1608.0
END IONS
