BEGIN IONS
PEPMASS=529.78
CHARGE=2
MSLEVEL=2
SOURCE_INSTRUMENT=LC-ESI-Orbitrap
FILENAME=f.Rolandoo1/20190519 Moroidin paper GNPS/[Ala9]-moroidin.mzXML;
SEQ=*..*
IONMODE=Positive
ORGANISM=GNPS-LIBRARY
NAME=[Ala9]-moroidin-[QLLVWRAH] M+2H
PI=Jing-Ke Weng
DATACOLLECTOR=Roland Kersten
SMILES=CC(C)C1C(C(NC(CC(C)C)C(NC(C(C)C)C(NC(C(NC(C(NCC(NC(CC2=CN3C=N2)C(NC(C)C(O)=O)=O)=O)=O)CCCNC(N)=N)=O)CC4=C3NC5=C4C=CC1=C5)=O)=O)=O)NC(C6NC(CC6)=O)=O
INCHI=
INCHIAUX=
PUBMED=
SUBMITUSER=Rolandoo1
TAGS=
LIBRARYQUALITY=3
SPECTRUMID=CCMSLIB00005435919
SCANS=1
84.040741 7.564291
84.041473 597.612183
84.042206 3597.532471
84.042938 12233.09375
84.043663 22498.412109
84.044395 31548.617188
84.045128 27307.841797
84.04586 16637.857422
84.046585 6711.561523
84.047318 1582.549072
84.04805 348.668793
84.233208 3.419281
84.23394 464.668274
84.234673 732.066345
84.235405 831.668335
84.236137 677.338684
84.23687 350.738403
84.536774 3.391743
84.537514 264.833374
84.538246 659.515198
84.538986 988.428223
84.539726 1023.791992
84.540459 742.487427
84.541199 342.632874
86.091637 210.779282
86.092392 3283.556152
86.093155 4838.452148
86.09391 15423.762695
86.094666 50741.074219
86.095428 104053.476562
86.096184 158251.59375
86.096939 158863.84375
86.097694 102860.0625
86.098457 50167.855469
86.099213 13943.69043
86.099968 3935.760986
86.100731 2675.489746
86.101486 1379.852661
86.102242 2215.641602
86.102997 165.007523
87.09716 20.252762
87.097931 644.922791
87.098701 1522.632935
87.099472 2361.517578
87.100243 2555.014893
87.101013 1971.006958
87.101784 1064.51709
87.102554 397.445587
90.253433 13.264806
90.25425 411.586182
90.255058 791.61084
90.255875 1013.271606
90.256683 917.768372
90.2575 560.557556
92.381454 46.311756
92.382294 737.286194
92.383133 1725.058838
92.38398 2195.348145
92.384819 891.706726
128.386368 68.308662
128.387741 465.314392
128.389114 818.604004
128.390503 968.804321
128.391876 843.028381
128.393265 498.937958
133.405029 101.795616
133.406494 632.667236
133.407944 996.499756
133.409409 1071.630493
133.410873 805.920837
133.412338 382.311432
147.52507 138.923065
147.526764 666.919067
147.528458 854.534363
147.530167 853.337219
147.53186 695.968384
147.533569 411.194611
158.780441 121.190697
158.782333 593.024963
158.784241 1128.321655
158.786133 1553.365356
158.788025 1923.056885
158.789932 2167.090576
158.791824 2531.79248
158.793716 2878.27832
158.795624 2884.991455
158.797516 2426.758545
158.799408 1717.332764
158.801315 1054.195312
158.803207 754.953796
158.805115 417.386383
163.034012 122.469963
163.035995 540.97052
163.037964 964.149231
163.039932 1097.274658
163.041916 823.909851
163.043884 344.448029
175.924408 207.846695
175.92662 688.720337
175.928833 913.222778
175.931046 924.534912
175.933258 715.587524
175.935471 335.248627
185.156067 354.974884
185.158463 1939.047974
185.160843 4980.021484
185.163239 9086.537109
185.165634 11787.148438
185.168015 9595.740234
185.17041 5396.228516
185.172791 2312.083008
185.175186 566.928406
186.334671 237.327896
186.337082 743.189697
186.339493 957.670349
186.341904 891.483521
186.344315 598.880615
186.346725 230.009018
186.689713 185.38829
186.692139 622.509216
186.694565 948.226685
186.696976 1012.273987
186.699402 761.622864
186.701813 318.375488
189.144516 216.862686
189.146973 634.625854
189.149445 812.233948
189.151917 816.152588
189.154373 632.642639
189.156845 289.284332
204.5271 234.429459
204.529861 678.680542
204.532639 976.084167
204.535416 1013.393188
204.538193 763.907593
204.54097 295.783813
208.631699 337.185089
208.634567 852.412415
208.637421 1078.945679
208.640274 1012.51709
208.643127 703.35437
208.645996 251.208649
213.150009 184.946472
213.152954 661.427429
213.155914 1318.661255
213.158859 1840.2948
213.161819 1860.234741
213.164764 1377.022827
213.167709 727.784058
213.17067 212.694122
231.898178 257.673065
231.901535 652.082764
231.904877 897.869324
231.908218 887.860779
231.911575 643.43811
231.914917 219.949387
269.423004 381.06424
269.427216 788.595398
269.431396 1027.403687
269.435577 964.138062
269.439789 615.103821
269.44397 146.204453
288.151093 631.852844
288.155731 1009.498108
288.16037 1068.836304
288.165009 863.507263
288.169647 528.499329
288.174286 104.144951
339.656555 283.447845
339.662476 979.161072
339.668427 1996.890747
339.674347 3812.615967
339.680298 3383.411133
339.686218 1778.865234
339.692169 810.667908
339.69809 28.601383
345.183929 446.371765
345.190002 1183.313232
345.196106 2123.164551
345.202179 4090.949951
345.208252 3588.441895
345.214325 1747.210205
345.220428 828.365112
345.226501 15.43887
353.674713 4.666903
353.681 708.2854
353.687317 1081.901489
353.693634 1186.887451
353.699921 910.061584
353.706238 424.373749
354.160828 3.71927
354.167145 464.803253
354.173462 1628.925049
354.17981 4205.158691
354.186127 6932.848145
354.192444 7970.777344
354.198761 5859.430176
354.205078 3193.141846
354.211395 832.213074
354.217712 7.611379
354.673309 8.039074
354.679626 838.51123
354.685974 1346.605225
354.692291 1536.287842
354.698639 1247.73938
354.704987 672.924866
354.990204 4.710658
354.996552 449.308838
355.002869 925.781555
355.009216 1337.939087
355.015564 1389.553833
355.021912 1006.162109
355.028259 453.547119
359.174591 9.205303
359.18103 438.670288
359.1875 2216.42749
359.193939 4172.114258
359.200409 5887.968262
359.206848 5172.609863
359.213318 3127.041992
359.219757 1260.333374
359.226227 517.753113
365.160797 19.211988
365.167419 734.020508
365.174042 1461.678833
365.180664 2006.655884
365.187256 1984.321533
365.193878 1429.942139
365.2005 712.481201
368.176697 14.556688
368.18338 433.078064
368.190094 1175.038086
368.196777 3541.142822
368.203491 5774.097168
368.210175 6269.311035
368.216888 4548.837402
368.223572 2162.892334
368.230286 842.574585
374.163757 19.168976
374.170593 393.179047
374.17746 947.270569
374.184326 1404.262451
374.191193 1487.432983
374.198059 1167.453125
374.204926 645.089172
389.177643 34.89146
389.184937 599.590576
389.1922 2384.063721
389.199493 6863.916016
389.206757 11096.402344
389.21405 12881.820312
389.221313 9304.537109
389.228607 4956.868164
389.235901 1232.697632
389.243164 249.460785
389.687744 81.809036
389.695038 918.033081
389.702332 1506.870117
389.709625 1897.124634
389.716919 1845.946655
389.724213 1355.415649
389.731506 685.456604
393.212769 93.395187
393.220154 966.398438
393.227539 1610.644897
393.234955 1855.634033
393.24234 1530.926758
393.249725 873.550293
393.257141 311.08316
395.179382 19.078007
395.186859 780.420105
395.194305 3259.647217
395.201752 6183.403809
395.209198 8813.664062
395.216644 8219.569336
395.224091 5263.474121
395.231537 2370.955566
395.238983 288.280792
400.681458 21.509798
400.689056 344.330383
400.696686 2156.023438
400.704285 5851.102051
400.711884 9734.241211
400.719482 11839.701172
400.727112 9323.475586
400.734711 5299.31543
400.74231 1898.459961
400.749908 412.085785
403.687103 101.025299
403.694794 1399.727905
403.702484 6029.753906
403.710175 16728.818359
403.717865 28364.386719
403.725555 35558.191406
403.733246 28413.939453
403.740936 16382.31543
403.748627 5982.065918
403.756348 1298.76001
403.764038 156.633865
404.048828 108.801498
404.056519 1128.841797
404.06424 2410.178467
404.07193 3300.886475
404.07962 3132.539795
404.087341 2052.385986
404.095032 835.203857
404.19519 64.486481
404.202881 702.637756
404.210602 2211.207031
404.218292 4236.337891
404.226013 5374.246094
404.233704 4322.726074
404.241425 2154.972168
404.249115 825.574707
407.193787 57.360828
407.201569 522.334839
407.209351 1294.874023
407.217133 3601.041992
407.224945 5914.496094
407.232727 7031.500977
407.240509 5209.151855
407.248322 2845.412109
407.256104 846.503357
407.263916 383.704315
409.667053 62.400429
409.674896 624.361572
409.68277 2990.024902
409.690643 8557.339844
409.698486 15433.935547
409.70636 21099.322266
409.714233 17282.570312
409.722076 10400.667969
409.72995 4332.147949
409.737823 1127.547485
409.745697 181.320297
410.178589 63.8923
410.186462 546.391418
410.194336 1063.396362
410.202209 1486.620483
410.210083 1553.732056
410.217987 1198.493774
410.225861 610.79718
414.681671 43.440212
414.689697 483.986786
414.697693 1992.657349
414.705719 4931.074219
414.713715 7279.659668
414.72171 7064.088867
414.729736 4406.825684
414.737732 1845.597046
414.745758 145.117508
415.186584 83.706497
415.194611 663.164246
415.202637 1279.399536
415.210663 1773.165283
415.218689 1803.566895
415.226715 1328.874023
415.234741 640.520081
423.177612 127.243546
423.185852 1016.579651
423.194122 2557.832275
423.202362 4775.697266
423.210632 5757.522949
423.218872 4606.595703
423.227142 2288.30542
423.235413 650.076416
423.673309 988.242371
423.68158 5175.430176
423.68985 12214.467773
423.69812 19836.390625
423.70639 24214.365234
423.714661 20906.541016
423.722931 13483.822266
423.731201 6671.254395
423.739471 2113.603516
423.747742 256.202332
424.186462 92.929459
424.194763 672.990845
424.203033 1373.518433
424.211334 1932.688477
424.219604 1979.231445
424.227905 1475.4552
424.236176 723.031311
424.717163 74.131523
424.725464 586.200195
424.733734 1470.251709
424.742035 2290.836426
424.750336 2430.833984
424.758636 1781.497437
424.766937 869.465271
424.775238 272.3284
428.67868 98.390388
428.687103 756.421814
428.695526 1870.462524
428.703949 3651.470215
428.712341 5024.689941
428.720764 4276.966797
428.729187 2437.934082
428.73761 860.128235
428.746033 272.389465
431.690582 120.360115
431.699097 774.18866
431.707581 1172.839233
431.716095 1283.391602
431.724609 1043.325562
431.733124 565.440552
437.723541 43.886951
437.732208 480.905792
437.740906 2114.788086
437.749603 4808.037598
437.75827 6224.560547
437.766968 5098.511719
437.775635 2810.205078
437.784332 922.399353
441.499207 90.082977
441.507996 570.044434
441.516785 941.695923
441.525574 1068.288208
441.534393 855.358093
441.543182 429.054352
443.210663 122.964844
443.219513 740.58606
443.228363 1327.072388
443.237213 1734.083252
443.246063 1738.431641
443.254913 1378.279419
443.263763 860.703125
443.272614 373.078278
450.700897 158.776093
450.709961 874.874878
450.719025 1432.378906
450.728119 1596.338257
450.737183 1268.812134
450.746246 638.04303
451.709656 140.831635
451.718781 1456.255859
451.727875 6514.516113
451.736969 16475.080078
451.746063 26608.640625
451.755188 31593.021484
451.764282 24196.3125
451.773407 13558.78125
451.782501 4694.000488
451.791595 1225.844604
451.80072 332.770081
452.219879 102.624702
452.229004 656.199524
452.238129 1747.408325
452.247223 3601.825439
452.256348 4703.00293
452.265472 4043.724609
452.274597 2379.181396
452.283722 839.255371
452.292847 244.999222
457.230865 180.260101
457.240143 978.468445
457.24939 1775.520752
457.258667 2307.793457
457.267944 2216.232666
457.277222 1564.593872
457.286499 706.858215
457.74118 164.418015
457.750458 832.394958
457.759766 1264.977905
457.769043 1334.536133
457.77832 1008.889282
457.787628 485.505402
459.18396 25.410378
459.193268 354.278229
459.202606 2296.331299
459.211945 9660.750977
459.221283 27031.851562
459.230621 48683.171875
459.239929 65336.917969
459.249268 57403.207031
459.258606 34659.1875
459.267944 14920.302734
459.277283 3756.023926
459.286591 627.949463
459.69754 65.323723
459.706879 672.55481
459.716248 3129.871582
459.725586 8284.873047
459.734924 14333.134766
459.744263 17044.605469
459.753632 12917.427734
459.76297 6954.872559
459.772308 2385.245117
459.781677 391.42215
460.230713 211.131577
460.240082 1485.044067
460.249451 4060.144531
460.25882 6546.598145
460.268158 7651.086914
460.277527 5931.654785
460.286896 3261.859619
460.296265 1085.960205
460.305634 301.942749
462.712311 131.961044
462.721741 731.414734
462.731201 1481.397949
462.740631 2060.974365
462.750061 2008.79541
462.759491 1319.070068
462.768951 479.852478
464.207123 149.046432
464.216614 817.622803
464.226074 1522.341553
464.235565 1955.759888
464.245056 1837.784302
464.254547 1263.498535
464.264038 553.224792
465.709167 84.115593
465.718719 522.540894
465.728241 1434.078613
465.737762 3068.554443
465.747314 4418.874512
465.756836 4157.555664
465.766357 2478.722412
465.775909 910.450806
465.785431 271.460632
466.205139 64.750221
466.214661 758.188171
466.224213 2838.990479
466.233765 6022.97168
466.243317 8909.298828
466.252869 9671.950195
466.26239 6686.05957
466.271942 3178.996094
466.281494 799.979736
471.21814 241.655533
471.227844 1653.51355
471.237549 5553.188965
471.247253 11828.722656
471.256958 17086.515625
471.266632 16599.654297
471.276337 10553.15918
471.286041 4879.646484
471.295746 1288.835205
471.30545 129.760696
471.732635 199.895813
471.74234 1007.446411
471.752075 1742.222412
471.76178 2119.076904
471.771484 1851.535156
471.781219 1126.948853
471.790924 402.838959
472.705658 138.465149
472.715393 837.418396
472.725159 2295.11377
472.734894 4661.101562
472.744659 6476.043945
472.754395 6138.64209
472.76413 3753.359131
472.773895 1460.813232
472.78363 436.17099
473.183533 156.662338
473.193298 915.559265
473.203064 3100.591553
473.21283 10337.578125
473.222595 23691.966797
473.232361 36147.984375
473.242126 39497.175781
473.251862 28095.373047
473.261627 14664.664062
473.271393 4435.266602
473.281158 1089.075317
473.290924 340.009003
473.701263 356.256836
473.711029 2058.353027
473.720795 5294.958496
473.730591 8957.063477
473.740356 10679.973633
473.750153 8681.217773
473.759918 4984.868164
473.769684 1989.312012
473.77948 432.558502
474.229614 193.412552
474.23941 1375.192993
474.249207 3803.160889
474.259003 6066.322266
474.268768 6840.085938
474.278564 4951.239746
474.288361 2651.002197
474.298157 874.018433
474.307953 309.168976
476.233612 171.878662
476.243469 815.660095
476.253326 1281.730591
476.263184 1350.207153
476.273041 1008.217407
476.282898 471.534607
479.233673 175.294754
479.243622 759.530151
479.253571 1048.011841
479.263519 1116.712158
479.273468 948.839783
479.283417 537.138794
480.200073 189.48439
480.210052 1662.521484
480.220032 6785.415527
480.230011 16190.306641
480.23999 25725.109375
480.249969 30294.720703
480.259949 23807.146484
480.269928 13534.575195
480.279907 5165.921875
480.289886 1098.508789
480.709351 19.513029
480.71936 554.40033
480.72934 2491.768311
480.739349 4754.296875
480.749329 6269.653809
480.759338 5345.721191
480.769318 3063.196533
480.779327 891.127197
480.789307 199.086777
485.207947 124.217033
485.218079 1319.158936
485.228241 6133.834473
485.238373 14920.745117
485.248505 24167.158203
485.258636 27363.341797
485.268768 20715.222656
485.2789 11186.969727
485.289032 4153.024414
485.299194 1031.211914
485.309326 70.792953
485.715088 163.733521
485.72522 927.580383
485.735382 2380.880615
485.745544 4503.445801
485.755676 6034.92627
485.765839 5342.006348
485.776001 3185.704102
485.786133 1338.6073
485.796295 328.114075
488.231964 119.523552
488.242188 610.120972
488.252441 1254.809448
488.262665 1748.125488
488.272888 1732.210205
488.283112 1214.582397
488.293365 496.974854
494.219543 103.398872
494.22995 1004.437134
494.240387 3348.680908
494.250793 6320.766602
494.2612 8125.740723
494.271637 6799.89209
494.282043 3886.910156
494.29248 1530.818604
494.302887 338.715424
494.730438 196.085678
494.740845 888.167542
494.751282 1566.452393
494.761719 1915.80188
494.772156 1670.990845
494.782593 1018.352966
494.79303 363.766815
498.170715 165.246078
498.181274 707.312805
498.191803 1086.939819
498.202362 1184.052734
498.212891 969.981995
498.22345 528.452637
507.24411 230.496521
507.254944 925.674377
507.265778 1368.540039
507.276611 1443.34021
507.287445 1131.026123
507.298279 545.86084
515.722595 265.729706
515.733704 1595.26709
515.744812 5939.424316
515.75592 17451.722656
515.767029 35570.414062
515.778137 51234.671875
515.789246 51378.222656
515.800354 34209.988281
515.811462 16858.394531
515.822571 4928.223145
515.833679 1282.186157
515.844788 311.532715
516.233826 138.290207
516.244934 1087.394287
516.256104 4298.640625
516.267212 9315.138672
516.27832 14023.236328
516.289429 13815.972656
516.300598 9142.913086
516.311707 4277.424805
516.322815 1313.584961
516.333923 181.75354
520.73407 290.296112
520.7453 1360.03125
520.756592 2785.418945
520.767883 4367.921387
520.779114 4827.301758
520.790405 2632.466064
520.801697 1129.906494
520.812927 226.409592
529.681641 120.809395
529.693176 614.630127
529.704712 4072.263428
529.716309 11188.704102
529.727844 22748.896484
529.739441 77182.1875
529.750977 237981.78125
529.762512 511415.46875
529.774109 760350.9375
529.785645 804286.0625
529.797241 565797.5
529.808777 293378.53125
529.820374 93351.375
529.831909 27445.480469
529.843506 12547.857422
529.855042 7884.29541
529.866638 1608.647095
530.190613 217.162872
530.202148 1231.938477
530.213745 3024.251221
530.225342 5565.286133
530.236877 14978.658203
530.248474 50246.972656
530.260071 120917.8125
530.271606 200246.671875
530.283203 241667.03125
530.2948 193967.53125
530.306396 110452.257812
530.317932 43661.433594
530.329529 12328.760742
530.341125 4919.218262
530.352661 3627.553467
530.364258 1997.073242
530.375854 1288.138916
530.387451 383.751953
552.716187 196.909271
552.728516 737.187195
552.740845 1207.131104
552.753174 1297.997803
552.765503 946.779968
552.777832 381.549133
635.162415 357.986115
635.177551 965.561401
635.192749 1741.501587
635.207947 2241.483398
635.223145 1958.452148
635.238281 1364.605103
635.253479 851.303467
635.268677 336.139374
690.301086 392.367493
690.318298 1074.095337
690.33551 1570.678345
690.352722 1592.452026
690.369934 1138.270752
690.387085 372.09436
701.317322 405.856964
701.334961 926.882019
701.352539 1179.924316
701.370178 1105.363159
701.387817 732.410767
701.405396 221.994324
707.325806 350.503815
707.343628 857.947266
707.36145 1162.105591
707.379333 1111.84668
707.397156 724.894897
707.414978 212.161301
744.224426 423.498627
744.243652 929.984497
744.262878 1136.829956
744.282166 994.840942
744.301392 615.48407
744.320679 169.819611
757.292603 456.66983
757.312378 997.370239
757.332092 1283.029297
757.351868 1232.844849
757.371643 882.328003
757.391418 327.871796
818.312317 280.798706
818.334534 1324.312256
818.35675 3767.665283
818.378906 7824.237793
818.401123 10630.466797
818.42334 9269.185547
818.445496 5377.372559
818.467712 2085.544189
818.489929 305.931641
819.356567 604.905518
819.378784 1247.918091
819.401062 1560.279785
819.423279 1403.72644
819.445557 882.271057
819.467773 282.594208
846.289734 287.606293
846.313049 874.095825
846.336426 2964.943359
846.359741 6949.786133
846.383118 11680.138672
846.406433 13849.336914
846.42981 11230.130859
846.453125 6476.07666
846.476501 2501.060303
846.499878 332.601929
847.364563 440.323059
847.388 974.034302
847.411377 1252.563965
847.434753 1129.794556
847.45813 730.15918
847.481567 220.657745
870.95459 344.615753
870.978943 779.770691
871.003357 1063.335205
871.02771 1026.885254
871.052063 692.486328
871.076477 151.675476
917.356567 322.224457
917.382935 1569.480225
917.409241 4808.351074
917.435608 9350.261719
917.461975 13434.52832
917.488281 13167.237305
917.514648 9046.279297
917.541016 4225.612793
917.567383 933.587402
917.59375 25.305033
931.400269 765.10968
931.427185 2536.251221
931.454163 4520.697266
931.481079 5782.883789
931.508057 4726.038574
931.535034 2796.320801
931.562012 857.313354
931.588928 94.773628
932.425293 462.005035
932.452332 1004.287109
932.479309 1357.475464
932.506348 1327.857544
932.533325 947.408752
932.560303 275.633301
945.327759 377.428406
945.355347 1206.985474
945.382874 3844.433105
945.410461 10418.545898
945.438049 18827.095703
945.465576 24435.160156
945.493164 20765.619141
945.520752 12592.500977
945.548279 4764.96582
945.575867 841.170593
946.375916 474.348969
946.403564 1791.064087
946.431152 3773.573975
946.45874 5733.586426
946.486389 5338.958984
946.513977 3331.061279
946.541626 1181.458374
946.569214 288.959656
959.344604 321.979309
959.372803 1370.666748
959.40094 4524.844238
959.429138 10633.601562
959.457336 18363.537109
959.485535 22442.513672
959.513672 18360.935547
959.54187 10420.135742
959.570068 3777.23291
959.598267 314.82309
960.416199 807.846741
960.444397 1850.929565
960.472656 2635.654541
960.500854 2674.345459
960.529114 1939.60791
960.557312 814.217407
960.585571 107.013153
1002.173645 503.207642
1002.203735 973.736877
1002.233826 1181.514404
1002.263916 1013.697144
1002.294006 599.488159
1002.324097 84.037254
1077.262939 578.826233
1077.296509 1103.145142
1077.330078 1336.901611
1077.363525 1125.471069
1077.397095 620.624329
1077.430664 57.955711
END IONS
