BEGIN IONS
PEPMASS=823.315
CHARGE=1
MSLEVEL=2
SOURCE_INSTRUMENT=LC-ESI-Orbitrap
FILENAME=Cpd_7_823.mgf
SEQ=*..*
IONMODE=Positive
ORGANISM=GNPS-LIBRARY
NAME="2,5,8,9-tetracetoxy-15-hydroxy-3-benzoyloxyacetoxy-7-isobutyroyloxy-14-oxojatropha-6(17),11E-diene" M+Na
PI=LITAUDON/TOUBOUL
DATACOLLECTOR=Esposito
SMILES=C[C@@]1(OC(C)=O)C[C@](O)(C([C@@H](C)/C=C/C(C)(C)[C@H](OC(C)=O)[C@H](OC(C)=O)[C@@H](OC(C(C)C)=O)C([C@@H]2OC(C)=O)=C)=O)[C@]2([H])[C@H]1OC(COC(C3=CC=CC=C3)=O)=O
INCHI=
INCHIAUX=
PUBMED=N/A
SUBMITUSER=lfnothias
TAGS=Jatrophane ester[Molecular Family]
LIBRARYQUALITY=1
SPECTRUMID=CCMSLIB00000840540
SCANS=1
223.662933 8468.205078
227.037338 9182.21875
231.827271 11356.042969
241.240631 11601.533203
253.789383 10758.425781
256.344452 8614.783203
261.277863 8580.283203
265.160065 32179.847656
272.405487 9324.578125
283.168793 32426.710938
293.155212 47896.476562
311.165558 71316.039062
325.181793 14195.638672
345.588348 9596.894531
353.173096 15257.941406
371.183258 21173.273438
375.160004 12696.185547
385.054688 9457.351562
385.237457 9925.148438
393.168976 35396.335938
406.494904 9977.662109
431.207977 17607.169922
435.180237 62205.664062
450.378906 9121.802734
453.187256 89238.539062
463.207428 24980.363281
473.197784 11825.332031
495.195801 27947.919922
501.246521 14403.96875
523.230713 259230.90625
547.17688 8859.589844
555.225159 54972.402344
564.109924 13493.796875
569.802429 9408.695312
583.179993 14750.947266
583.254517 1869303.25
590.951599 10726.076172
595.471863 8823.359375
639.500244 14652.839844
642.197388 14310.398438
642.246582 18093.033203
642.271179 10416.744141
642.344971 18199.269531
642.369629 13258.798828
642.44342 19151.277344
642.492676 19584.136719
642.517273 17840.685547
642.54187 20158.705078
642.566528 19263.75
642.591125 18101.257812
642.615723 21548.291016
642.640381 21678.279297
642.664978 24635.251953
642.689636 25583.320312
642.714233 23603.003906
642.738892 28807.75
642.763489 29904.277344
642.788147 27072.695312
642.812744 33932.421875
642.837402 30254.820312
642.862061 39640.402344
642.886658 34550.617188
642.911316 47608.710938
642.935974 35710.417969
642.960571 51132.777344
642.985229 53120.304688
643.009888 48843.804688
643.034485 67467.828125
643.059143 59910.339844
643.083801 77027.078125
643.108459 83340.601562
643.133118 81199.382812
643.157776 105318.335938
643.182434 90786.53125
643.268738 15226608.0
643.355042 91750.914062
643.3797 94386.171875
643.404358 101971.070312
643.429016 85565.585938
643.453674 76643.914062
643.478333 68089.796875
643.503052 58459.566406
643.52771 64039.414062
643.552368 47180.503906
643.577026 51089.042969
643.601746 50449.820312
643.626404 30614.78125
643.651062 40500.71875
643.675781 36718.785156
643.700439 31420.6875
643.725159 34695.546875
643.749817 32062.3125
643.774536 26013.181641
643.799194 24547.439453
643.823914 26855.544922
643.848572 26103.482422
643.873291 23543.056641
643.897949 19206.962891
643.922668 25326.666016
643.947388 20811.736328
643.972046 18567.556641
643.996765 18676.669922
644.021484 16459.214844
644.070862 20793.763672
644.095581 18597.949219
644.194397 16251.099609
644.219116 12860.050781
647.083069 13266.693359
653.221619 11539.855469
703.276428 19302.193359
705.282104 13319.564453
705.593567 11032.101562
735.264771 100104.046875
753.355591 10688.863281
763.297424 2050374.875
763.440918 14571.580078
END IONS
