BEGIN IONS
PEPMASS=1146.61
CHARGE=1
MSLEVEL=2
SOURCE_INSTRUMENT=LC-ESI-qTof
FILENAME=3500_1146.mzXML
SEQ=*..*
IONMODE=Positive
ORGANISM=GNPS-LIBRARY
NAME=Stenothricin E M+H
PI=Dorrestein
DATACOLLECTOR=Peng
SMILES=CC1OC(CN(C(C(NC(C(NC(C(NC(/C(NC(C(NC(C(NC(C1NC(C(NC(CC(CCCCCCCCC(C)CC)=O)=O)CS(O)(=O)=O)=O)=O)CO)=O)CCN)=O)=C/C)=O)C(C)C)=O)CO)=O)CCCCN)=O)C)=O
INCHI=InChI=1S/C50H87N11O17S/c1-8-30(5)18-14-12-10-11-13-15-19-32(64)24-39(65)53-38(28-79(75,76)77)47(71)60-42-31(6)78-40(66)25-61(7)50(74)35(20-16-17-22-51)56-46(70)37(27-63)57-48(72)41(29(3)4)59-43(67)33(9-2)54-44(68)34(21-23-52)55-45(69)36(26-62)58-49(42)73/h9,29-31,34-38,41-42,62-63H,8,10-28,51-52H2,1-7H3,(H,53,65)(H,54,68)(H,55,69)(H,56,70)(H,57,72)(H,58,73)(H,59,67)(H,60,71)(H,75,76,77)/b33-9-
INCHIAUX=N/A
PUBMED=N/A
SUBMITUSER=y6peng
TAGS=
LIBRARYQUALITY=2
SPECTRUMID=CCMSLIB00000075073
SCANS=1
331.191101 4.873447
338.600464 2.160695
340.164948 6.544364
342.290924 7.140004
344.286255 7.025801
349.405853 4.94155
354.563751 2.620191
356.20224 9.572966
363.073914 4.989265
370.330261 1.486925
375.223755 0.99127
380.50705 2.1951
381.165222 8.95101
382.376221 2.529974
383.198822 4.122756
385.22995 0.863148
386.764679 4.314043
390.184814 1.50965
392.098877 1.354804
393.210175 2.15994
398.130219 2.477866
401.468811 4.11681
404.329651 32.723206
405.227448 5.520287
407.034668 1.026578
408.176178 10.935986
409.05014 4.756104
411.347839 19.577179
412.284576 2.951774
414.106018 4.740481
416.339142 4.036095
417.44632 3.819395
421.472778 4.356044
422.5961 5.896155
425.437988 1.238141
426.5849 4.680736
428.269653 16.881247
429.25351 6.093496
431.255066 3.141114
432.509338 6.104779
433.319916 3.766458
436.287781 6.130402
439.622406 0.977662
443.329712 15.836681
445.218414 13.08961
448.406311 3.912065
449.320831 14.729793
450.100739 5.823491
453.579834 1.30287
455.402283 1.616155
456.033356 3.506947
457.121216 3.400008
462.288635 4.611243
463.238983 9.586237
464.259277 7.190366
466.08429 2.484876
467.218231 5.640038
468.947632 2.851668
470.35556 34.148769
472.152313 3.23038
473.259064 3.649423
474.292297 7.098345
475.619507 9.385356
478.226624 6.116723
479.223145 68.883224
480.194641 14.568567
481.229492 5.190043
482.259613 8.886205
484.513794 16.95108
487.174103 22.93144
488.152283 3.598684
489.61557 1.381156
491.135498 25.380619
492.412964 5.995837
493.205139 1.402445
494.552765 10.574298
497.222443 27.932417
499.27771 4.503296
500.395996 1.381347
501.417053 7.213196
502.422119 1.061521
506.265076 7.212503
508.109924 45.886375
510.424103 14.843576
511.314514 18.344362
513.32959 6.549458
514.240234 17.044319
518.497559 2.190443
519.267517 9.229053
519.891357 3.839986
521.384155 7.168438
524.455688 6.02627
526.402344 4.564322
527.226868 4.6373
528.306641 6.642795
530.527649 3.160687
532.751831 3.274052
534.365112 2.229253
535.342407 13.936096
536.332642 18.172398
537.400391 2.541317
538.181213 2.16083
539.358826 31.08614
541.42865 2.589285
542.26001 1.644352
543.36792 4.03091
544.43396 15.260295
545.355652 12.47926
546.096558 2.061399
550.699341 6.693251
551.339417 9.387589
552.038025 7.525003
553.466187 7.903265
554.173828 19.164635
555.552002 28.737377
556.48053 26.859497
557.925964 4.047262
558.986084 3.506947
562.282959 32.203903
563.06189 9.879517
565.373169 12.101261
566.387512 3.421962
567.32373 5.14501
568.365234 4.090024
569.416138 2.229228
571.466064 39.883461
572.308594 17.846113
573.286377 57.275391
574.125732 28.628819
575.561096 8.670938
576.334839 6.100953
577.276611 2.135621
578.353577 27.696144
579.351562 4.75345
580.233521 99.580223
583.064819 2.467511
584.344421 11.039201
587.309692 9.103691
589.682495 8.987404
590.392334 77.840332
591.299805 7.127365
594.420776 4.962114
595.47522 13.782687
596.3125 1.758672
597.160156 1.762585
598.446777 14.379219
600.360474 3.595759
601.001343 6.593246
607.466919 32.634781
608.327759 34.65889
611.129089 8.966263
612.18457 5.173963
613.322876 70.062187
614.375488 5.911285
615.335205 1.014715
618.53833 1.39202
619.632751 10.219859
621.477295 4.038057
622.460083 3.226748
625.493896 34.72385
626.44989 2.416028
627.457886 5.421347
631.462463 62.451946
632.460815 2.972492
633.244019 14.679057
634.526611 5.711183
637.341309 3.800519
638.356323 23.026924
639.216309 12.49186
640.227173 3.211668
642.323792 53.747307
643.292786 49.163208
644.264526 15.875725
645.267578 8.586535
646.531677 7.779894
648.03833 6.95825
649.1427 19.037947
650.37738 31.462643
651.200684 7.582936
653.242737 4.893481
654.168762 8.25296
655.062683 2.408014
656.141479 14.395058
657.384033 13.211876
659.212646 25.839905
660.341309 229.381226
661.273682 199.94725
662.322205 24.622986
663.043823 8.888896
663.668945 16.514091
665.221863 2.70533
666.243896 12.094635
667.304688 7.499414
669.552856 9.60527
671.770874 8.032202
672.695312 2.675029
674.262573 1.892494
676.176758 11.361569
677.295654 30.578329
678.261169 11.545929
679.241943 329.080963
680.339966 75.65123
683.371033 8.768044
684.523621 10.054418
686.544678 13.429892
688.051514 5.867048
689.485718 6.522705
690.549316 14.005994
691.388794 13.683251
694.152588 7.864699
695.040588 7.583135
696.538574 27.87472
697.792725 12.298543
698.515259 33.598362
700.009949 8.582417
702.458252 6.008825
703.160278 16.578377
704.360474 66.16124
706.247498 34.101326
707.398193 46.861408
708.441162 47.083786
711.544434 0.94339
712.27832 22.250311
713.078125 2.990297
714.27417 116.585144
715.352173 13.690456
718.331238 2.717534
720.314453 17.307547
721.311768 13.488461
723.499512 46.853401
725.308838 174.750046
726.294617 32.05896
728.639771 0.950409
730.253418 55.792809
731.317566 180.021912
732.30896 23.146408
733.089966 6.856735
734.404358 2.487162
735.480225 3.203262
737.433777 11.75259
738.307739 5.193607
739.338257 22.248463
740.129333 8.502539
740.883179 3.455976
742.229431 14.530847
743.429321 674.021118
744.50708 9.311316
745.344421 13.216387
746.232056 1.762698
747.482117 27.953793
748.42749 36.985168
749.350647 126.616577
750.334961 5.118489
755.304871 8.273256
757.531616 21.345371
759.075928 6.362492
760.56366 43.194721
761.32196 21.189592
763.320435 63.152161
766.328186 75.897186
767.476807 4.801294
768.484863 3.630051
769.338867 3.278946
770.416443 13.439095
771.487732 9.858132
773.226685 23.150806
774.600586 3.044717
777.513367 28.991997
778.550781 3.688394
779.458557 6.105702
782.157715 4.18925
783.44458 4.132209
784.859985 1.214206
787.214844 42.887535
788.580933 10.501037
789.578003 8.967287
790.408691 8.566214
791.483521 18.135252
795.330627 206.141464
796.270447 6.627573
797.172485 3.78465
799.125732 1.607953
803.306335 79.277481
804.29364 46.250626
805.380493 62.099228
806.374756 3.32913
807.819763 3.083331
808.478394 5.972577
811.290161 6.774706
812.326782 18.613325
814.339478 83.741333
815.407349 14.643888
816.511719 16.009554
819.51416 10.527547
820.276733 1.857073
823.298096 9.537387
824.413574 70.518524
825.659546 8.778477
826.428955 4.207266
827.372681 3.202297
828.622437 19.329035
829.554077 25.250299
830.264893 68.179398
831.370728 30.391218
832.361328 183.752319
833.336792 15.181588
835.251709 5.249131
836.443604 2.131918
837.529541 6.652018
840.277344 22.342266
841.455322 41.325504
842.356812 138.054459
843.393066 8.433599
845.020752 11.379076
846.511963 10.318409
847.337524 55.866779
848.360229 81.459618
849.403076 139.991074
850.492798 44.197777
851.505859 28.882357
856.333618 12.908731
858.297241 1362.888062
859.404541 633.808716
860.267334 70.860352
861.782959 4.4842
862.39624 29.38998
863.558472 23.213966
865.251831 280.735901
866.294067 20.550966
867.489136 3.025741
868.399292 7.002306
870.468506 13.004555
871.466187 6.360763
872.390381 21.146557
873.608521 12.786896
874.496582 12.522429
876.313477 1280.18042
877.314575 603.98468
878.282349 42.106438
880.144287 13.994021
881.599976 3.96045
884.181519 15.443916
885.229614 6.89823
886.470459 14.73196
887.366821 10.870414
888.399292 12.739863
890.365845 46.877193
891.47229 10.370603
892.694702 17.715126
894.289917 7426.596191
895.396606 142.432617
896.48999 29.939129
898.288086 2.62358
899.191162 1.482549
900.068848 2.012945
901.42749 20.2337
902.288086 52.375145
903.407104 42.228996
904.693237 2.682025
906.006592 10.561298
907.149414 22.27306
908.371338 186.488312
909.392334 18.292332
911.365356 13.761673
912.070923 6.184431
912.747559 3.704479
913.394531 139.496857
914.591187 14.699131
916.160889 5.655434
917.120972 42.233326
917.732178 38.799889
919.23938 11.695425
921.303955 3.656466
925.224487 8.988726
925.870483 6.269153
927.178711 7.37236
929.102417 37.513603
929.705688 8.302977
930.905029 37.851841
931.512573 240.842499
932.632446 10.164009
935.350464 9.375084
936.74292 4.831285
938.360229 3.954209
939.982178 7.751937
940.932129 2.71766
942.56311 2.496808
943.341553 2.279136
946.478638 40.390736
947.297241 3.325071
949.418701 10.354686
950.305908 6.181278
955.48938 18.323816
956.296875 23.968901
957.488403 16.430464
959.401733 26.284157
962.774048 10.607908
963.740967 12.795823
964.604004 21.680649
965.500854 7.776465
966.377563 2.451833
968.282471 9.700939
971.250732 22.762785
972.141968 22.14155
973.27124 53.007187
975.38501 35.025013
976.110596 4.498973
977.404785 28.302275
978.320312 2.276733
980.158203 1.802759
983.395386 13.167029
984.527588 4.376447
986.609375 3.939381
989.099365 0.600356
992.319092 2.18628
993.230103 6.184689
994.288452 4.261193
995.435059 6.113531
1000.080811 19.20763
1000.89856 17.902515
1004.390503 4.376774
1005.931519 2.834386
1007.782227 1.835006
1010.516235 5.45586
1011.141235 3.102328
1012.293701 12.570741
1014.315552 5.605285
1018.284668 73.42598
1019.601074 50.147301
1024.76123 6.472368
1027.454712 3.056187
1028.574951 3.673494
1029.413696 20.643213
1030.54187 10.99609
1032.72583 7.076706
1033.334839 1.765568
1035.336792 2.879138
1037.773193 8.073121
1038.37561 0.862446
1039.136963 7.540133
1040.881592 6.344296
1041.496338 12.373535
1042.390015 3.05149
1043.497314 7.290537
1044.953735 1.273303
1046.365356 36.812096
1047.460571 185.39209
1050.396729 8.935753
1056.521362 11.163314
1057.446045 37.988083
1058.793457 10.536481
1059.61438 8.03529
1060.69458 1.608451
1062.380249 3.059455
1064.456909 57.591133
1065.532715 11.919449
1066.442993 12.097569
1067.478149 17.120525
1068.442139 5.198582
1070.637451 3.135583
1071.367432 13.545151
1072.251831 6.198413
1073.328003 4.821965
1076.223145 20.986036
1078.825073 4.636357
1081.38147 53.905148
1082.62146 55.668602
1083.458008 73.261169
1084.454346 42.448853
1085.385864 16.352379
1087.265869 6.295123
1089.311401 25.587347
1091.569458 8.310053
1092.682251 25.080023
1093.599976 20.620949
1094.335083 14.612017
1098.82251 30.610167
1099.432739 124.814232
1100.445435 48.04744
1101.421021 224.882263
1102.516113 23.780506
1103.268433 72.087852
1104.623291 10.077275
1108.518555 18.806139
1110.445435 1376.858032
1111.337036 759.661743
1112.382568 52.45731
1113.223877 15.645306
1114.459595 8.666361
1117.342285 726.470703
1118.481079 86.210266
1119.397705 15.804655
1123.872559 21.689354
1124.567871 11.323057
1126.348145 36.449104
1127.800659 261.961884
1128.478516 2065.176758
1129.455566 697.699829
1130.62854 27.846729
1146.650024 9.011364
1148.351562 3.096801
1149.259644 3.953485
END IONS
