BEGIN IONS
PEPMASS=859.449
CHARGE=0
MSLEVEL=2
SOURCE_INSTRUMENT=LC-ESI-qTof
FILENAME=f.mice/SC_-Fe_Anionenaustauscher_Masterarbeit/140120_Probe16_2_neu.mzXML;
SEQ=*..*
IONMODE=Positive
ORGANISM=GNPS-LIBRARY
NAME=Tunicamycin D M+H
PI=Bandow
DATACOLLECTOR=Senges
SMILES=CC(C)CCCCCCCCCCCC=CC(=O)NC1C(C(C(OC1OC2C(C(C(C(O2)CO)O)O)NC(=O)C)CC(C3C(C(C(O3)N4C=CC(=O)NC4=O)O)O)O)O)O
INCHI=1S/C40H66N4O16/c1-21(2)15-13-11-9-7-5-4-6-8-10-12-14-16-26(48)42-29-33(53)30(50)24(57-39(29)60-38-28(41-22(3)46)32(52)31(51)25(20-45)58-38)19-23(47)36-34(54)35(55)37(59-36)44-18-17-27(49)43-40(44)56/h14,16-18,21,23-25,28-39,45,47,50-55H,4-13,15,19-20H2,1-3H3,(H,41,46)(H,42,48)(H,43,49,56)/b16-14+/t23-,24-,25-,28-,29-,30+,31-,32-,33-,34+,35-,36-,37-,38-,39+/m1/s1
INCHIAUX=
PUBMED=
SUBMITUSER=mice
TAGS=
LIBRARYQUALITY=3
SPECTRUMID=CCMSLIB00003739960
SCANS=3181
87.27224 7.0
96.059456 28.0
98.072296 14.0
108.054398 18.0
112.510292 12.0
113.038795 25.0
120.089005 10.0
123.116997 12.0
123.121841 12.0
126.065018 47.0
126.998039 48.0
138.062256 199.0
144.071411 44.0
164.072525 15.0
167.072189 30.0
167.970627 14.0
168.066818 311.0
169.058685 18.0
169.070053 44.0
182.083267 44.0
186.075348 394.0
186.772751 21.0
187.089096 17.0
187.172699 7.0
204.088669 648.0
205.087769 67.0
216.521286 7.0
233.231873 30.0
268.251648 25.0
317.082397 24.0
323.245514 13.0
330.244965 38.0
334.263458 203.0
334.463043 12.0
334.598785 22.0
335.253937 100.0
335.277924 28.0
336.269867 22.0
349.600342 20.0
352.10257 92.0
353.11087 12.0
378.498169 14.0
388.250946 27.0
388.276764 31.0
400.247284 21.0
406.278717 27.0
451.040131 14.0
455.268524 13.0
457.899048 12.0
463.869049 8.0
470.492981 16.0
472.236969 24.0
472.265411 11.0
472.284363 8.0
473.262085 26.0
490.279205 232.0
491.285004 87.0
491.585022 13.0
491.981934 25.0
492.301544 9.0
493.280365 15.0
494.42511 8.0
499.036987 7.0
500.286041 14.0
502.769318 35.0
503.014038 23.0
505.03302 15.0
509.290009 7.0
514.039856 7.0
516.269287 19.0
526.296204 121.0
527.268127 39.0
527.308228 15.0
529.455688 14.0
532.241882 21.0
542.462708 17.0
544.284241 16.0
544.324951 13.0
554.526917 42.0
570.085754 53.0
584.286438 21.0
585.299927 22.0
591.31427 15.0
593.279846 14.0
601.313721 7.0
602.191833 16.0
602.299011 458.0
602.395447 6.0
603.006348 14.0
603.167114 25.0
603.295837 450.0
603.488892 8.0
604.218323 20.0
604.304199 35.0
604.347107 12.0
605.302612 14.0
620.280579 34.0
620.324097 11.0
622.326355 16.0
627.160217 7.0
627.947632 14.0
630.027893 10.0
631.310547 15.0
632.605591 11.0
633.627136 9.0
633.704102 17.0
634.451599 8.0
634.528564 11.0
636.443481 13.0
637.170532 9.0
637.368958 37.0
637.468079 11.0
637.677551 12.0
637.842896 12.0
638.16272 107.0
638.206848 89.0
638.250977 155.0
638.30603 10866.0
638.372253 32.0
638.405334 10.0
638.427429 12.0
638.438416 12.0
638.482544 29.0
638.526672 25.0
638.570862 24.0
638.681152 21.0
638.72522 11.0
638.846619 15.0
638.879761 11.0
639.023193 11.0
639.122559 15.0
639.23291 50.0
639.310181 4210.0
639.398499 14.0
639.43158 19.0
639.519958 14.0
639.619263 46.0
639.851135 15.0
639.87323 21.0
640.03894 13.0
640.237732 27.0
640.315063 966.0
640.447632 12.0
640.646484 7.0
640.723816 38.0
640.779114 31.0
640.955872 12.0
641.309631 156.0
642.017395 28.0
642.293945 8.0
643.223633 18.0
644.242676 21.0
645.195984 29.0
646.727112 17.0
648.015564 10.0
648.682556 12.0
651.286987 76.0
653.584106 8.0
656.32135 2538.0
656.388367 30.0
656.421936 15.0
656.477905 19.0
656.813477 20.0
656.981323 8.0
657.328247 1138.0
657.675293 45.0
657.888 13.0
658.190369 18.0
658.324768 293.0
659.322083 59.0
659.355713 32.0
660.342529 13.0
660.421082 8.0
661.251526 8.0
667.992981 12.0
679.346497 10.0
689.12146 11.0
709.229736 10.0
713.199768 13.0
726.340759 22.0
727.093994 7.0
735.842957 8.0
735.854797 8.0
739.696716 23.0
748.353821 14.0
755.644531 28.0
755.716492 10.0
761.210999 18.0
763.127319 11.0
763.272095 16.0
767.233215 7.0
777.193054 35.0
782.31311 18.0
783.045898 37.0
798.378357 10.0
800.303833 11.0
803.134521 12.0
803.20874 11.0
803.22113 11.0
805.350647 31.0
819.061218 24.0
820.186096 13.0
820.623718 18.0
821.124023 11.0
831.061707 22.0
832.484436 13.0
838.604675 24.0
839.059875 6.0
841.350342 138.0
841.375671 96.0
842.262268 26.0
842.351013 63.0
842.376343 59.0
842.427063 17.0
843.352295 61.0
843.377625 59.0
843.580444 13.0
848.11322 26.0
855.196716 23.0
858.250732 18.0
858.301941 7.0
858.353027 10.0
858.877502 10.0
858.928711 7.0
859.159058 26.0
859.197449 14.0
859.248596 45.0
859.27417 22.0
859.36377 1447.0
859.440552 65.0
859.58136 8.0
859.619751 21.0
859.670959 7.0
859.79895 27.0
860.119019 44.0
860.170227 29.0
860.272644 33.0
860.311096 63.0
860.375122 698.0
860.464783 11.0
860.5672 35.0
860.605591 61.0
860.784912 16.0
861.11792 19.0
861.182007 16.0
861.246094 52.0
861.297363 45.0
861.387024 169.0
861.438293 14.0
861.489563 27.0
861.527954 10.0
861.566406 8.0
862.335449 25.0
862.386719 55.0
862.540527 10.0
863.168945 16.0
863.233093 11.0
863.284363 16.0
863.361328 66.0
863.502441 19.0
863.784668 19.0
868.152649 7.0
868.165527 7.0
870.8302 6.0
874.260376 8.0
934.44635 12.0
955.772156 34.0
970.920898 8.0
973.99762 54.0
978.867676 12.0
1005.074219 19.0
1040.353027 5.0
1040.367065 5.0
1083.887207 7.0
1084.577148 18.0
1147.708984 19.0
1176.864624 7.0
1202.583008 18.0
1211.425293 7.0
1217.647827 7.0
1306.609619 22.0
1460.880981 10.0
1500.318726 15.0
1732.534302 33.0
1754.640503 12.0
1766.433838 7.0
1788.828003 8.0
1792.817261 45.0
1796.644653 11.0
END IONS
