BEGIN IONS
PEPMASS=537.109
CHARGE=1
MSLEVEL=2
SOURCE_INSTRUMENT=LC-ESI-qTof
FILENAME=f.philipwi/0_WilliamsFreshwaterCyanosStandardsConvertedTo_mzXML_v2/PW-37_P1-E-1_Dendroamide_C_536amu_01_15552_Scan605-616.mzXML;
SEQ=*..*
IONMODE=Positive
ORGANISM=GNPS-LIBRARY
NAME=Dendroamide C M+H
PI=Philip Williams
DATACOLLECTOR=Williams
SMILES=CC1C2=NC(=C(O2)C)C(=O)NC(C3=NC(=CS3)C(=O)NC(C4=NC(=CS4)C(=O)N1)CCS(=O)C)C
INCHI=
INCHIAUX=
PUBMED=
SUBMITUSER=philipwi
TAGS=
LIBRARYQUALITY=3
SPECTRUMID=CCMSLIB00000424851
SCANS=610
70.566238 48.0
73.36689 40.0
82.668694 48.0
98.853317 88.0
121.461952 40.0
135.057312 76.0
135.175873 28.0
135.450211 36.0
135.880814 48.0
135.947693 40.0
136.03981 304.0
137.044266 144.0
137.370346 52.0
137.894363 36.0
138.007217 888.0
138.460312 60.0
138.771515 32.0
139.004379 132.0
139.094574 36.0
139.21489 36.0
140.020767 124.0
141.328674 44.0
141.639526 60.0
142.505646 36.0
143.427856 28.0
145.17363 44.0
145.342636 132.0
145.604034 116.0
150.009079 240.0
151.018478 144.0
151.100525 128.0
151.280792 44.0
152.081848 96.0
152.718903 52.0
153.070175 1140.0
153.207687 28.0
153.318161 28.0
153.42868 40.0
153.515533 36.0
153.918579 32.0
154.057938 376.0
154.235077 32.0
154.662842 28.0
155.032089 888.0
155.941025 44.0
156.019012 596.0
156.220474 80.0
156.754715 36.0
157.021606 84.0
157.745865 52.0
157.84996 40.0
158.014847 84.0
158.226578 112.0
158.43512 44.0
163.053513 212.0
163.84816 24.0
164.036224 92.0
164.158356 112.0
165.639893 44.0
165.795792 36.0
166.025681 292.0
167.029221 352.0
167.086884 32.0
167.697159 44.0
168.017075 372.0
168.07225 212.0
169.012192 272.0
171.465637 52.0
171.549118 72.0
172.0755 80.0
175.03978 108.0
176.013474 148.0
177.010254 136.0
178.003876 52.0
178.114456 32.0
179.08493 1692.0
179.239151 40.0
179.606308 36.0
180.079529 104.0
180.427322 24.0
181.04808 364.0
181.817047 36.0
182.041031 500.0
182.178223 68.0
182.488083 32.0
183.045792 164.0
183.151718 92.0
183.669678 36.0
184.036011 104.0
185.031174 64.0
185.844391 36.0
186.022507 268.0
190.047653 120.0
190.628067 40.0
191.077164 80.0
192.074127 92.0
192.339249 112.0
193.049728 948.0
193.330627 28.0
194.040329 160.0
194.164658 48.0
194.56456 56.0
195.067093 132.0
195.276505 40.0
195.994049 264.0
196.150421 40.0
196.775833 52.0
196.995361 100.0
197.07103 104.0
197.133667 68.0
199.152512 124.0
199.278473 100.0
201.024689 84.0
201.992844 76.0
202.059601 88.0
203.030273 60.0
203.830338 24.0
206.03862 96.0
206.670425 36.0
207.101349 64.0
207.652115 32.0
208.036377 108.0
208.792679 64.0
209.071274 84.0
209.244232 44.0
210.040146 284.0
211.06163 124.0
211.277695 44.0
213.020615 1352.0
213.995895 140.0
214.094406 148.0
215.000076 64.0
215.143143 184.0
215.636108 40.0
216.04277 104.0
216.132507 88.0
218.047928 80.0
219.044861 92.0
219.198303 44.0
220.020126 64.0
220.086319 32.0
221.008682 780.0
221.127762 100.0
222.016785 164.0
222.128342 128.0
222.960968 36.0
224.142776 112.0
224.457809 40.0
224.830414 40.0
224.954681 68.0
226.122574 108.0
226.659683 100.0
227.149368 44.0
227.418457 60.0
230.040634 252.0
230.514618 80.0
231.022903 188.0
231.13443 64.0
232.022888 88.0
232.133667 108.0
232.31366 68.0
232.991791 116.0
233.46611 28.0
233.66095 48.0
234.065964 244.0
234.138641 76.0
234.216675 36.0
235.018127 128.0
235.457245 180.0
235.770355 40.0
236.027847 1488.0
236.62265 32.0
237.035095 1936.0
237.692642 40.0
238.022705 140.0
238.115417 200.0
238.499176 60.0
238.824158 36.0
239.036514 548.0
240.076859 80.0
240.33371 32.0
241.035843 108.0
241.154617 56.0
242.004562 132.0
243.068878 68.0
243.148392 96.0
243.914352 88.0
244.045319 80.0
244.781235 32.0
245.054672 184.0
245.719589 32.0
246.08432 144.0
247.034973 60.0
247.802338 88.0
248.050323 452.0
248.143631 84.0
248.381866 100.0
249.053192 104.0
250.003067 96.0
251.00354 108.0
253.027405 40.0
254.215118 84.0
255.772507 36.0
257.038177 76.0
259.000793 124.0
259.140686 88.0
260.04776 316.0
260.874542 28.0
261.045471 144.0
262.067322 1252.0
262.503784 40.0
262.979095 108.0
263.066071 240.0
263.465149 52.0
264.057159 280.0
264.171906 168.0
264.521576 72.0
265.059357 224.0
266.286957 32.0
267.011475 248.0
268.006744 104.0
270.023865 80.0
270.41156 44.0
270.893951 80.0
271.064911 260.0
271.807495 32.0
272.072449 228.0
273.042603 424.0
274.059021 140.0
274.17099 68.0
275.054443 88.0
275.244293 64.0
275.350037 32.0
276.035858 464.0
276.17572 76.0
277.038757 232.0
277.214813 32.0
277.735107 24.0
278.016693 208.0
278.192322 300.0
278.298431 28.0
279.019073 116.0
279.208893 112.0
279.970459 64.0
280.119812 68.0
280.20517 88.0
280.446167 124.0
282.053864 176.0
282.162476 104.0
283.04953 100.0
283.190094 236.0
285.059662 44.0
286.014893 188.0
286.417328 124.0
286.84903 48.0
286.995209 268.0
288.045624 108.0
288.124359 116.0
288.483948 36.0
288.678436 44.0
288.78717 36.0
289.078552 4240.0
289.196075 88.0
289.315796 48.0
289.518219 36.0
289.662872 124.0
289.747253 40.0
289.903259 116.0
290.063354 11772.0
290.458405 60.0
290.564026 24.0
290.63855 28.0
290.869843 52.0
291.063721 2652.0
291.401306 44.0
291.651611 48.0
291.934723 56.0
292.058228 616.0
292.168121 88.0
292.817596 84.0
293.021484 1536.0
293.188568 64.0
293.406921 48.0
293.821991 56.0
294.025238 324.0
294.311432 36.0
294.72522 48.0
295.034668 240.0
295.200317 76.0
295.558868 132.0
296.01828 424.0
296.153931 44.0
296.241699 52.0
296.318512 36.0
296.933319 32.0
297.021179 96.0
297.10907 60.0
297.702698 44.0
298.076752 48.0
298.263885 32.0
298.682373 32.0
298.935791 36.0
299.123199 36.0
299.233459 124.0
300.068909 140.0
300.646515 32.0
300.75705 28.0
300.856567 44.0
301.063904 80.0
301.144104 108.0
301.343262 44.0
302.065369 232.0
302.26239 40.0
302.617126 40.0
302.816772 80.0
303.045837 540.0
303.254822 92.0
303.474609 44.0
303.615936 40.0
303.767487 64.0
303.893677 44.0
304.022766 1368.0
304.382812 32.0
304.716553 44.0
304.894623 36.0
305.026123 268.0
305.596252 36.0
305.696533 28.0
306.025452 260.0
306.209442 76.0
306.320984 48.0
306.454865 32.0
306.599976 32.0
306.835266 52.0
307.089966 920.0
307.359436 56.0
307.717133 44.0
307.789215 40.0
307.934082 40.0
308.074371 19008.0
308.208191 40.0
308.225342 36.0
308.331787 68.0
308.398376 36.0
308.569305 52.0
308.746735 40.0
308.839142 80.0
309.076019 2684.0
309.30072 64.0
309.452789 36.0
309.806091 64.0
310.070557 1212.0
310.753967 48.0
311.062378 172.0
311.21579 48.0
311.665771 36.0
311.969696 44.0
312.048492 68.0
312.144958 96.0
313.152985 88.0
313.231964 140.0
313.694672 52.0
313.897919 32.0
314.135132 88.0
314.496765 52.0
314.988037 56.0
315.76416 40.0
316.086426 144.0
316.636932 52.0
317.075043 836.0
317.374664 40.0
317.587921 36.0
317.749512 40.0
318.084045 264.0
318.590912 40.0
318.829895 44.0
319.079376 896.0
319.215546 156.0
319.343536 40.0
319.618591 64.0
320.090271 976.0
320.241425 32.0
320.391144 36.0
320.57373 136.0
320.647217 116.0
320.794891 36.0
320.923309 72.0
321.048981 7344.0
321.206543 172.0
321.299591 64.0
321.40744 40.0
321.520691 44.0
321.690643 72.0
321.758667 44.0
321.868195 160.0
322.043701 3268.0
322.21933 36.0
322.293701 32.0
322.436768 44.0
322.585602 40.0
322.665741 44.0
322.797821 32.0
323.050385 1100.0
323.192657 60.0
323.662689 48.0
324.036713 292.0
324.60376 36.0
324.991394 108.0
325.262878 88.0
325.442657 48.0
326.109985 32.0
326.271149 44.0
327.100708 100.0
327.202179 140.0
328.08139 84.0
329.051971 92.0
330.01239 28.0
330.244049 56.0
330.788727 40.0
332.980377 192.0
333.110229 108.0
333.204559 40.0
333.903076 80.0
334.07782 84.0
334.672302 96.0
334.823914 32.0
334.987244 80.0
335.138916 88.0
335.220612 176.0
335.325653 40.0
336.036285 120.0
336.727844 52.0
337.102264 80.0
338.074371 208.0
339.123505 100.0
339.752502 136.0
339.905243 92.0
341.062653 40.0
341.64682 84.0
342.118256 68.0
343.085754 44.0
343.168427 68.0
344.092285 132.0
344.575073 136.0
344.740753 64.0
345.096222 448.0
345.356476 32.0
345.522339 32.0
345.747498 32.0
346.096039 100.0
346.269226 36.0
346.413757 88.0
347.064758 2632.0
348.068115 572.0
348.395752 44.0
349.059021 564.0
349.872681 36.0
350.062256 80.0
350.958527 32.0
351.077362 76.0
353.063446 156.0
353.578674 32.0
353.698547 80.0
353.806458 40.0
353.986328 116.0
354.070282 60.0
354.262207 72.0
355.06076 56.0
355.992035 64.0
356.076202 92.0
357.19574 156.0
357.641632 144.0
358.003387 68.0
358.197113 204.0
359.143127 152.0
359.246765 84.0
359.81485 32.0
361.042786 128.0
362.10376 84.0
363.123413 104.0
363.463593 36.0
364.064026 172.0
364.704224 36.0
365.075012 1148.0
365.215698 28.0
365.751892 52.0
366.081329 180.0
366.190918 76.0
366.593567 112.0
367.062225 84.0
367.232635 108.0
367.595032 52.0
368.107208 72.0
368.25531 96.0
369.026367 44.0
369.259064 40.0
370.067963 148.0
370.264191 108.0
371.037323 48.0
371.368927 108.0
372.057159 128.0
372.192444 52.0
372.659882 124.0
373.128174 92.0
374.204376 104.0
375.050995 68.0
376.101044 36.0
376.855499 168.0
378.131165 88.0
378.242737 124.0
379.135864 96.0
381.510254 32.0
382.154572 132.0
382.843658 48.0
382.968384 52.0
383.08609 220.0
383.592377 96.0
384.041962 48.0
384.29184 52.0
384.529297 40.0
384.954407 36.0
385.052368 1020.0
385.146637 120.0
385.42984 48.0
385.805359 28.0
386.050232 132.0
386.249573 68.0
386.707367 160.0
387.042847 188.0
387.181519 148.0
388.100037 68.0
389.419739 36.0
390.074127 40.0
390.527496 72.0
391.07724 96.0
392.078461 84.0
393.24057 76.0
393.417542 156.0
393.657806 48.0
394.239807 48.0
394.594269 44.0
396.165985 88.0
396.991119 56.0
399.955933 52.0
400.04953 164.0
400.210938 88.0
401.078583 108.0
401.219025 56.0
402.043396 220.0
402.241119 60.0
402.752686 32.0
403.085358 48.0
403.853607 88.0
405.174133 52.0
405.276794 96.0
406.689606 104.0
407.139679 48.0
408.272339 36.0
408.542877 52.0
408.813477 80.0
410.235291 216.0
410.361572 48.0
411.059174 36.0
411.249207 248.0
412.029053 112.0
412.223145 188.0
413.071411 212.0
413.260895 60.0
413.401733 48.0
415.078979 176.0
415.244232 52.0
415.335144 96.0
415.491058 84.0
416.023956 80.0
416.140991 112.0
416.869507 64.0
417.351196 76.0
418.250244 64.0
418.667511 28.0
419.098053 104.0
419.276794 124.0
420.103485 76.0
420.252075 136.0
420.573975 24.0
421.240936 136.0
421.633514 88.0
424.255432 392.0
424.452393 32.0
425.056702 48.0
427.065063 680.0
427.412415 40.0
427.54422 40.0
428.06012 148.0
428.520142 56.0
429.077209 196.0
429.246216 36.0
429.840729 40.0
430.079834 188.0
430.184387 88.0
431.110077 168.0
431.838654 116.0
432.647064 88.0
432.872498 40.0
433.323547 112.0
434.040375 40.0
435.56897 96.0
435.994781 100.0
436.300964 84.0
436.633911 72.0
437.086914 52.0
437.180206 52.0
437.700165 112.0
438.075836 236.0
439.079681 100.0
439.261902 100.0
439.529144 116.0
440.056976 128.0
440.946869 80.0
441.179199 124.0
442.246216 168.0
442.353485 40.0
442.541199 32.0
442.702118 32.0
442.830902 72.0
442.941101 44.0
442.982361 36.0
443.093567 1228.0
443.249847 120.0
443.488922 132.0
444.099182 528.0
444.346649 32.0
444.563232 64.0
444.673645 96.0
444.832336 88.0
445.075592 24640.0
445.442444 28.0
445.4888 36.0
445.725006 80.0
445.8125 40.0
445.96524 96.0
446.077942 6308.0
446.398163 36.0
446.584259 88.0
446.91156 36.0
447.069519 2224.0
447.253326 112.0
447.379364 64.0
447.678558 120.0
447.853912 60.0
448.073822 640.0
448.296143 92.0
448.569153 40.0
448.839233 28.0
449.072998 120.0
449.212372 92.0
449.622833 96.0
450.569519 72.0
450.870941 44.0
451.169128 72.0
452.086243 32.0
452.316681 40.0
452.42514 28.0
452.981232 48.0
453.157623 56.0
453.510498 36.0
453.659821 40.0
454.06778 64.0
454.257416 80.0
454.523132 36.0
455.096527 2900.0
455.290558 68.0
455.453796 104.0
456.097443 1080.0
456.461029 44.0
456.856079 32.0
457.095978 676.0
457.286102 40.0
457.523956 32.0
458.099091 124.0
458.328766 72.0
458.560791 96.0
458.861145 36.0
459.093292 48.0
459.503143 32.0
460.145599 76.0
460.514862 44.0
460.679016 36.0
460.843231 32.0
461.089569 84.0
462.103027 72.0
462.514221 48.0
462.911865 36.0
463.062744 156.0
463.364563 32.0
465.067627 44.0
466.223083 160.0
466.415802 140.0
467.283508 56.0
469.946747 104.0
470.227417 104.0
470.326294 148.0
470.599915 144.0
470.729767 92.0
470.888031 48.0
471.089325 684.0
471.217621 180.0
471.356232 192.0
471.446289 76.0
471.6203 44.0
471.671082 60.0
471.751129 80.0
471.850403 84.0
471.904663 64.0
471.943665 68.0
472.099854 420.0
472.296875 148.0
472.422028 72.0
472.550629 108.0
472.751953 232.0
472.848083 312.0
473.110229 147384.0
473.402405 284.0
473.626953 136.0
473.731445 284.0
473.903625 272.0
474.111267 44608.0
474.378723 128.0
474.428711 92.0
474.450684 224.0
474.604248 140.0
474.734497 108.0
475.106689 18892.0
475.333008 64.0
475.653961 124.0
475.924286 44.0
476.106659 1872.0
476.466248 100.0
476.745605 40.0
476.928833 40.0
477.104889 440.0
477.276001 48.0
477.337524 32.0
477.591736 36.0
477.717102 32.0
478.061035 84.0
478.318146 288.0
478.702362 112.0
478.957916 92.0
479.111389 48.0
479.310333 108.0
479.484711 32.0
479.757751 104.0
479.948914 36.0
480.217194 96.0
480.423859 36.0
480.547852 32.0
480.765686 52.0
480.860016 76.0
481.224396 44.0
481.414856 36.0
481.892029 60.0
482.063202 52.0
482.371155 52.0
482.591949 72.0
482.76001 36.0
482.914093 32.0
483.104187 56.0
483.250336 40.0
483.726898 68.0
483.895142 36.0
484.122559 88.0
484.442169 40.0
484.722809 40.0
484.86319 32.0
485.214142 40.0
485.348816 52.0
485.53717 148.0
485.77597 52.0
485.874329 44.0
486.381439 48.0
486.94278 36.0
487.266357 36.0
487.547821 32.0
487.744904 32.0
488.181427 44.0
488.307587 52.0
488.777832 48.0
488.942261 64.0
489.548553 40.0
490.294037 296.0
490.428314 68.0
491.093384 36.0
491.292908 104.0
491.496857 44.0
491.754181 96.0
491.864349 72.0
492.175415 160.0
492.302704 56.0
492.399109 44.0
492.585632 56.0
492.826172 32.0
493.109894 52.0
493.302704 120.0
493.902252 32.0
494.065155 32.0
494.213959 48.0
494.327332 76.0
494.894409 44.0
495.039429 88.0
495.248993 76.0
496.228302 36.0
496.483917 132.0
496.711212 36.0
497.265442 216.0
499.015381 28.0
500.996674 68.0
501.553284 160.0
502.072327 136.0
502.187195 92.0
502.710297 104.0
502.96759 44.0
503.611115 92.0
504.426849 76.0
504.655945 144.0
505.23764 92.0
506.00293 80.0
506.146332 72.0
506.267059 72.0
506.44754 32.0
507.113068 128.0
507.725067 188.0
508.328522 96.0
508.917938 36.0
509.047394 104.0
509.162445 152.0
509.320679 92.0
509.507721 88.0
510.083435 96.0
511.154297 116.0
511.927887 32.0
513.891235 136.0
513.992432 40.0
514.570679 128.0
514.701416 96.0
514.980713 44.0
515.257385 84.0
516.336304 88.0
516.539124 40.0
517.213745 80.0
517.373352 100.0
518.257568 108.0
518.598389 36.0
518.961365 96.0
519.091919 1580.0
519.330933 144.0
519.5625 104.0
519.774902 76.0
520.095581 548.0
520.298218 60.0
521.098572 164.0
521.285889 76.0
522.075684 80.0
522.233887 96.0
522.423279 128.0
523.020813 160.0
523.122864 84.0
523.326965 44.0
524.304443 48.0
524.990723 84.0
525.166016 128.0
526.262146 92.0
527.022888 48.0
531.789612 72.0
532.377808 56.0
532.554321 32.0
532.661072 124.0
533.199219 140.0
533.510925 40.0
533.672852 36.0
533.838013 56.0
533.996887 40.0
534.325256 240.0
534.650879 100.0
534.792664 52.0
535.089355 32.0
535.330139 520.0
535.574219 36.0
536.311035 296.0
536.599976 48.0
536.826294 68.0
536.9375 52.0
537.106445 10980.0
537.342957 492.0
537.656311 48.0
537.892822 72.0
538.107361 3664.0
538.346191 404.0
538.506897 52.0
538.807678 28.0
538.976929 68.0
539.102234 1804.0
539.309937 360.0
539.490662 36.0
539.683167 32.0
539.860901 32.0
540.112732 248.0
540.316956 308.0
540.778503 56.0
541.283691 84.0
541.595154 76.0
541.877075 48.0
542.017151 64.0
542.299255 80.0
542.975708 44.0
543.510559 20.0
545.414429 52.0
545.607971 80.0
547.008545 40.0
550.816895 40.0
550.966492 88.0
551.310669 80.0
552.463806 32.0
557.825684 56.0
558.653992 32.0
559.211609 192.0
561.807373 180.0
563.047058 44.0
565.500061 112.0
568.4599 100.0
569.0224 36.0
570.528748 24.0
571.579834 168.0
572.006653 108.0
572.616638 156.0
573.34906 136.0
574.494385 108.0
575.778503 32.0
579.593506 76.0
583.143921 76.0
585.331848 72.0
585.64032 120.0
587.196533 64.0
590.804077 72.0
591.036499 48.0
593.409912 56.0
595.430359 64.0
597.29834 88.0
598.108765 40.0
599.02887 44.0
599.980957 40.0
601.183838 120.0
604.564636 40.0
605.270142 112.0
606.19574 124.0
606.917908 60.0
607.043579 48.0
607.279175 44.0
611.559448 136.0
612.872559 96.0
612.979065 128.0
614.321289 80.0
616.297791 88.0
617.089294 56.0
620.791626 48.0
621.749756 148.0
623.232727 108.0
624.793213 116.0
626.307861 72.0
629.950378 88.0
631.375122 76.0
633.459106 152.0
635.289429 64.0
637.975403 80.0
643.412964 36.0
645.322327 88.0
647.656311 148.0
647.980774 124.0
649.328308 72.0
653.591064 136.0
653.770325 36.0
655.695007 148.0
656.021545 164.0
656.462402 52.0
656.903503 36.0
658.947327 40.0
663.307129 60.0
664.900574 144.0
671.871704 68.0
685.505554 28.0
686.006348 188.0
686.574158 40.0
689.433289 40.0
691.074585 120.0
694.144592 172.0
694.329346 112.0
698.602295 88.0
699.040466 164.0
700.32196 92.0
702.989807 116.0
706.001465 124.0
706.746948 72.0
708.340759 44.0
711.550903 132.0
713.218262 32.0
723.263428 108.0
726.386902 28.0
726.696167 96.0
728.381165 76.0
729.792603 104.0
731.567383 68.0
737.095032 208.0
738.636108 88.0
741.02887 64.0
742.122498 116.0
745.129761 28.0
746.417908 52.0
750.568604 100.0
751.91394 112.0
753.907898 64.0
755.624146 68.0
756.851257 36.0
762.191833 72.0
763.459473 80.0
772.326965 100.0
776.54895 88.0
782.332886 52.0
787.565674 136.0
788.890015 112.0
792.134033 100.0
796.229858 44.0
798.479858 148.0
799.849426 100.0
816.393799 28.0
820.588318 52.0
823.402832 64.0
823.658936 104.0
825.031616 116.0
830.699036 136.0
832.040771 92.0
834.506531 72.0
841.555725 96.0
842.258545 148.0
862.225952 60.0
878.417419 44.0
882.843933 76.0
888.64917 80.0
890.093994 52.0
892.758484 136.0
898.806458 116.0
901.847656 96.0
906.236755 104.0
907.062073 36.0
910.309509 76.0
912.445618 44.0
914.44928 84.0
915.181946 128.0
927.157776 48.0
955.57489 100.0
959.934692 64.0
960.487793 100.0
963.572144 56.0
967.751831 84.0
972.039917 60.0
973.073669 132.0
997.524536 156.0
1004.846191 84.0
1033.355347 36.0
1054.051758 80.0
1081.358398 100.0
1084.295044 172.0
1086.857422 144.0
1089.527954 88.0
1092.117554 48.0
1103.374512 32.0
1139.298584 108.0
1139.578369 40.0
1146.151123 100.0
1191.368652 88.0
1277.606567 72.0
1293.812012 36.0
1302.585693 40.0
1326.181152 32.0
1364.784302 72.0
1647.431763 108.0
1755.994019 104.0
END IONS
