BEGIN IONS
PEPMASS=565.3
CHARGE=2
MSLEVEL=2
SOURCE_INSTRUMENT=LC-ESI-Orbitrap
FILENAME=f.Rolandoo1/20190519 Moroidin paper GNPS/[Ala9-Ala10]-moroidin.mzXML;
SEQ=*..*
IONMODE=Positive
ORGANISM=GNPS-LIBRARY
NAME=[Ala9-Ala10]-moroidin M+2H
PI=Jing-Ke Weng
DATACOLLECTOR=Roland Kersten
SMILES=CC(C)C1C(C(NC(CC(C)C)C(NC(C(C)C)C(NC(C(NC(C(NCC(NC(CC2=CN3C=N2)C(NC(C)C(NC(C)C(O)=O)=O)=O)=O)=O)CCCNC(N)=N)=O)CC4=C3NC5=C4C=CC1=C5)=O)=O)=O)NC(C6NC(CC6)=O)=O
INCHI=
INCHIAUX=
PUBMED=
SUBMITUSER=Rolandoo1
TAGS=
LIBRARYQUALITY=3
SPECTRUMID=CCMSLIB00005435920
SCANS=1
86.093697 412.539825
86.09446 2318.706543
86.095215 5422.042969
86.09597 8753.209961
86.096725 9222.765625
86.097488 6207.364746
86.098244 3173.638916
86.098999 983.946045
86.099762 509.629974
86.100517 119.146416
90.053535 343.243805
90.054344 700.729919
90.055153 873.866699
90.055962 797.852905
90.056778 514.425842
90.057587 112.316658
92.389633 560.854919
92.390472 975.026184
92.391319 1014.997742
92.392159 686.740845
92.392998 156.495377
94.98439 359.39328
94.985268 739.209656
94.986145 914.221191
94.987022 813.659668
94.9879 510.387238
94.988777 119.197365
102.574585 387.50824
102.575569 705.781311
102.576553 831.366333
102.577538 753.82074
102.578522 511.750275
102.579506 125.659576
109.755493 476.67691
109.756584 885.293823
109.757675 1012.232849
109.758766 835.703796
109.759857 478.248749
109.760948 95.962845
116.851784 401.709198
116.852982 793.290955
116.854179 951.555969
116.855377 800.171265
116.856575 460.328583
116.857773 123.025902
131.321014 358.985901
131.322433 703.265259
131.323868 886.277405
131.325287 786.636108
131.326721 455.496399
131.32814 93.898041
158.785538 559.260254
158.787445 1478.015503
158.789337 2480.987305
158.791229 2940.727295
158.793137 2519.534668
158.795029 1521.323853
158.796921 494.547668
158.798828 27.705791
158.850067 408.10144
158.851959 879.628784
158.853867 1181.459595
158.855759 1079.672974
158.857666 648.59436
158.859558 59.46294
160.210419 382.241882
160.212341 779.184021
160.214264 1022.580566
160.216187 941.28009
160.218109 586.776978
160.220032 85.33297
178.83345 16.118635
178.835709 546.574951
178.837982 843.778381
178.840256 938.641235
178.842514 751.464905
178.844788 393.190735
178.847046 83.300293
220.520004 117.170525
220.523102 641.123413
220.526215 951.703735
220.529312 1024.233887
220.532425 812.707886
220.535522 427.324249
400.70166 289.125793
400.709259 718.843628
400.716858 1124.383423
400.724457 1313.190918
400.732086 1174.92334
400.739685 795.204773
400.747284 174.524063
414.694916 457.606567
414.702911 1088.478638
414.710938 1685.387695
414.718933 1894.672363
414.726959 1545.673584
414.734955 881.843323
414.742981 159.584961
423.207764 381.528473
423.216003 975.877075
423.224274 1390.383667
423.232513 1324.385742
423.240784 1315.881226
423.249054 1123.460083
423.257294 1363.762451
423.265564 1386.324707
423.273804 1009.416077
423.282074 497.871918
423.290314 88.290024
436.222076 596.891418
436.230713 1084.666992
436.239349 1282.013306
436.248016 1128.513428
436.256653 738.752258
436.265289 121.316681
439.226685 453.49881
439.235413 964.769348
439.244141 1249.571289
439.252869 1105.907715
439.261597 636.826233
439.270325 96.73278
457.246155 610.000244
457.255432 1231.401733
457.264709 1554.304688
457.273987 1375.19751
457.283234 842.381042
457.292511 114.242195
471.234131 737.020203
471.243835 1544.310303
471.25354 2154.579346
471.263245 2179.854004
471.272949 1608.102539
471.282654 835.731934
471.292358 107.182159
481.686737 425.467712
481.696777 826.722412
481.706787 1032.204712
481.716827 921.886353
481.726837 592.151062
481.736877 57.743214
485.214539 347.168823
485.22467 1821.692383
485.234802 6455.348633
485.244934 12001.995117
485.255066 16583.224609
485.265198 14492.286133
485.27536 9017.850586
485.285492 3589.158691
485.295624 880.925903
485.305756 58.518032
485.731812 616.334656
485.741974 1242.379639
485.752106 1671.664551
485.762268 1627.498413
485.77243 1144.316284
485.782562 547.649109
485.792725 46.460438
494.737183 598.758362
494.74762 1094.302734
494.758057 1299.373901
494.768494 1052.920776
494.778931 528.073853
494.789368 43.255142
506.74234 335.636841
506.753174 880.357544
506.763977 1523.252075
506.774811 1892.923462
506.785614 1751.279663
506.796448 1194.123779
506.807251 564.397888
506.818085 35.119381
508.738495 714.764465
508.749359 1134.137207
508.760254 1282.010132
508.771118 1084.738525
508.782013 670.944702
508.792908 41.286041
515.729797 284.135529
515.740906 842.900024
515.752014 1449.175171
515.763123 1711.341309
515.774231 1455.601318
515.785339 880.339661
515.796448 352.299011
515.807556 16.782951
520.741333 335.648895
520.752625 1784.819946
520.763916 3250.922119
520.775146 4291.437988
520.786438 3367.945557
520.797668 1521.65625
520.80896 609.68457
520.820251 25.626554
537.909912 512.769958
537.921753 887.255188
537.933594 1012.851013
537.945435 799.68573
537.957275 408.554077
537.969116 24.737476
551.260803 5.704789
551.273071 734.865967
551.285339 1548.156372
551.297607 2181.968262
551.309875 2158.71875
551.322144 1494.806274
551.334412 675.200806
551.752014 2.523617
551.764343 298.195312
551.776611 883.009949
551.788879 1497.761597
551.801208 1755.869629
551.813477 1465.474609
551.825745 831.81311
551.838074 270.032867
565.216858 20.510548
565.229553 870.937805
565.24231 1818.887573
565.255066 7644.615723
565.267822 25836.361328
565.280518 50986.664062
565.293274 76304.359375
565.30603 73462.882812
565.318787 46921.183594
565.331543 22164.748047
565.344299 6158.378418
565.356995 1400.472168
565.369751 631.016052
565.382507 14.813948
565.739624 462.175842
565.75238 1286.520752
565.765137 4426.980957
565.777893 12417.030273
565.790649 20939.816406
565.803406 25300.785156
565.816162 18764.751953
565.828918 10493.417969
565.841675 2969.075684
565.854492 674.071045
635.141785 187.434296
635.156982 1583.140869
635.172119 2677.89502
635.187317 3138.366211
635.202515 2593.134033
635.217651 1373.345825
732.123047 141.523773
732.141846 675.369202
732.160583 1012.909302
732.179382 1072.713257
732.198181 819.278809
732.21698 388.158142
840.105591 165.178177
840.128662 657.003235
840.151794 1130.528198
840.174866 1369.224243
840.197937 1233.40271
840.221069 827.512695
840.244141 335.486206
END IONS
