BEGIN IONS
PEPMASS=683.283
CHARGE=1
MSLEVEL=2
SOURCE_INSTRUMENT=LC-ESI-qTof
FILENAME=f.Esposito/Diterpene-ref/ME-3-17-102-5 (2).mgf;
SEQ=*..*
IONMODE=Positive
ORGANISM=GNPS-LIBRARY
NAME=3,14-O-diacetyl-5-7-O-dibenzoyl-13,17-oxypremyrsinol M+Na
PI=Litaudon/Paolini
DATACOLLECTOR=Esposito
SMILES=CC1(C)[C@@]2([H])[C@]1([H])C[C@@H](OC(C3=CC=CC=C3)=O)[C@@]4(CO5)[C@H](OC(C6=CC=CC=C6)=O)[C@@]7([H])[C@@H](OC(C)=O)[C@@H](C)C[C@]7(O)[C@@H](OC(C)=O)[C@@]5(C)[C@@]42[H]
INCHI=
INCHIAUX=
PUBMED=
SUBMITUSER=Esposito
TAGS=
LIBRARYQUALITY=3
SPECTRUMID=CCMSLIB00004684195
SCANS=1
69.033165 57.695511
99.078918 67.287338
115.331566 40.358051
139.0354 65.0
184.566299 15.40833
192.651825 18.53125
195.100815 49.120098
198.945389 17.09091
207.027084 46.054821
211.14389 48.032139
221.077194 15.125
227.181458 168.352005
231.593903 62.88929
242.944443 55.10041
266.999268 86.615387
276.749268 19.19758
295.690765 11.875
301.95813 52.669121
323.030609 42.02206
323.177185 96.636681
331.189484 170.266006
333.201569 174.545502
333.357697 21.004999
333.796204 11.16667
334.139465 19.007351
349.232117 21.57065
366.417358 17.10227
373.236725 201.511093
381.2547 27.0
389.225983 174.504807
443.272919 104.001297
490.467194 52.224998
511.132568 14.875
527.390808 30.111839
543.032593 58.911369
557.340759 58.924999
573.374146 64.125
585.369324 58.360001
601.391296 92.809998
613.395081 23.27273
625.40979 96.022728
646.27533 12.04167
651.378479 40.333328
681.237244 30.10227
683.291504 22.007351
683.405029 104.142899
683.450378 3945.876953
683.555481 40.047619
683.619202 29.200001
683.692017 10.00658
683.739014 31.14286
683.892639 50.173908
683.921326 75.183441
684.074219 17.005951
684.146423 28.64286
684.165405 27.19758
684.211243 25.69231
684.265381 34.120098
684.401917 24.125
684.447693 90.097221
684.566528 42.98349
684.60199 24.560181
684.710938 23.013889
684.75708 15.1875
684.939209 30.112499
685.130249 46.10714
685.185242 18.605
685.432007 12.675
685.841248 26.644739
686.123779 12.03125
688.542725 21.81818
708.58429 11.05
END IONS
