BEGIN IONS
PEPMASS=1118.0
CHARGE=3
MSLEVEL=2
SOURCE_INSTRUMENT=DI-ESI-Hybrid FT
FILENAME=Nisin_1118_MS2.mzXML
SEQ=*..*
IONMODE=Positive
ORGANISM=GNPS-LIBRARY
NAME=Nisin M+H
PI=Roncada
DATACOLLECTOR=Alloggio/Herschend
SMILES=CC[C@H](C)[C@H]1C(=O)NC(=C)C(=O)N[C@H](C(=O)N[C@@H](CSC[C@H](C(=O)N1)NC(=O)/C(=C/C)/NC(=O)[C@H]([C@@H](C)CC)N)C(=O)N[C@@H]2[C@@H](SC[C@H](NC(=O)CNC(=O)[C@@H]3CCCN3C2=O)C(=O)N[C@@H](CCCCN)C(=O)N[C@@H]4[C@@H](SC[C@H](NC(=O)CNC(=O)[C@@H](NC(=O)[C@@H](NC(=O)[C@@H](NC(=O)CNC4=O)C)CC(C)C)CCSC)C(=O)N[C@@H](CC(=O)N)C(=O)N[C@@H](CCSC)C(=O)N[C@@H](CCCCN)C(=O)N[C@@H]5[C@@H](SC[C@H]6C(=O)N[C@H](C(=O)N[C@@H](CS[C@H]([C@@H](CNC(=O)[C@@H](NC5=O)C)C(=O)N6)C)C(=O)N[C@@H](CO)C(=O)N[C@@H]([C@@H](C)CC)C(=O)N[C@@H](Cc7c[nH]cn7)C(=O)N[C@@H](C(C)C)C(=O)NC(=C)C(=O)N[C@@H](CCCCN)C(=O)O)Cc8cnc[nH]8)C)C)C)CC(C)C
INCHI=N/A
INCHIAUX=N/A
PUBMED=N/A
SUBMITUSER=ialloggio
TAGS=
LIBRARYQUALITY=3
SPECTRUMID=CCMSLIB00000539137
SCANS=449
209.139633 28475.470703
216.134201 46460.074219
216.922409 3554.623535
217.137329 2200.288574
222.159836 4397.335938
226.951355 164410.125
227.955139 2844.594727
237.13443 43809.703125
239.138504 3030.798584
242.925537 3219.584961
245.090988 1647.753052
248.13945 8515.881836
251.150223 3307.091797
254.160889 3360.592529
265.129181 2882.075928
266.149689 127280.140625
267.153046 11381.545898
273.179626 8139.807129
279.588959 3403.209961
288.145355 3972.936768
289.129822 1839.663452
294.938416 3215.172119
300.13739 10538.258789
306.15564 8304.758789
310.12204 2608.036377
315.202515 34644.597656
318.14444 8549.885742
318.199036 1744.976196
324.166138 2305.094482
325.140045 1872.886108
326.233978 1837.989746
341.167084 2226.55127
351.239227 2097.133789
361.22406 2371.033936
362.207672 3082.464111
362.92572 15060.467773
370.939423 2083.780518
379.233917 19921.851562
386.185364 2299.058594
409.154938 12418.030273
410.157715 2782.643311
410.263519 2107.522461
413.220947 4893.268066
413.300446 1963.646729
417.22403 1961.393188
430.912964 9956.918945
434.251251 4573.039551
452.261169 67054.125
453.26474 8630.172852
468.225372 2218.504395
482.243652 3362.711182
498.900787 3267.635498
531.261169 9590.875977
551.263916 10755.827148
591.605225 2496.788086
607.397827 2605.296875
634.302063 3280.559326
646.279114 3429.357666
648.982361 2253.985107
680.834717 12152.379883
681.153809 2151.210938
685.437256 2081.856201
745.030151 2362.318115
746.353821 9745.375977
747.385498 14848.142578
748.388611 4722.197266
754.336487 2490.63623
754.836975 2250.375
756.365295 2507.096191
789.603516 3103.579834
794.608459 2318.297363
794.865845 3630.754639
798.613342 2673.927979
802.613953 2953.185303
803.374634 14510.958984
803.875 9674.625977
804.62439 3171.630615
811.122009 3128.263428
814.120728 3348.453857
826.384705 3377.568604
827.145508 2820.887939
828.350098 2454.388916
828.388 3713.260498
835.136719 3260.755615
839.141907 8213.898438
839.642151 3160.044434
839.897156 4455.524414
842.0271 5088.569824
843.391296 3637.553955
843.643738 3420.522217
843.895447 13008.140625
844.892639 2472.66626
847.141052 3138.400146
848.639771 4425.825684
848.885132 7859.623047
850.876831 2926.808105
853.401001 4301.20459
864.697815 3064.23584
869.395996 10093.836914
869.726135 11617.256836
870.062012 9423.054688
871.702148 2595.333496
876.371399 4043.452637
877.373108 10259.84375
878.049622 2813.61792
886.052856 3084.231445
886.376648 4570.227051
886.711243 8929.837891
887.379578 4893.787109
887.717957 8608.353516
890.367371 2770.760986
891.387695 3790.4729
891.735046 3629.285156
892.06427 3910.952148
892.38324 4709.879395
892.714294 13540.110352
895.091919 3119.853027
901.061707 4672.560547
901.397522 16959.976562
906.067444 2795.876465
909.060059 2683.348877
909.407471 3071.228027
915.068481 12216.818359
915.399231 10027.201172
918.397217 8210.121094
920.40741 10295.774414
920.741943 25419.123047
921.082153 16795.390625
924.071716 35769.421875
924.406494 39390.726562
924.739563 14975.512695
925.077087 13277.693359
925.40918 3824.608154
925.736206 3158.522705
925.873657 3002.498779
928.407043 3834.893799
928.741699 2791.936279
930.075623 59546.425781
930.40979 42056.660156
930.74353 17679.353516
931.431274 4172.342773
931.743286 3785.590088
931.933289 4030.26123
932.721802 3732.636963
933.075134 8582.692383
933.408752 3801.4729
933.73877 2908.427002
934.078735 2811.14502
937.735779 3118.556885
938.739563 3903.512939
939.085205 11671.196289
939.414246 4005.586182
940.042603 2733.930664
940.40564 2729.390381
942.406921 3006.30249
943.750122 9996.583008
947.734192 3093.678467
948.081604 12330.075195
948.418396 18279.830078
949.417053 3476.793945
951.410461 4268.58252
952.099731 3238.074951
952.437866 3510.095703
952.766418 13021.554688
953.100647 4648.09082
953.903442 11132.999023
954.408264 4793.768555
954.776123 2726.438721
956.081482 9637.442383
956.900635 2629.403809
958.094971 10265.033203
958.438904 44013.152344
958.773865 31035.375
959.106506 3453.300293
960.759766 4744.515137
961.088806 8967.22168
961.767517 21769.416016
962.100464 19985.763672
962.423401 3495.301514
963.771484 8615.666016
964.108154 3415.757324
965.422058 2623.678711
965.749817 3729.164307
966.097046 15586.4375
966.43158 21378.476562
966.763733 17878.328125
967.101318 8798.867188
967.76947 4290.456055
968.105591 16826.416016
968.438721 3785.281738
970.086975 24728.443359
970.417236 10612.926758
970.752747 3778.706299
971.090515 8415.067383
971.430725 6999.641113
972.109009 9448.978516
974.753357 4494.339844
975.429565 3587.931641
975.761292 37868.921875
976.094971 36378.832031
976.429016 10018.979492
977.106079 5010.742188
977.437317 4633.912109
979.093079 2819.335449
980.422363 3447.150635
981.10498 21846.068359
981.438171 20964.570312
982.097778 3294.311768
985.098267 12922.017578
985.431091 12113.78418
986.116638 4834.18457
986.436584 21691.462891
986.772766 36622.558594
987.107849 4598.647461
992.114746 24924.746094
992.447815 30573.398438
992.781982 9516.793945
993.443787 8514.198242
993.776978 12301.043945
994.114136 11951.381836
994.766052 16662.482422
995.121521 4106.607422
995.450256 4270.171387
997.110718 2897.507812
997.766907 3044.314209
998.120117 3670.216553
998.44928 21242.753906
998.790222 23824.947266
999.121887 7863.026855
999.452026 11778.55957
999.783691 13194.373047
1000.446045 8636.203125
1003.111023 13286.705078
1003.441772 13491.103516
1003.772583 11427.260742
1004.123535 110067.054688
1004.458862 136984.625
1004.793274 28382.111328
1007.450745 8014.513672
1007.78125 14599.216797
1008.116821 23006.785156
1008.452576 9194.181641
1008.785339 40916.496094
1009.119446 42896.089844
1009.451477 14368.415039
1009.777954 12988.59082
1012.915833 4090.115234
1013.118713 4398.317383
1013.456665 280387.15625
1013.790771 350780.15625
1014.124939 78883.1875
1014.458679 4671.019531
1014.795349 7820.732422
1015.121033 12716.892578
1015.454956 10209.220703
1015.787109 4082.234131
1017.118286 2804.537354
1018.449402 12414.46875
1020.121887 8108.260254
1020.462341 8639.704102
1022.450439 3357.753418
1023.80249 3037.259033
1024.075562 2732.512451
1024.130981 4668.42627
1026.117798 12808.811523
1026.449097 11573.349609
1027.79248 9508.924805
1028.462769 8838.827148
1029.807983 38025.683594
1030.140747 32901.269531
1031.474121 16357.530273
1031.803467 23564.425781
1032.134033 20841.904297
1032.462769 9085.911133
1032.618286 3249.068604
1037.148682 53604.148438
1037.484985 76666.648438
1037.814087 16109.790039
1038.142578 15651.189453
1038.475464 3504.480957
1040.805908 25087.322266
1041.13623 19296.476562
1041.463623 3348.984863
1041.799683 4680.907227
1042.797363 13382.728516
1043.482422 11099.12793
1046.136108 9591.618164
1046.480347 224077.140625
1046.814819 267952.34375
1047.148193 92749.359375
1047.475952 33102.722656
1047.807983 13785.988281
1052.14917 31095.449219
1052.483521 34484.800781
1052.815552 75991.820312
1053.147705 63299.46875
1053.480835 24042.138672
1057.818604 4011.279541
1059.813721 12243.899414
1060.14978 3418.459229
1063.481201 11454.310547
1063.814941 10906.21875
1064.143433 9284.681641
1064.47522 4160.654785
1064.808105 3931.440674
1065.488647 13284.369141
1065.820557 15040.841797
1066.155273 15378.874023
1067.482666 3541.734863
1069.150269 18538.578125
1069.485107 86667.710938
1069.820068 122038.234375
1070.154053 32971.828125
1070.490479 4848.236328
1071.493286 8225.729492
1074.487793 4232.763672
1074.818359 59719.835938
1075.152344 96999.992188
1075.487915 55716.761719
1075.822144 26136.255859
1076.158569 8904.130859
1077.488892 3487.73584
1077.963379 9920.401367
1078.469849 4264.046875
1080.1521 9158.710938
1080.493652 96630.070312
1080.827759 131445.390625
1081.159546 21178.349609
1082.485962 4556.589355
1084.487671 14047.47168
1085.486206 2969.037109
1086.827881 3390.369629
1088.162598 4047.775879
1089.823975 24230.814453
1090.158569 34875.789062
1090.491699 10344.268555
1090.817749 2965.907471
1093.492676 3366.540283
1097.829834 2831.709961
1098.187378 3411.393311
1099.499512 2998.802002
1103.179688 27329.580078
1103.515381 46403.488281
1103.8479 18921.554688
1106.508423 10305.260742
1106.841309 9150.822266
1108.859863 16002.456055
1109.188477 16790.25
1109.52417 4307.125977
1110.4823 4714.20459
1111.000488 42487.261719
1111.502563 29747.904297
1112.18457 50683.929688
1112.514648 144762.125
1112.848755 113856.53125
1113.180664 32395.052734
1113.509521 9583.467773
1113.854004 3760.219482
1114.881836 3293.514648
1117.845337 7796.782715
1118.188232 884079.1875
1118.311157 25901.160156
1118.522583 1260195.625
1118.856323 307902.375
1119.190796 12883.155273
1119.854126 3099.604492
1126.848877 3214.396973
1132.498047 3987.429932
1132.564941 8920.830078
1145.533813 7990.526367
1146.487427 19633.701172
1146.995239 12352.166992
1162.909912 7188.796387
1175.046387 9268.319336
1175.550781 4941.414062
1182.989502 3283.124268
1188.510742 3274.292969
1196.027466 16397.458984
1196.521118 10079.043945
1205.03064 4472.77002
1205.493164 4906.53418
1224.936646 3740.17334
1226.047852 3105.689209
1230.5354 4824.553223
1232.565796 9024.196289
1239.534424 3275.675293
1245.021118 3610.320801
1246.545898 2897.168701
1248.039307 3845.8396
1253.03833 9083.168945
1253.531738 5065.935547
1261.292603 4850.0
1262.040649 8768.019531
1262.546143 4720.07666
1266.967773 4314.953125
1267.299805 17453.8125
1274.033569 3369.611328
1276.574829 4397.727051
1289.541626 3028.534424
1295.581421 4842.145508
1296.559448 4143.911133
1303.590332 70911.148438
1304.092285 63517.980469
1304.58667 14919.428711
1308.553955 4691.516113
1309.05249 9034.258789
1316.575317 8701.889648
1317.068604 3480.716309
1318.571411 3418.06958
1322.052612 13396.65918
1322.556641 13159.727539
1323.10376 4184.616211
1324.061646 10669.578125
1324.569092 4344.628906
1328.590698 3366.87207
1329.053101 5615.12793
1329.568604 4504.105957
1330.566895 10381.928711
1331.070312 15321.744141
1335.553589 3790.653809
1339.080566 4315.262695
1341.602783 3217.818848
1343.559082 3548.533936
1345.114624 6560.306152
1345.60376 10851.28125
1349.592285 4461.69043
1350.600708 3557.255371
1351.595337 9995.532227
1352.570679 4231.069824
1353.085327 10596.091797
1353.592651 11412.041992
1357.595337 9985.711914
1358.09668 7514.550293
1360.659546 32004.802734
1361.661743 11664.134766
1363.606689 4182.563477
1366.106812 3849.073242
1366.609619 4431.788574
1371.589844 28187.509766
1372.0979 28036.742188
1372.603271 4073.654541
1373.59082 3661.41748
1377.093018 4662.854492
1378.096191 3241.748047
1380.101807 25735.207031
1380.605957 36088.695312
1381.107666 13930.583008
1385.607178 20597.519531
1386.103638 25306.871094
1386.608154 9050.487305
1387.107544 11226.970703
1387.603638 4469.259766
1390.600586 3354.85083
1394.609741 50170.355469
1395.111816 34353.640625
1395.61084 4921.555176
1396.611572 4031.437256
1397.604004 3813.263428
1406.100098 4008.455078
1408.601685 9655.761719
1409.1073 12186.071289
1414.611694 8798.367188
1415.604004 4725.751465
1420.132568 3531.419189
1421.621338 10378.679688
1422.123901 10512.46875
1428.151855 16538.074219
1428.64856 4877.373535
1433.633179 3807.950195
1435.608154 3370.69165
1436.643921 9060.567383
1437.153076 31572.75
1437.650391 29177.232422
1438.161377 4893.102051
1442.144043 39058.519531
1442.644409 40763.355469
1443.147339 17838.068359
1448.11792 8769.15332
1449.144409 3880.77002
1451.151367 132438.171875
1451.653564 156465.09375
1452.153564 49649.070312
1453.153931 4378.991699
1454.63147 4954.868164
1457.150024 9992.520508
1457.65564 11019.969727
1460.163452 2967.396484
1461.619141 11279.392578
1462.141357 5005.874023
1463.140503 18078.375
1463.635742 21667.501953
1470.135132 4760.739746
1470.639526 14714.057617
1471.14856 16524.056641
1471.655762 12889.208008
1472.151733 3896.868652
1477.130005 5580.400879
1478.658569 3957.839844
1479.151855 121228.882812
1479.652832 97011.203125
1480.156372 25173.802734
1487.66626 32875.972656
1488.162476 23866.753906
1488.668091 4216.506836
1490.156494 9778.987305
1497.674438 3496.889648
1499.177856 9311.008789
1504.157227 9458.541992
1504.661133 12129.583984
1505.678955 4790.249512
1506.177856 12877.976562
1511.172852 8030.514648
1511.671875 3920.055176
1512.671753 20825.607422
1513.174683 25123.785156
1513.673462 12952.427734
1518.157959 3848.01416
1519.680054 40322.507812
1520.184448 50689.097656
1520.686401 3131.243896
1526.670288 12526.439453
1538.667358 3313.296143
1544.200317 9801.831055
1544.706665 14905.785156
1547.196533 4021.54834
1547.685791 5014.411621
1555.206543 4260.381836
1555.692139 16291.69043
1556.205444 8954.254883
1556.710327 2987.521973
1560.699341 4425.878418
1561.187134 4919.454102
1561.692993 8052.176758
1569.21582 30648.890625
1569.715698 33107.726562
1570.215088 22016.199219
1570.705688 4639.572266
1577.700317 3230.821533
1578.221069 3902.475342
1578.719238 26830.8125
1579.217285 33541.773438
1579.718262 9029.844727
1603.21228 7964.015137
1603.721802 10931.665039
1605.742798 12978.959961
1611.72168 30309.375
1612.229126 27994.462891
1612.721802 12488.182617
1620.237793 26321.181641
1620.735474 23699.183594
1621.238281 11874.922852
1625.717773 13690.852539
1626.219849 8474.37207
1634.234863 12285.431641
1634.733643 15362.361328
1747.819214 3438.70166
1861.850342 3729.141846
2137.939209 3552.831543
2141.558594 2883.292969
2506.037354 4290.255371
2523.053711 3252.975342
2760.770264 3671.508057
2945.658691 3491.109863
END IONS
