BEGIN IONS
PEPMASS=873.274
CHARGE=1
MSLEVEL=2
SOURCE_INSTRUMENT=LC-ESI-Orbitrap
FILENAME=f.daniel/Albis/XA_Frac_9.mzXML;
SEQ=*..*
IONMODE=Positive
ORGANISM=GNPS-LIBRARY
NAME=Beta-Methoxy-Albicidin M+H
PI=Roderich Suessmuth
DATACOLLECTOR=Daniel Petras
SMILES=OC1=CC=C(/C=C(C)/C(NC2=CC=C(C(NC(C(OC)C#N)C(NC3=CC=C(C(NC4=CC=C(C(NC5=CC=C(C(O)=O)C(O)=C5OC)=O)C(O)=C4OC)=O)C=C3)=O)=O)C=C2)=O)C=C1
INCHI=
INCHIAUX=
PUBMED=28876492
SUBMITUSER=daniel
TAGS=
LIBRARYQUALITY=3
SPECTRUMID=CCMSLIB00004681481
SCANS=797
246.0 2.299719
246.166672 4.397028
246.75 0.000278
280.0 17.043613
280.416656 6.950469
281.0 0.00041
285.083344 111.485939
285.916656 0.000419
290.583344 1.976486
291.166656 9.8e-05
292.833344 3.41796
293.416656 0.000204
294.166656 0.767171
294.666656 7.2e-05
297.833344 0.717738
298.166656 0.432523
298.75 3.6e-05
304.083344 0.533457
304.666656 4.4e-05
312.0 0.46874
312.583344 4.1e-05
321.0 0.394927
321.5 2.2e-05
326.083344 6.425166
326.416656 0.840521
326.916656 5.8e-05
330.416656 0.708907
331.083344 128.846283
331.916656 1.462144
332.083344 1.625416
332.666656 8.6e-05
348.166656 1.249751
348.333344 0.498992
349.083344 72.256401
350.166656 1.505927
350.666656 0.00013
364.583344 0.972901
365.166656 14.648812
366.0 0.000216
368.166656 2.924595
368.75 0.000144
375.083344 3.391065
375.25 3.159026
375.833344 0.000209
378.916656 3.289968
379.25 2.408657
379.833344 0.000141
394.083344 15.896617
394.75 0.000446
395.166656 0.435318
395.666656 2.3e-05
399.083344 4.708018
399.333344 1.761034
399.916656 0.000119
405.833344 4.875569
406.25 19.143385
407.0 0.000558
411.083344 3.792719
411.5 0.881697
412.0 4.6e-05
412.416687 1.407145
413.0 7.9e-05
417.166687 1.166332
417.666687 8.9e-05
420.083344 0.385841
420.666687 3.3e-05
424.083344 3.333577
424.666687 0.000258
429.166687 1.431884
429.333344 0.978163
429.916687 6.4e-05
432.333344 1.530715
432.916687 0.000104
437.083344 0.363806
437.666687 2.3e-05
445.166687 19.688618
446.083344 0.00024
450.083344 5.251895
450.833344 1.015242
451.416687 6.3e-05
451.916687 1.552531
452.5 0.000135
463.25 1.708986
463.75 9e-05
465.25 0.979846
465.75 5.6e-05
468.166687 794.225952
469.25 4.076527
469.833344 0.000269
478.25 0.987626
478.833344 6.4e-05
480.416687 1.276347
480.916687 8.3e-05
488.333344 2.542706
488.916687 0.000123
490.166687 1.085995
490.75 1.214684
491.166687 7.32249
491.416687 8.731742
492.083344 1.047514
492.666687 2.638864
493.333344 26.629036
494.083344 2.075325
494.666687 0.0001
496.083344 0.33248
496.666687 2.9e-05
498.166687 3.190863
498.5 4.756592
499.083344 0.000271
512.166687 4.613181
512.416687 2.464593
513.0 0.000149
523.166687 0.895584
523.666687 5.5e-05
525.166687 365.844574
526.166687 0.657126
526.75 4.2e-05
530.166687 128.146118
530.916687 0.373289
531.416687 2.4e-05
539.25 0.665695
539.75 4.4e-05
540.666687 1.328585
541.416687 2.271306
541.833313 2.478212
542.416687 0.000136
542.833313 2.865988
543.416687 0.000168
552.25 0.937065
552.833313 7.4e-05
555.333313 2.270322
555.916687 0.00012
559.333313 1.909421
559.583313 0.727467
560.166687 1.246342
560.666687 8.2e-05
561.416687 0.76018
562.0 5.2e-05
570.833313 5.540093
571.083313 11.961128
571.25 15.081569
572.0 2.266235
572.25 1.865308
572.75 0.000123
574.25 0.903407
574.75 7.4e-05
576.0 9.466539
576.25 10.160008
576.583374 4.931108
577.0 7.318456
577.666687 1.075027
578.083374 3.055037
578.416687 0.603984
579.0 4.5e-05
583.0 0.953683
583.583374 7.6e-05
587.5 0.983402
588.0 8.3e-05
589.583374 0.73162
590.083374 8e-05
602.25 1.892336
602.833374 0.000133
609.916687 5.721739
610.333374 3.344731
610.916687 0.000186
621.916687 0.49243
622.416687 4.8e-05
626.916687 1.477694
627.333374 4.403194
627.75 11.593354
628.166687 9.303123
628.333374 9.226472
629.0 0.000206
630.416687 1.072469
631.0 7.4e-05
631.666687 1.902369
632.25 9.9e-05
634.0 1.806994
634.583374 0.000109
641.25 1.979689
641.75 0.000164
642.333374 2.637714
642.916687 0.000147
648.25 0.95958
648.75 7.5e-05
657.166687 2.882581
658.083374 187.097595
659.166687 0.000941
662.0 1.373401
662.583374 1.512982
663.166687 13.11678
664.083374 1.477531
664.583374 0.000129
665.75 2.394339
666.333374 0.000132
668.75 2.83629
669.333374 0.000202
671.083374 1.149551
671.666687 6.7e-05
676.0 4.171931
676.25 3.452609
676.5 1.45235
677.166687 1.265409
677.75 7.5e-05
680.833374 9.422495
681.25 22.394821
682.083374 0.000292
684.333374 1.818026
684.833374 0.000136
687.25 3.429856
687.75 0.986501
688.333374 5.450014
690.166687 3064.028564
691.083374 1.937168
691.416687 2.916954
692.0 0.000145
695.083374 121.086891
696.25 0.000545
703.75 0.515264
704.0 1.991192
704.25 9.51224
704.916687 0.000327
707.833374 0.881938
708.083374 1.680311
708.583374 6.844364
709.25 2.181353
709.833374 0.000157
711.75 0.415738
712.0 4.713761
713.083374 266.886505
714.083374 1.207613
714.583374 0.000102
716.333374 1.123407
716.833374 7.8e-05
729.166687 1.621614
729.75 0.000109
730.5 0.459717
731.083374 2.3e-05
732.333374 1.512373
732.916687 9.6e-05
734.083374 3.123849
734.333374 1.132489
734.666687 0.938142
735.25 5e-05
736.083374 7.74502
736.333374 2.986109
736.916687 0.000195
743.666687 1.255961
744.25 7.4e-05
747.5 0.921985
748.0 6.4e-05
754.666687 3.931584
755.333374 1.496249
756.0 0.602258
756.5 3.6e-05
758.166687 2.338327
758.75 0.000182
764.25 2.561842
764.833374 0.000138
768.0 1.037623
768.583374 7.7e-05
772.416687 1.650607
773.0 0.000107
776.083374 1.247562
776.583374 0.000117
781.25 1.803603
782.0 0.672283
782.5 4.9e-05
784.083374 4.006002
784.666687 0.000241
794.0 1.681547
794.583374 0.000111
800.416687 1.121125
800.833374 1.268813
801.333374 0.000116
805.166687 2.382139
805.75 0.000142
812.416687 1.038155
812.833374 1.969986
813.416687 0.000105
815.416687 0.910543
815.75 0.505077
816.333374 2.5e-05
819.333374 2.276031
819.916687 0.00013
822.416687 1.614085
822.916687 1.387132
823.5 1.870055
824.0 3.309036
824.166687 4.770089
824.333374 3.659933
824.583374 0.914829
825.083374 2.813065
825.333374 5.378512
825.916687 0.000344
826.916687 1.027956
827.416687 7.7e-05
828.916687 3.166354
829.25 3.148133
830.083374 1.913828
830.666687 9.1e-05
832.083374 6.14563
832.666687 0.0003
833.666687 1.832208
834.25 0.000122
835.666687 1.442651
836.333374 5.808897
837.25 2.984906
837.833374 0.000183
838.75 2.0864
839.333374 0.000143
839.666687 1.459422
840.166687 3.343965
840.583374 12.248339
841.083374 71.194656
841.25 73.224396
841.916687 3.347425
842.166687 5.255661
842.333374 4.663506
842.666687 0.971848
843.166687 7.8e-05
843.666687 1.720063
844.166687 0.000137
844.666687 0.623811
845.0 0.75087
845.583374 4.3e-05
847.25 1.815157
847.833374 0.000117
848.083374 1.332809
848.666687 7.2e-05
853.833374 1.919986
855.25 155.583176
856.0 2.046341
856.333374 5.698351
856.833374 2.216326
857.333374 0.600043
858.166687 3.395434
858.5 5.151924
858.75 2.204206
859.166687 2.756935
859.416687 2.547829
860.0 0.000139
865.75 4.341307
866.333374 0.000467
871.25 1.822863
872.0 2.285706
872.583374 0.000153
874.583374 1.483991
875.083374 0.000102
END IONS
