BEGIN IONS
PEPMASS=737.311
CHARGE=1
MSLEVEL=2
SOURCE_INSTRUMENT=LC-ESI-qTof
FILENAME=f.Esposito/E-dendroides-ref/euphodendroidin B.mgf;
SEQ=*..*
IONMODE=Positive
ORGANISM=GNPS-LIBRARY
NAME=euphodendroidin B M+Na
PI=Litaudon and Paolini
DATACOLLECTOR=Esposito
SMILES=C[C@@]1(OC(C)=O)C[C@](O)(C([C@@H](C)/C=C/C(C)(C)[C@H](OC(C)=O)[C@H](OC(C)=O)[C@@H](OC(C2=CC=CC=C2)=O)C([C@@H]3OC(C(CC)C)=O)=C)=O)[C@]3([H])[C@H]1O
INCHI=
INCHIAUX=
PUBMED=
SUBMITUSER=Esposito
TAGS=
LIBRARYQUALITY=3
SPECTRUMID=CCMSLIB00004680107
SCANS=1
57.06905 725.507812
69.033356 317.052887
83.048386 157.481506
85.064041 216.530106
95.04792 183.952194
95.084 221.012894
97.027443 165.945801
105.032539 2178.590088
107.084259 156.539398
109.06398 159.729996
109.100357 567.386414
119.083809 172.201202
121.099648 173.745804
123.042656 459.249908
123.078728 206.811203
131.083893 323.934601
133.099609 222.873093
135.078598 202.432297
143.083817 202.503098
145.023804 231.332993
145.09874 167.185501
147.078323 209.142899
149.094391 213.807907
157.099396 415.267212
159.078445 329.455109
159.115051 296.258209
161.094498 146.294495
163.073135 171.514099
171.078232 146.821304
171.11499 488.00769
175.072861 276.261108
175.110092 187.052307
177.089081 191.774399
181.09819 183.291199
185.130814 264.587006
187.035019 255.647202
187.073105 556.764526
187.109726 195.192703
189.126053 166.464493
195.114578 295.814087
199.109268 204.338394
205.084641 227.277603
207.114471 201.002197
209.129913 265.780304
211.109329 171.055099
213.125473 326.764801
215.067947 230.653397
215.104172 294.544891
215.139465 178.141693
223.109406 236.553101
223.145142 183.289001
225.126038 271.340393
227.104858 175.244293
227.140228 216.180603
229.082581 152.688904
229.119598 165.157898
233.078232 172.879105
237.124878 338.709412
237.160065 304.058594
241.119659 217.093002
247.144119 159.044403
251.140121 185.383194
253.119492 160.141495
255.134811 181.844604
255.171677 389.889587
265.156525 776.306824
269.150787 210.802795
275.140961 192.467606
283.167725 1599.765991
284.170532 152.690094
293.151062 726.756226
301.177521 359.358612
305.14859 330.202911
311.161987 1973.862061
312.164856 196.123993
323.157715 162.344101
329.172546 731.560486
333.143982 1210.170044
351.154419 1773.761963
365.170166 704.205017
371.183289 353.87851
393.164612 2549.031006
394.166565 170.8004
411.176025 1810.510986
412.178741 203.123993
425.190643 955.057983
427.182922 180.100906
435.210388 647.276978
453.186829 3364.858887
453.21756 1474.421997
454.189484 288.121887
455.180084 867.579895
471.196411 549.703979
473.189728 559.510071
487.204987 286.259613
495.232239 1563.31897
496.234863 221.271896
505.178802 329.036591
513.206177 927.342224
513.236755 559.621826
514.2099 173.268799
515.201111 3534.506104
516.203979 424.085388
527.255859 163.856094
547.225403 310.069397
555.253418 4101.294922
556.256409 440.058502
557.213257 650.978516
557.244995 330.536194
575.222351 21218.730469
575.350647 219.720505
576.225403 2688.759033
615.274414 2337.525879
616.277588 407.092804
617.268616 5928.441895
618.271667 973.721497
635.243286 19859.150391
635.377502 202.701996
636.246399 2663.990967
655.30658 324.264313
659.277588 157.710602
677.290771 130284.0
678.102295 165.169098
678.293396 17851.179688
678.443298 162.582993
678.695984 163.760895
737.311646 145251.90625
738.314392 20021.820312
738.464539 207.899796
738.580139 174.789703
738.652222 185.756393
END IONS
