BEGIN IONS
PEPMASS=665.293
CHARGE=1
MSLEVEL=2
SOURCE_INSTRUMENT=LC-ESI-Hybrid FT
FILENAME=f.lfnothias/140221_LF_015_AcOEt_ASE-cpd-9.mzXML;
SEQ=*..*
IONMODE=Positive
ORGANISM=GNPS-LIBRARY
NAME=5,7-diacetoxy-3-benzoyloxy-14,15-dihydroxy-8-isobutyryloxy-9-oxojatropha-6(17),11E-diene (9) M+Na
PI=Louis-Felix NOTHIAS-SCAGLIA
DATACOLLECTOR=Louis-Felix NOTHIAS-SCAGLIA
SMILES=C=C(C1OC(C)=O)[C@H](OC(C)=O)[C@@H](OC(C(C)C)=O)C(C(C)(C)/C=C/[C@@H](C)[C@@H](O)[C@]2(O)[C@]1([H])[C@@H](OC(C3=CC=CC=C3)=O)[C@@H](C)C2)=O
INCHI=InChI=1S/C35H46O11/c1-18(2)32(40)46-29-28(44-23(7)37)21(5)27(43-22(6)36)25-26(45-33(41)24-13-11-10-12-14-24)20(4)17-35(25,42)30(38)19(3)15-16-34(8,9)31(29)39/h10-16,18-20,25-30,38,42H,5,17H2,1-4,6-9H3/b16-15+/t19-,20+,25-,26+,27+,28+,29-,30-,35-/m1/s1
INCHIAUX=
PUBMED=24926807
SUBMITUSER=lfnothias
TAGS=
LIBRARYQUALITY=3
SPECTRUMID=CCMSLIB00000424724
SCANS=1
185.497345 1668.318237
185.499252 2782.350586
185.50116 3053.944824
185.503082 2436.445801
185.50499 1327.558716
193.096588 1674.565796
193.098618 3405.700195
193.100632 4341.79248
193.102661 3805.845703
193.104691 1994.619507
200.60878 2327.823242
200.610931 4724.858887
200.613083 5571.660645
200.615219 4311.962402
200.617371 1873.959839
207.112076 1700.261353
207.114319 3483.728516
207.116577 4486.910645
207.118835 3676.362305
207.121078 1481.69397
211.106247 890.551147
211.108566 2890.375
211.110886 4262.840332
211.113205 3532.018555
211.115524 1246.127808
211.143341 641.715088
211.14566 2753.068359
211.14798 3814.396484
211.150299 2973.607422
211.152618 1274.286743
213.123291 2054.822266
213.125641 3756.515137
213.128006 3980.401367
213.130356 2646.11377
213.132706 1133.352417
217.080627 1886.105347
217.083054 5273.593262
217.085464 7088.682617
217.087891 5876.56543
217.090302 3015.277344
217.092728 1121.063599
225.121262 1259.30896
225.123825 5660.777344
225.126373 9516.738281
225.128922 9861.105469
225.131485 6527.147461
225.134033 2212.950684
225.159561 435.105225
225.162109 3089.217285
225.164673 4157.255371
225.167221 2706.040527
225.169769 144.978394
227.135895 1090.961548
227.138489 4615.856934
227.141068 7595.851562
227.143661 7518.180664
227.14624 4413.780762
227.148834 957.324951
229.114777 1843.085327
229.117401 4714.453125
229.120026 7146.259766
229.12265 7300.952148
229.125259 5093.484863
229.127884 2434.563965
229.130508 884.135376
237.120743 926.914673
237.123489 2236.217773
237.126251 3792.649414
237.129013 3343.391602
237.131775 1031.149292
239.139572 1607.913452
239.14238 3362.184082
239.145172 3730.824219
239.147964 2497.164062
239.150757 864.630127
239.173126 3085.194824
239.175919 8772.220703
239.178711 12797.861328
239.181503 12292.780273
239.184296 7913.302734
239.187103 2998.768555
239.189896 227.932617
243.132141 812.759155
243.13501 2222.123535
243.137878 3842.02002
243.140747 4073.873047
243.143616 2962.123047
243.146469 1431.749878
243.818314 1618.973267
243.821198 2260.801758
243.824066 2339.324707
243.82695 2170.837891
243.829819 1700.969116
249.155014 401.792603
249.15799 5556.932129
249.160965 11597.235352
249.163925 13811.167969
249.166901 10209.231445
249.169876 3772.62793
250.842743 1356.216431
250.845749 2287.607422
250.848755 2869.689453
250.851761 2996.857422
250.854752 2740.966797
250.857758 1819.674438
251.173325 1384.264282
251.176331 2663.439941
251.179337 3149.656738
251.182358 2283.456055
251.185364 539.764771
253.115814 1380.170776
253.118851 2570.843262
253.121887 3394.980469
253.124939 3287.033203
253.127975 2309.150879
253.131027 1258.227661
253.15538 1698.497681
253.158417 3433.899902
253.161469 3458.70459
253.164505 2178.402832
253.167557 661.147217
255.133255 1693.802124
255.136337 3540.041016
255.13942 4041.980469
255.142487 3021.457031
255.145569 1637.416626
255.778122 1271.601196
255.781219 2336.647461
255.784302 2575.097656
255.787399 2131.25293
255.790482 1424.330933
257.184265 2004.113159
257.187378 4519.262695
257.190491 5124.824707
257.193634 3546.950195
257.196747 1563.30481
267.162079 458.659302
267.165375 6316.967285
267.168671 21017.359375
267.171997 36170.097656
267.175293 39852.179688
267.178589 29007.226562
267.181885 12970.641602
267.185181 2802.176758
267.188477 696.536743
269.146454 202.775269
269.149811 2144.881348
269.153137 3241.20166
269.156464 2383.406738
269.159821 306.060181
271.15979 857.235962
271.163177 2556.000977
271.166534 3987.050781
271.169922 4005.34082
271.173279 2426.387207
271.176666 319.355713
277.148804 1060.460327
277.152283 5485.161621
277.155792 10372.710938
277.159271 11905.796875
277.16275 8895.592773
277.16626 3962.313477
277.169739 1051.088989
285.171021 394.025269
285.174683 5131.299805
285.178314 15375.287109
285.181946 26115.0
285.185577 29262.845703
285.18924 22225.621094
285.192871 10918.833984
285.196503 2906.405273
295.153351 162.635376
295.157166 3162.585938
295.161011 15025.700195
295.164825 31735.166016
295.168671 41311.015625
295.172485 35503.1875
295.176331 19196.097656
295.180176 4718.060059
299.155853 1297.189087
299.15976 2650.187988
299.163666 2954.504883
299.167572 2286.408203
299.171509 1365.498657
302.921356 1652.484009
302.925323 2371.92041
302.929321 2643.130859
302.933319 2100.530273
302.937286 956.111694
303.360107 1905.926147
303.364075 2301.094727
303.368073 2616.339844
303.37207 2713.896973
303.376068 2425.154785
303.380066 1660.179321
304.694122 1347.233765
304.69812 2342.685059
304.702148 2916.594727
304.706177 2380.814453
304.710205 1015.399536
311.90564 1489.065308
311.90979 2989.934082
311.91394 3478.686523
311.918121 2808.096191
311.922272 2673.666016
311.926453 3232.79541
311.930603 2817.152344
311.934753 1139.521606
313.162415 597.934814
313.166595 4213.61377
313.170807 21487.470703
313.174988 46932.519531
313.179169 62018.515625
313.18335 53985.472656
313.187531 30027.962891
313.191742 8585.032227
317.145081 1200.34314
317.149353 3015.362305
317.153625 3475.094238
317.157898 2370.40332
317.16217 764.302246
331.175293 364.714722
331.17984 6205.370605
331.184387 16064.251953
331.188934 23133.339844
331.193512 21448.910156
331.198059 12552.688477
331.202606 3728.161621
331.207153 445.407593
335.145691 476.254639
335.15033 6524.94043
335.154968 19761.580078
335.159607 31288.28125
335.164246 31258.609375
335.168884 19745.628906
335.173523 6471.337402
353.153473 413.868164
353.158508 2925.550293
353.163513 11000.694336
353.168518 19570.03125
353.173553 21879.925781
353.178558 15770.730469
353.183563 6224.930664
353.188599 426.661377
355.218781 1513.481812
355.223816 3156.919922
355.228882 3592.997559
355.233948 2568.028809
355.239014 1061.663696
369.160034 1106.494751
369.165405 2311.550781
369.170746 2916.466309
369.176117 3057.322754
369.181488 2889.766113
369.186829 2643.844238
369.1922 2553.763672
369.197571 2558.104492
369.202911 2244.508789
369.208282 1280.484253
383.206116 1173.891724
383.211761 5139.768066
383.217438 9624.645508
383.223114 10843.978516
383.22879 7747.706055
383.234436 3268.990234
383.240112 567.545898
385.08371 799.462769
385.089417 2841.65625
385.095123 4313.510742
385.100861 4063.299805
385.106567 2407.5
385.112274 643.992554
395.162445 769.988281
395.168365 7455.535156
395.174316 20433.498047
395.180237 30984.095703
395.186188 30388.527344
395.192108 19246.648438
395.198059 6892.379395
395.203979 1367.654907
395.20993 2377.551758
395.215851 3600.337402
395.221802 3237.203613
395.227722 1857.55896
397.182556 824.719727
397.188538 3208.183105
397.194519 5423.157715
397.2005 5773.181152
397.206482 4204.929199
397.212463 2391.768555
397.218445 1810.30896
401.220917 1775.222778
401.22699 3766.364746
401.233063 4743.965332
401.239136 3765.678223
401.245209 1637.05481
404.951477 2102.241699
404.957611 2607.845215
404.963776 2897.483887
404.96994 3069.489258
404.976105 2830.002441
404.982269 2289.351074
404.988403 1739.324829
405.185577 1907.494995
405.191742 5530.638672
405.197906 9802.640625
405.204071 11095.167969
405.210236 7952.876953
405.2164 2875.727539
413.178955 2479.025879
413.185303 6799.648926
413.19165 9373.391602
413.197998 7980.237305
413.204346 4003.686523
413.210693 1006.55188
423.162201 790.218994
423.168762 3728.418457
423.175354 2748.495117
423.181915 2985.522461
423.188507 1256.97522
423.195099 39212.320312
423.20166 132117.390625
423.208252 236325.265625
423.214813 272688.15625
423.221405 209628.109375
423.227997 100381.039062
423.234558 21886.558594
423.24115 189.757812
431.208527 1347.979614
431.215302 2735.90918
431.222076 3342.339355
431.228851 2840.861816
431.235596 1836.476929
435.201385 2951.547363
435.208252 6783.672363
435.215118 8769.770508
435.221954 7381.426758
435.228821 3661.827148
435.235687 240.593628
439.236023 1962.019897
439.242981 3150.095215
439.249939 3253.587891
439.256897 2382.791016
439.263855 1405.564087
441.204376 5455.75
441.211395 21108.845703
441.218384 38884.6875
441.225403 45175.308594
441.232391 34445.496094
441.23941 15747.333984
441.246399 2463.59668
443.566986 1515.834351
443.574036 2414.633301
443.581116 2739.340332
443.588165 2275.78125
443.595215 1133.801392
447.196655 692.74585
447.203796 3287.09375
447.210938 4976.843262
447.218079 4535.961914
447.22522 2382.890137
447.232391 235.043457
448.162994 1429.10144
448.170166 3005.889648
448.177338 5190.055176
448.184509 6205.306641
448.191681 4840.575195
448.198853 2062.652344
457.180176 1503.720093
457.187561 5625.083496
457.194946 9183.462891
457.202332 9147.606445
457.209717 5571.958984
457.217102 1474.418823
459.18869 518.539429
459.196136 12199.428711
459.203583 30898.050781
459.210999 45019.792969
459.218445 43349.65625
459.225891 27753.300781
459.233307 10931.537109
459.240753 2146.046875
465.203369 1173.126587
465.210938 8101.611328
465.218536 16081.949219
465.226105 18713.326172
465.233673 13843.082031
465.241272 6041.137695
465.24884 1247.014526
475.18042 1346.638062
475.188232 7747.114258
475.196075 23568.4375
475.203888 38767.929688
475.211731 41174.992188
475.219574 28742.847656
475.227386 11778.694336
475.235229 1358.397583
481.145996 1024.90979
481.153961 2402.691406
481.161926 8219.682617
481.169922 19750.394531
481.177887 30523.396484
481.185852 31958.845703
481.193848 21946.697266
481.201813 7828.22168
483.154144 1201.282837
483.16217 2674.042969
483.170197 2609.124023
483.178223 11877.548828
483.186249 14072.21875
483.194275 20919.429688
483.202301 20440.986328
483.210327 81675.492188
483.218353 349731.21875
483.226379 695304.4375
483.234406 868997.5625
483.242432 723619.75
483.250458 384157.5625
483.258484 103450.585938
483.26651 1780.198608
484.223328 951.825317
484.231384 4256.319336
484.23941 7125.516602
484.247467 6460.548828
484.255524 3106.871582
484.26358 178.632202
501.221741 2205.691895
501.230225 12546.560547
501.238708 23419.962891
501.247192 25118.839844
501.255676 15301.318359
501.26416 2080.75
507.210907 437.666504
507.219543 5543.075684
507.22818 11836.473633
507.236816 14243.189453
507.245453 11009.630859
507.254059 5276.662598
507.262695 1424.424438
517.18811 1067.234741
517.197021 12131.416992
517.205872 36606.507812
517.214783 57862.730469
517.223694 58585.519531
517.232544 38576.085938
517.241455 14832.367188
517.250366 4433.899902
517.259216 4330.321777
517.268127 3218.0625
517.277039 1941.995483
519.202759 245.114014
519.211731 13245.523438
519.220642 39174.234375
519.229614 63218.902344
519.238525 66273.609375
519.247498 46049.246094
519.256409 19795.117188
519.265381 5452.460938
519.274292 3305.895508
519.283264 2001.328003
525.217834 1168.606323
525.226929 5406.59375
525.236023 10732.81543
525.245117 13210.532227
525.254211 10336.297852
525.263306 4181.201172
531.217651 402.466309
531.226929 3001.750977
531.236206 4803.69873
531.245422 4384.275879
531.2547 2359.936523
531.263916 338.874512
535.190674 1031.768188
535.200012 11683.661133
535.209351 62145.914062
535.21875 135215.8125
535.228088 180281.515625
535.237427 159060.0625
535.246826 89931.015625
535.256165 26519.410156
535.265503 703.590942
543.195007 1231.056763
543.204529 7210.849609
543.214111 11120.458984
543.223694 20827.5625
543.233276 73185.367188
543.242798 163940.8125
543.25238 232606.390625
543.261963 220674.484375
543.271545 137317.1875
543.281128 48761.023438
543.290649 4694.685059
545.209717 1470.295532
545.219299 17173.679688
545.228943 76841.476562
545.238586 165745.65625
545.248169 223153.109375
545.257812 200010.8125
545.267395 115452.007812
545.277039 34894.082031
546.221252 656.101196
546.230896 11432.30957
546.24054 37870.699219
546.250183 67626.570312
546.259827 78123.59375
546.26947 60180.746094
546.279114 28469.509766
546.288818 5345.903809
546.298462 1577.100952
561.266174 1226.085327
561.276184 2949.335449
561.286255 3575.555664
561.296326 2906.137207
561.306335 1609.209595
563.230774 6377.589844
563.240906 31523.501953
563.250977 63922.976562
563.261108 79746.375
563.271179 65631.664062
563.281311 33888.902344
563.291382 8130.621094
564.151123 984.99646
564.161255 2330.038086
564.171387 4503.84375
564.181519 5981.119629
564.19165 5484.708008
564.201782 3535.760742
564.211914 1918.870483
577.213684 4305.711914
577.224182 10179.999023
577.234619 15287.575195
577.245117 28591.119141
577.255615 60874.945312
577.266113 101794.03125
577.27655 120682.8125
577.287048 98824.742188
577.297546 52392.316406
577.308044 14385.416016
577.318481 161.321777
583.212646 500.415771
583.223267 6401.015625
583.233948 23892.046875
583.244568 44239.070312
583.255249 51687.304688
583.265869 39709.855469
583.276489 18675.841797
583.28717 3576.438965
587.235413 361.543945
587.246155 3145.347168
587.256897 5070.620605
587.267639 4518.415527
587.278381 1860.623901
590.214783 279.625732
590.225647 2710.710449
590.23645 5712.911133
590.247314 6902.649414
590.258118 5394.003418
590.268982 2763.899414
590.279846 945.379272
604.569092 1153.416626
604.580322 3509.257812
604.591553 3192.427246
604.602783 2220.88916
604.614014 2710.959473
604.625244 1848.919312
604.636475 1383.696411
604.647705 3675.258301
604.658936 3499.354492
604.670166 2566.364746
604.681396 3284.463379
604.692627 2144.206055
604.703918 2356.519043
604.715149 4059.75
604.726379 4205.539551
604.73761 2476.625977
604.74884 2828.937012
604.760071 3641.199219
604.771301 3675.88623
604.782593 3403.021484
604.793823 4052.971191
604.805054 2889.195801
604.816284 3271.295898
604.827515 3862.366699
604.838745 3126.893555
604.849976 5870.643066
604.861267 6213.045898
604.872498 3214.158691
604.883728 4577.120605
604.894958 4049.17041
604.906189 4437.639648
604.91748 5163.115234
604.928711 5343.990234
604.939941 5053.082031
604.951172 4660.724121
604.962463 7725.30957
604.973694 8464.444336
604.984924 4403.790527
604.996155 5542.108887
605.007446 7462.15332
605.018677 7373.058594
605.029907 8484.759766
605.041138 9180.349609
605.052429 8423.176758
605.06366 10921.598633
605.07489 6795.480957
605.086121 7322.551758
605.097412 12392.980469
605.108643 12594.55957
605.119873 11291.858398
605.131165 13085.045898
605.142395 11790.932617
605.153625 13344.84082
605.164917 12868.261719
605.176147 11458.095703
605.187378 17250.296875
605.198669 8426.587891
605.2099 27684.019531
605.22113 47269.957031
605.232422 196938.03125
605.243652 828564.8125
605.254883 1935482.0
605.266174 2845551.75
605.277405 2805723.5
605.288635 1832245.625
605.299927 701325.75
605.311157 85149.953125
605.322449 23506.642578
605.333679 3622.740234
605.34491 9943.610352
605.356201 10977.536133
605.367432 17627.980469
605.378723 16149.017578
605.389954 14047.958984
605.401184 14637.418945
605.412476 11102.683594
605.423706 11370.352539
605.434998 10735.776367
605.446228 9659.789062
605.45752 11301.297852
605.46875 10827.808594
605.480042 8320.578125
605.491272 8696.984375
605.502563 7429.128906
605.513794 7023.822266
605.525085 7934.100586
605.536316 7535.388672
605.547546 6309.807617
605.558838 6209.900879
605.570068 6131.555176
605.58136 5436.847168
605.592651 7004.123535
605.603882 7108.843262
605.615173 3955.043457
605.626404 4491.561035
605.637695 4872.815918
605.648926 4522.519043
605.660217 4691.902832
605.671448 3962.029297
605.682739 5321.601562
605.69397 5573.280273
605.705261 2700.585938
605.716553 2775.324707
605.727783 4381.477051
605.739075 3608.091797
605.750305 4050.435547
605.761597 3836.361328
605.772827 3517.127441
605.784119 3795.085938
605.79541 3074.512207
605.806641 3401.46582
605.817932 2832.574707
605.829224 2743.078613
605.840454 3399.309082
605.851746 3689.652832
605.862976 1638.55188
605.987 2110.71582
605.998291 2255.492676
606.009521 2761.635742
606.020813 3279.02002
606.032104 2996.630859
606.043396 1714.021851
606.246399 207.212646
606.257629 3180.469727
606.268921 9826.450195
606.280212 9767.657227
606.291504 3049.932617
623.233948 1045.832886
623.245667 45055.632812
623.257446 188899.1875
623.269226 383629.65625
623.280945 489889.71875
623.292725 416976.4375
623.304504 227777.3125
623.316223 65228.113281
623.328003 1696.734741
END IONS
