BEGIN IONS
PEPMASS=666.2
CHARGE=0
MSLEVEL=2
SOURCE_INSTRUMENT=LC-ESI-Ion Trap
FILENAME=f.jkharbush/GNPS_JenanKharbush/16.0_PhosphatidicAcid_pos.mzXML;
SEQ=*..*
IONMODE=Positive
ORGANISM=GNPS-LIBRARY
NAME=16:0 PA (1,2-dihexadecanoyl-sn-glycero-3-phosphate (sodium salt)) M+NH4
PI=Aluwihare
DATACOLLECTOR=Jenan Kharbush
SMILES=[H][C@@](COP([O-])(O)=O)(OC(CCCCCCCCCCCCCCC)=O)COC(CCCCCCCCCCCCCCC)=O.[Na+]
INCHI=
INCHIAUX=
PUBMED=
SUBMITUSER=jkharbush
TAGS=
LIBRARYQUALITY=3
SPECTRUMID=CCMSLIB00000078673
SCANS=1
184.282913 1.859929
189.166885 2.486744
191.072113 1.282068
194.842239 2.178972
195.396072 6.670686
196.117844 2.087737
197.065552 2.30799
199.191849 6.063819
200.076721 3.228226
201.19516 0.763313
203.162811 2.181107
209.134003 0.704973
210.207413 8.334663
211.234894 1.970208
212.97641 8.373125
214.105011 0.799857
215.315491 0.995079
217.126099 6.816686
219.122513 1.490084
220.314117 1.426986
221.078278 11.224617
222.12854 2.93137
223.220871 0.789352
224.369125 0.503386
225.098907 0.748724
226.002045 0.972432
227.275085 19.313669
228.437271 5.001093
229.159943 0.694639
232.224579 1.353564
234.310867 2.780517
235.185028 4.646903
236.24678 3.113608
237.428955 3.380508
239.150803 8.584981
239.697922 14.096359
241.137009 3.772616
242.312119 1.53883
243.479614 2.182701
245.198257 3.141953
247.260361 1.663316
249.189926 4.820738
251.254486 6.918779
252.023376 0.66265
252.819183 7.436165
254.018524 0.994882
255.210251 7.773468
256.203522 2.041149
257.082123 8.813301
257.861084 2.259963
259.111298 2.231043
260.376038 1.098457
261.275757 2.360088
262.296021 4.647583
263.098206 2.631175
264.321014 6.530562
265.129913 2.041655
267.16684 4.026312
268.414856 0.594026
272.275848 0.807603
275.148804 10.017136
277.131958 8.1745
278.079132 4.371063
279.302704 5.573888
280.53479 6.749446
281.394623 4.126024
282.532013 7.253637
283.287354 7.151074
284.345001 4.368672
285.300781 2.490988
286.30722 4.015025
287.330627 8.836333
289.1604 3.646215
293.232574 7.091383
294.297119 3.362973
295.099243 0.455465
296.204346 3.701089
297.259827 4.826268
297.790131 11.403386
298.296783 2.408234
300.200714 10.371646
303.320709 1.545845
305.395569 2.824893
306.149933 5.57872
307.119507 3.205863
309.490845 8.397701
310.41803 7.568778
311.370056 149.314743
313.36319 24.490944
315.102722 2.040835
318.330292 2.18404
320.284485 3.109808
321.248749 5.744071
323.084106 0.593148
324.378723 0.953395
325.253113 4.384045
326.165375 3.33339
327.315979 8.399984
328.186462 7.152895
333.214539 1.732625
334.279907 3.225299
335.078583 3.181413
336.529144 2.733068
337.152252 3.214723
338.529846 5.887467
339.394928 6.052571
340.688354 3.905291
341.517822 5.335477
342.368622 2.22891
343.25238 2.296633
345.195953 2.867218
347.487152 5.284764
348.323914 2.409618
349.149017 1.468592
350.020386 3.538239
350.745361 2.393804
351.491821 0.840626
352.499329 4.748234
353.204468 16.360603
354.368958 1.705911
355.343201 15.333426
356.471558 5.14448
357.274811 10.344558
358.312378 6.877759
360.358093 1.977927
361.369263 2.188746
362.096558 2.9695
363.265594 3.840368
365.315918 6.507404
366.354767 11.426018
367.383881 17.612917
368.420685 14.234038
369.432617 53.372715
370.193665 3.750195
371.071381 7.704428
372.230103 0.691088
375.391815 5.627937
376.624634 8.481544
377.578125 2.540511
379.385651 9.678984
380.286591 7.849186
381.335358 33.715191
382.070618 6.259074
383.233246 13.097383
384.3078 0.817154
385.161926 8.147857
387.200897 3.801011
389.278839 4.438906
391.158081 13.321804
391.977692 5.067543
393.23642 2390.301758
394.232178 22.884384
395.28241 20.060301
396.327454 5.811449
397.489471 13.53676
398.33551 4.165045
399.445007 5.234173
400.340942 1.941631
401.471497 6.373422
402.222443 4.584837
403.309814 2.834873
404.181946 4.783901
405.296936 5.562168
406.406555 6.156939
407.342468 6.149939
407.983093 2.699048
408.61203 22.707376
409.347992 41.231018
410.419952 21.285418
411.12796 9.619442
412.769073 17.679741
413.333466 2.000586
414.407898 2.978225
415.552551 6.817894
416.187744 0.600705
417.022583 2.242923
417.544861 0.527088
418.289551 1.867612
419.305328 1.202801
420.236298 9.315462
421.401489 5.217672
422.305145 5.355932
423.312622 18.59631
424.368652 3.319832
425.328278 15.85036
425.903107 1.595366
426.603394 17.224426
427.332092 2.985196
428.960052 10.027076
429.886719 4.919383
430.409119 1.932038
431.264099 14.007007
431.970459 2.637586
432.92627 6.795622
433.513885 2.789696
434.822296 14.224815
435.393066 4.23252
436.369659 26.758135
437.281555 28.586447
438.380615 4.325023
439.346558 13.980291
440.270721 5.54027
440.81012 2.635917
441.419342 5.371599
442.575928 2.723326
443.505493 8.152844
445.115723 0.476898
447.174133 7.105632
448.332581 0.580116
449.213013 12.39031
450.612579 8.594597
451.495178 15.764307
453.198181 47.001316
454.153687 3.64847
455.368134 4.475591
456.505371 4.675587
457.157043 1.863886
457.849182 8.836723
458.508484 3.547156
459.43454 14.89938
461.074493 20.736315
462.065216 5.595273
463.352325 17.53484
464.5737 5.140148
465.288788 14.670133
466.441833 5.255333
467.229797 1.756767
468.480804 1.771082
469.576263 6.838359
470.580231 2.35684
471.272339 29.163025
472.041718 8.259203
472.943146 21.413023
473.549133 1.245733
474.551758 2.078436
475.388855 1.761875
476.427979 10.869713
477.464722 57.881241
478.414612 34.889565
479.323059 55.142677
480.437683 0.930652
481.263641 6.499436
481.853333 3.716153
482.49942 4.904135
483.446472 14.47745
484.519653 4.419636
485.168793 4.90799
486.668579 2.163186
487.308197 4.003454
489.682617 11.383834
490.517853 12.86598
491.375488 25.963032
492.466339 30.494059
493.47464 17.138893
495.233276 93.688202
496.37381 109.976906
497.398407 35.83144
498.50061 14.159964
499.196411 3.786861
500.767365 1.778629
501.66803 5.811747
503.336243 7.647935
504.367065 0.768583
505.411652 42.94783
506.446625 19.710823
507.410126 26.540911
508.374023 3.219167
509.438934 8.483727
510.512756 7.836114
511.161926 24.098574
512.307617 4.585681
513.135437 6.569251
515.372314 10.862685
515.95929 4.194456
516.851868 5.996589
517.664185 13.512906
518.579041 19.935909
519.572815 37.682262
520.653625 15.098156
521.351624 12.540139
522.419922 6.218359
523.51825 7.123681
524.516724 6.245137
525.401672 2.540306
526.307556 2.1457
527.371338 6.205548
528.431396 7.770351
528.999817 103.705223
530.06189 84.549461
530.913513 45.050537
532.139526 10.286318
533.370178 24.801542
534.254761 8.654757
534.827637 3.768555
535.558289 20.003534
536.622009 10.44648
537.624939 1.521623
538.486145 4.100447
539.279053 5.397509
540.444885 12.994541
541.400574 7.220108
543.378906 8.064288
544.625732 5.214827
545.445007 4.958425
546.83844 9.374811
548.464722 2.692148
549.641113 13.272952
551.505249 196897.296875
552.367859 1354.777222
553.342224 614.141785
554.353455 122.992767
555.263855 5.147396
556.941406 2.372797
559.599976 3.925293
560.57782 2.426982
561.573669 9.600969
562.395935 8.791729
563.302002 18.353106
564.365906 11.577232
565.489075 30.327307
566.492188 6.53126
567.390015 27.035213
569.190308 16.363697
570.332886 1.096108
571.607117 4.748571
572.687805 3.932471
573.407288 4.527041
575.143738 17.837267
576.691772 11.085644
577.268616 3.675882
577.882996 0.636477
578.525635 17.803509
579.389038 47.051273
580.190369 5.960877
581.276794 3.584249
582.693481 4.782582
583.660828 5.68817
584.793274 11.652514
585.84729 14.887401
587.296814 20.838085
588.274658 5.758106
589.274719 9.798727
590.827576 13.386955
592.031372 10.283958
593.532471 8.545726
594.231934 19.710171
595.273438 15.189093
596.730835 6.305749
597.902039 1.166995
599.307556 4.785058
599.901428 7.429862
601.030945 14.597137
602.027222 10.886851
602.724854 7.751361
603.566162 6.061363
604.133606 8.305516
604.699036 0.808689
605.330811 65.07093
606.495667 39.326088
607.369141 725.610229
608.322937 7857.217773
609.350464 2370.216064
610.375305 331.525635
611.527466 23.439047
612.290527 6.523154
613.650574 4.332674
615.522766 1.343525
617.457336 6.380301
618.881653 64.957237
619.793274 39.268547
620.747009 31.918011
621.656067 31.967461
622.692139 22.354918
623.454224 32.241699
624.350891 31.340864
625.600281 32.600403
626.808228 16.797909
628.291809 6.287761
628.877502 108.878563
629.668091 110.50676
630.425293 14.365943
631.047729 238.294144
631.627991 3.86543
632.422668 4.828352
633.087341 5.105969
634.019104 5.382751
634.620422 15.629259
635.513306 29.853775
636.574158 32.974758
637.775085 17.311409
638.405823 16.532616
639.3172 11.635239
640.060791 1.782003
641.416504 6.744247
642.121948 1.1338
643.044861 8.071978
643.901428 2.628148
644.652039 10.471541
645.63855 51.557655
646.721985 340.30835
647.586609 1251.519531
648.246704 592.629761
648.796997 5909.308105
649.732971 100.015503
650.511536 5.985315
651.443909 1.254272
654.559265 2.482693
655.854187 1.72935
656.359558 29.100084
657.098511 14.584308
658.147888 8.153216
659.471924 0.858341
664.826782 62.741627
665.686951 41.604549
666.495483 8.531255
667.256836 7.291151
667.89325 11.681229
708.320374 4.143807
716.884827 0.404316
724.525391 1.603373
731.074158 1.243263
759.723328 3.139831
785.281555 1.927928
789.267395 8.642724
END IONS
