BEGIN IONS
PEPMASS=874.53
CHARGE=1
MSLEVEL=2
SOURCE_INSTRUMENT=LC-ESI-qToF
FILENAME=P2_C1_conc_GE1_01_2419.mzXML
SEQ=*..*
IONMODE=Positive
ORGANISM=GNPS-LIBRARY
NAME=_130099 M+H
PI=Cichewicz
DATACOLLECTOR=Luzzatto
SMILES=OC1=CC=C(CC(C(NC(C(C)C)C(OC(C(CCCCCCCCCC)C)CC(NC(C(NC(C(NC(C(NC2CCC(N)=O)=O)C)=O)C)=O)C(O)C)=O)=O)=O)NC2=O)C=C1
INCHI=N/A
INCHIAUX=N/A
PUBMED=
SUBMITUSER=tal_lk
TAGS=
LIBRARYQUALITY=2
SPECTRUMID=CCMSLIB00000478517
SCANS=2270
91.056328 304.0
100.074707 332.0
101.071724 3788.0
102.072296 528.0
109.100822 304.0
115.086426 2476.0
118.086304 5232.0
119.046577 356.0
119.087807 844.0
121.066307 332.0
121.099747 356.0
127.083939 620.0
128.104767 532.0
129.068054 588.0
136.075394 9800.0
137.07843 1188.0
138.089722 632.0
139.094131 476.0
143.081131 9688.0
143.117218 396.0
144.083923 556.0
145.097092 492.0
146.09346 432.0
155.080551 2028.0
156.061981 264.0
156.07959 556.0
160.107254 2848.0
161.105011 308.0
166.04834 436.0
169.09668 472.0
171.113403 520.0
172.106567 636.0
173.095062 696.0
174.096893 392.0
181.096939 512.0
183.076385 2668.0
183.109039 384.0
187.106766 280.0
189.123596 3036.0
190.121124 804.0
191.123779 328.0
192.096802 444.0
197.090515 1024.0
197.126953 332.0
198.09549 364.0
198.121689 696.0
199.078156 464.0
199.104736 780.0
200.102646 13476.0
201.104828 1776.0
202.087326 512.0
205.191818 724.0
207.111465 1600.0
208.107117 628.0
209.089249 652.0
211.069656 432.0
215.10408 264.0
216.131271 424.0
217.127228 748.0
218.117889 500.0
219.112762 1208.0
223.204849 4360.0
224.206802 1220.0
226.118301 3104.0
227.126526 560.0
228.096848 844.0
228.131317 896.0
229.116455 1324.0
230.136917 416.0
233.127914 340.0
235.106445 2356.0
235.141724 3668.0
236.126999 2072.0
236.233795 352.0
237.088196 564.0
237.125977 588.0
240.231552 3692.0
241.235703 948.0
243.143326 2424.0
244.131744 940.0
245.126694 472.0
246.125107 1968.0
247.107468 6580.0
248.109482 992.0
250.251801 512.0
252.233032 552.0
253.128265 384.0
254.107468 444.0
254.148407 500.0
256.132477 392.0
260.16098 864.0
261.124298 692.0
261.155945 960.0
263.137207 1328.0
264.133179 7304.0
265.132172 1140.0
267.142761 304.0
268.127747 856.0
271.139679 28964.0
272.141418 2648.0
273.128387 664.0
274.118408 2704.0
275.102386 5228.0
276.106445 652.0
278.246033 3680.0
279.251251 508.0
280.224823 2564.0
280.259949 1076.0
281.148621 22248.0
281.232483 720.0
282.152466 3616.0
283.150238 724.0
285.155243 604.0
287.100128 364.0
289.158112 376.0
290.149994 708.0
291.170197 648.0
292.127502 5832.0
293.12439 1020.0
294.248566 492.0
296.257172 13752.0
297.258942 3868.0
298.248047 404.0
298.254486 892.0
299.175262 352.0
300.15097 620.0
301.120331 872.0
303.137939 404.0
305.25824 292.0
306.144897 560.0
306.241974 41792.0
306.764862 440.0
307.162415 1132.0
307.245209 7080.0
308.247009 916.0
309.153198 424.0
310.136719 388.0
314.269135 1820.0
315.268829 396.0
317.171997 452.0
318.143494 3520.0
319.148407 432.0
320.119934 360.0
320.162262 368.0
321.291809 308.0
322.269745 428.0
323.167847 536.0
323.268585 744.0
324.154083 304.0
324.252686 31252.0
325.184448 960.0
325.255096 6628.0
326.180969 680.0
326.259064 1164.0
327.164307 4160.0
328.129517 684.0
328.16568 768.0
329.126953 404.0
329.154327 292.0
331.127197 400.0
331.276031 672.0
332.124115 436.0
332.272583 296.0
333.250214 908.0
334.176514 460.0
335.171509 904.0
337.166687 620.0
341.278473 424.0
342.261322 3256.0
343.201202 656.0
343.260498 956.0
344.153687 292.0
344.178986 408.0
345.19043 340.0
346.138458 2388.0
346.173462 1752.0
347.141602 376.0
347.171448 572.0
348.150879 420.0
349.283386 12396.0
350.287292 2396.0
351.264923 2740.0
352.184204 1208.0
352.265961 332.0
353.185272 344.0
354.172791 1332.0
355.180298 516.0
356.165497 320.0
357.306458 1624.0
358.137054 400.0
358.276276 616.0
358.314209 904.0
359.271332 464.0
360.261719 268.0
361.184448 296.0
362.173889 392.0
363.162933 3316.0
364.165039 804.0
365.168732 404.0
367.295929 2040.0
368.190643 288.0
368.297333 388.0
369.27652 1084.0
370.201508 324.0
371.193542 800.0
372.186401 1020.0
373.154419 260.0
373.18692 956.0
374.128479 564.0
374.171753 3940.0
375.171814 1304.0
376.183014 280.0
376.303253 428.0
377.279175 33468.0
378.282227 8024.0
379.284332 1472.0
388.218231 1032.0
389.183044 4828.0
390.184967 1276.0
391.115936 504.0
391.196198 14168.0
392.183197 8856.0
393.18515 1980.0
394.190857 480.0
394.307892 820.0
395.288971 28548.0
396.185486 572.0
396.291687 6972.0
397.296265 2024.0
399.164459 392.0
399.202179 284.0
400.150024 280.0
401.174072 296.0
402.164001 368.0
402.306763 424.0
405.216736 548.0
406.204926 2356.0
407.20639 1036.0
409.20636 3804.0
410.208984 800.0
412.322754 1044.0
413.302246 5616.0
414.301178 1464.0
415.302002 440.0
416.199951 552.0
417.176575 1288.0
417.2052 1568.0
418.191162 904.0
419.193878 548.0
420.182312 420.0
420.321594 1444.0
421.315948 824.0
422.251892 420.0
422.300049 1480.0
423.223846 560.0
423.318176 3412.0
424.326477 940.0
425.319458 284.0
426.23941 280.0
427.204834 384.0
428.192169 260.0
429.170197 308.0
430.308197 428.0
434.202057 5420.0
434.306458 256.0
435.210999 1436.0
436.19928 632.0
436.233429 368.0
438.332916 916.0
440.32251 352.0
441.325409 896.0
442.317108 424.0
442.342407 648.0
443.235748 288.0
445.207245 2552.0
446.209473 1320.0
447.200409 332.0
447.337189 520.0
448.315582 10844.0
449.319244 3624.0
450.320099 468.0
452.216278 748.0
452.309235 352.0
453.328644 476.0
456.742737 472.0
462.235443 928.0
463.216766 5896.0
464.222137 1896.0
465.225098 696.0
465.341949 2088.0
466.326813 14288.0
467.332153 5248.0
468.337372 1408.0
469.302917 276.0
469.332947 556.0
471.21582 408.0
472.227783 312.0
473.200684 264.0
475.213409 272.0
476.348633 584.0
480.240173 1376.0
481.245331 704.0
483.347839 1084.0
484.335266 6576.0
485.342194 2432.0
486.341248 344.0
487.313324 652.0
488.247437 1668.0
488.311157 368.0
489.242371 728.0
490.225525 1440.0
491.227173 868.0
494.356049 768.0
495.360657 320.0
499.218414 304.0
501.359924 1088.0
502.366547 412.0
505.33667 336.0
506.267242 512.0
507.262054 464.0
508.245361 264.0
508.332672 388.0
512.366821 584.0
514.232971 288.0
514.30835 428.0
516.245361 564.0
517.240295 448.0
518.245544 544.0
520.373718 600.0
521.37793 476.0
523.348877 420.0
524.348328 256.0
526.327271 332.0
530.380859 536.0
531.382263 356.0
532.344788 472.0
533.269287 696.0
533.349976 408.0
534.252502 2484.0
534.356445 380.0
535.256042 968.0
535.356873 636.0
536.274719 444.0
537.28241 264.0
538.392456 332.0
539.366943 568.0
541.362793 480.0
542.346558 440.0
548.384033 1340.0
549.374084 784.0
550.35437 716.0
551.280273 9060.0
552.28418 4008.0
552.372009 528.0
553.284668 828.0
555.418884 868.0
556.409546 776.0
557.417542 376.0
558.367615 1228.0
559.370605 544.0
560.241272 304.0
560.376526 504.0
561.36499 428.0
565.395264 948.0
566.393433 636.0
567.37262 324.0
568.385254 276.0
570.362793 616.0
576.376709 3752.0
577.37439 1776.0
578.369446 472.0
579.373596 572.0
580.36261 252.0
582.427124 300.0
583.408813 796.0
584.39325 336.0
586.381592 2792.0
587.380615 1348.0
588.386475 516.0
594.387268 3620.0
595.385376 964.0
596.388428 372.0
597.373413 372.0
598.349426 412.0
600.434937 1948.0
601.437012 452.0
602.435791 360.0
603.401245 388.0
604.403198 424.0
605.394836 712.0
606.400269 552.0
611.41156 624.0
612.394592 2508.0
613.396118 720.0
614.429565 404.0
629.390076 492.0
630.420349 668.0
631.403687 288.0
632.40564 332.0
634.310486 280.0
639.389648 652.0
640.421936 396.0
642.400574 288.0
643.4104 724.0
644.41571 452.0
647.432739 388.0
648.39447 276.0
648.438416 608.0
649.424316 584.0
657.423096 484.0
658.421631 592.0
659.418396 444.0
667.444092 296.0
668.415955 360.0
669.414429 676.0
670.413208 480.0
671.401245 344.0
672.402954 260.0
673.454224 560.0
674.457947 304.0
675.447144 408.0
676.436279 668.0
683.46051 428.0
684.43573 436.0
686.433044 316.0
687.431641 364.0
693.453491 692.0
694.431091 844.0
695.420898 372.0
696.420227 280.0
697.414124 1092.0
698.418701 1212.0
700.458923 380.0
701.447632 632.0
702.441223 352.0
703.454224 300.0
704.450806 288.0
711.455322 932.0
712.449646 952.0
713.426575 808.0
714.451721 500.0
715.421326 728.0
716.431885 532.0
717.421936 304.0
718.46814 548.0
723.427979 360.0
729.458618 416.0
730.445984 480.0
739.439514 784.0
740.437256 348.0
741.440796 1020.0
745.490295 276.0
746.4646 388.0
747.472961 332.0
750.440063 292.0
757.448547 1424.0
758.449585 1168.0
759.426758 420.0
759.46637 648.0
763.503723 1052.0
764.505188 428.0
765.476257 316.0
767.449036 360.0
768.460999 1204.0
769.458618 576.0
770.468811 440.0
773.487183 272.0
775.452881 1428.0
776.464661 1088.0
785.48175 884.0
786.464844 1020.0
787.460876 292.0
803.483276 340.0
804.50293 260.0
811.493408 364.0
812.458496 424.0
812.503357 632.0
813.512207 272.0
821.477905 504.0
822.484314 260.0
828.51532 1316.0
829.509521 1604.0
830.512268 812.0
831.491821 340.0
838.505432 780.0
839.493958 1028.0
840.490967 1204.0
846.527283 1852.0
847.531738 732.0
856.51416 11056.0
857.510132 11996.0
857.635559 256.0
858.50708 5432.0
859.502869 1884.0
859.866455 288.0
860.527283 312.0
867.240051 272.0
871.497864 276.0
872.759033 260.0
872.851135 392.0
872.969299 380.0
873.274109 264.0
873.350647 296.0
873.559692 376.0
873.847412 528.0
874.184692 396.0
874.238892 552.0
874.329956 340.0
874.430847 872.0
874.529724 167796.0
874.697937 404.0
874.94165 308.0
875.010254 436.0
875.078735 316.0
875.196716 404.0
875.30542 288.0
875.426208 852.0
875.531494 124964.0
875.927612 316.0
876.159851 464.0
876.315002 352.0
876.435303 328.0
876.533508 29028.0
876.827271 276.0
877.384033 348.0
877.53418 5464.0
878.526428 436.0
879.09375 264.0
879.798645 260.0
879.859924 620.0
879.954468 284.0
END IONS
