BEGIN IONS
PEPMASS=1309.86
CHARGE=1
MSLEVEL=2
SOURCE_INSTRUMENT=LC-ESI-qTof
FILENAME=f.amcaraballor/DorresteinLab_AMCR_2018/2018_02_12_NSF_FGA_Plates1_2_mzXML/PD-FGA-21_BD2_01_8377.mzXML;
SEQ=*..*
IONMODE=Positive
ORGANISM=GNPS-LIBRARY
NAME=Putative orfamide G M+H
PI=Dorrestein
DATACOLLECTOR=amcaraballor
SMILES=O=C(NC(C(NC(C(NC1C(C)OC(C(C(C)C)NC(C(CO)NC(C(CC(C)C)NC(C(CC(C)C)NC(C(CO)NC(C(CC(C)C)NC(C(C(C)C)NC1=O)=O)=O)=O)=O)=O)=O)=O)=O)CCC(O)=O)=O)CC(C)C)CC(O)CCCCCCCCCCCCC
INCHI=InChI=1S/C65H116N10O17/c1-15-16-17-18-19-20-21-22-23-24-25-26-43(78)33-51(79)66-45(29-36(2)3)57(83)67-44(27-28-52(80)81)56(82)75-55-42(14)92-65(91)54(41(12)13)74-62(88)50(35-77)72-59(85)47(31-38(6)7)68-58(84)46(30-37(4)5)69-61(87)49(34-76)71-60(86)48(32-39(8)9)70-63(89)53(40(10)11)73-64(55)90/h36-50,53-55,76-78H,15-35H2,1-14H3,(H,66,79)(H,67,83)(H,68,84)(H,69,87)(H,70,89)(H,71,86)(H,72,85)(H,73,90)(H,74,88)(H,75,82)(H,80,81)
INCHIAUX=
PUBMED=N/A
SUBMITUSER=amcaraballor
TAGS=
LIBRARYQUALITY=3
SPECTRUMID=CCMSLIB00004679304
SCANS=3078
97.31279 49.0
98.446609 27.0
99.670868 52.0
101.898888 64.0
104.801033 28.0
104.907333 30.0
106.239616 35.0
106.710075 30.0
115.27787 27.0
115.438385 55.0
115.587975 48.0
116.527534 58.0
117.400879 51.0
117.461792 73.0
117.989731 70.0
118.889183 34.0
122.713379 48.0
124.945633 27.0
128.697739 67.0
129.769867 32.0
130.23764 53.0
131.671768 34.0
132.106445 59.0
136.869583 28.0
138.312836 52.0
139.082336 90.0
140.281876 42.0
141.070282 63.0
141.134766 59.0
142.124512 76.0
145.056107 30.0
145.426819 36.0
148.078308 93.0
151.620758 34.0
154.734421 49.0
157.208847 40.0
160.312546 42.0
161.024628 54.0
161.114227 33.0
164.162003 48.0
164.805939 42.0
168.380447 42.0
169.133453 225.0
171.440933 40.0
172.801498 29.0
173.130692 129.0
175.085709 46.0
175.511093 27.0
176.082672 58.0
179.11377 59.0
182.955917 44.0
183.112747 67.0
186.102814 27.0
186.490768 44.0
186.980835 34.0
187.14299 49.0
188.160034 67.0
190.801727 59.0
191.086563 34.0
195.075546 184.0
195.112686 91.0
197.132141 163.0
198.104416 62.0
199.184631 161.0
201.088898 60.0
201.122681 452.0
202.118134 118.0
202.19371 104.0
204.088593 80.0
205.083267 71.0
205.630035 26.0
212.108307 61.0
213.085052 880.0
214.094009 225.0
215.11705 75.0
215.135773 72.0
215.165588 61.0
216.144287 69.0
217.124374 67.0
217.837067 64.0
219.126846 310.0
220.133041 70.0
220.393036 60.0
221.127396 98.0
221.161224 45.0
225.65657 26.0
227.174911 284.0
231.093903 235.0
231.206284 69.0
231.338608 62.0
233.858704 44.0
239.877899 51.0
241.000977 35.0
245.188416 221.0
249.137848 70.0
249.18869 78.0
249.304672 28.0
249.335541 40.0
250.999466 29.0
251.173462 72.0
252.163254 70.0
256.166107 193.0
258.146454 42.0
261.375 35.0
264.0896 62.0
264.138092 82.0
265.093872 26.0
266.000671 60.0
266.148193 121.0
267.23703 62.0
268.205292 57.0
269.189514 157.0
269.398926 33.0
270.926788 57.0
271.147369 82.0
272.16748 55.0
273.171112 67.0
274.17392 100.0
274.961151 34.0
277.166321 59.0
279.167786 150.0
279.470215 44.0
280.164154 97.0
281.040222 28.0
281.15976 77.0
281.568726 68.0
282.146637 72.0
282.533325 48.0
283.200195 81.0
283.696075 39.0
284.116577 42.0
284.164795 85.0
284.20047 56.0
284.747437 73.0
286.140167 69.0
286.740997 96.0
287.171417 55.0
287.196411 87.0
288.15152 49.0
293.182861 98.0
294.149902 57.0
294.265503 67.0
295.158539 59.0
295.241577 39.0
295.2966 98.0
295.694794 45.0
296.196198 913.0
297.196655 108.0
297.539978 29.0
298.1763 238.0
298.312164 35.0
298.947205 51.0
299.587158 37.0
300.120728 53.0
300.18927 71.0
301.310303 28.0
302.181641 67.0
306.743378 40.0
307.073975 56.0
308.14502 99.0
308.223145 32.0
308.308563 35.0
310.210541 273.0
312.148956 57.0
312.290192 1290.0
313.287872 226.0
313.591187 97.0
313.881653 50.0
314.208832 1643.0
314.344666 76.0
314.448456 27.0
315.218719 179.0
318.195038 268.0
318.581848 49.0
319.217834 76.0
320.195801 91.0
320.764191 89.0
322.029205 33.0
322.180359 81.0
322.279419 226.0
325.26886 57.0
326.125854 98.0
326.169769 1099.0
326.784393 64.0
327.247528 40.0
328.183044 58.0
328.225189 469.0
329.196075 71.0
329.550873 64.0
330.164368 52.0
332.21817 1133.0
333.175446 28.0
333.222687 236.0
334.648773 42.0
337.238464 78.0
337.329285 68.0
340.201324 72.0
340.28476 3226.0
341.289825 708.0
341.373566 42.0
341.489075 30.0
342.249664 38.0
342.326843 52.0
342.388153 89.0
342.768158 46.0
343.196686 75.0
343.275421 81.0
344.18219 272.0
345.158386 63.0
346.178802 41.0
346.339111 131.0
347.26889 29.0
348.195038 37.0
348.244873 36.0
351.44809 26.0
352.242859 75.0
354.157196 66.0
354.300049 305.0
355.237885 212.0
355.302521 62.0
356.216553 140.0
357.303497 40.0
359.22702 117.0
360.914307 40.0
362.187439 87.0
363.124695 82.0
363.200653 67.0
364.192505 86.0
364.394073 42.0
365.217194 416.0
366.221313 75.0
366.579407 33.0
367.854889 30.0
368.318451 606.0
369.212982 46.0
369.257751 56.0
369.318756 122.0
369.437164 35.0
370.23584 72.0
370.314362 104.0
370.821838 55.0
373.245209 102.0
373.33078 80.0
375.566711 51.0
378.447632 47.0
378.849518 32.0
379.235229 76.0
380.386627 62.0
381.212982 39.0
381.28067 117.0
382.268311 136.0
383.229645 1241.0
383.607117 62.0
383.70282 40.0
385.23288 140.0
385.280029 57.0
386.273712 43.0
387.253967 109.0
387.308228 89.0
388.148468 46.0
391.251251 65.0
391.967255 26.0
392.254486 35.0
395.199677 130.0
395.263702 194.0
396.205933 68.0
396.459961 26.0
397.248993 347.0
398.193665 50.0
398.241119 85.0
399.186493 85.0
399.30011 485.0
400.237457 48.0
400.289642 165.0
401.243225 559.0
401.286957 147.0
402.235718 67.0
403.913513 44.0
405.267548 56.0
406.18988 46.0
407.338257 27.0
409.280151 838.0
410.291626 214.0
410.352905 26.0
411.474365 51.0
411.860443 52.0
412.231903 73.0
412.97879 47.0
413.201782 330.0
413.248993 120.0
413.280853 146.0
415.262726 256.0
416.242218 70.0
416.347015 94.0
417.197571 145.0
417.248047 115.0
417.27951 89.0
418.273743 81.0
419.251648 99.0
420.24411 72.0
421.232269 57.0
423.303619 88.0
425.03009 50.0
425.249573 80.0
425.381134 54.0
426.255737 95.0
427.240295 198.0
427.291504 2279.0
427.926361 29.0
428.295013 415.0
428.968231 32.0
429.099457 36.0
429.29599 177.0
430.053223 94.0
430.300568 43.0
430.670319 27.0
431.144501 53.0
431.210022 643.0
431.283386 114.0
432.213348 157.0
432.291565 71.0
433.227173 51.0
435.196777 87.0
438.283569 194.0
439.152191 35.0
439.215881 40.0
439.253174 1044.0
440.289673 87.0
440.709839 71.0
441.22113 54.0
441.264191 46.0
441.301544 100.0
442.30542 97.0
445.298676 1496.0
445.346863 297.0
445.809204 48.0
446.305389 376.0
446.80722 26.0
447.320953 79.0
447.68158 33.0
447.931335 67.0
450.304901 61.0
450.69574 37.0
451.295532 159.0
452.30899 50.0
453.347595 36.0
453.419006 40.0
454.292694 95.0
457.273071 435.0
458.275696 148.0
461.2052 80.0
464.289001 54.0
465.286713 118.0
467.18866 35.0
467.267273 165.0
468.312256 254.0
469.231293 68.0
469.32373 787.0
469.666016 35.0
470.342377 224.0
471.380859 62.0
473.304199 58.0
473.440521 60.0
475.282776 128.0
475.603638 62.0
476.281708 48.0
477.348511 84.0
478.305634 603.0
478.395599 87.0
479.292389 166.0
480.281891 57.0
480.32489 72.0
482.252411 70.0
482.308716 90.0
482.352905 90.0
483.277283 195.0
483.316986 72.0
483.35611 45.0
484.341583 119.0
484.394196 64.0
486.321167 273.0
486.381805 35.0
486.678925 46.0
486.947662 36.0
487.324066 147.0
489.305389 48.0
490.269165 56.0
490.458282 70.0
491.232178 65.0
492.266113 103.0
492.320862 295.0
492.432373 76.0
492.543884 46.0
493.272522 37.0
493.32663 136.0
494.265259 48.0
495.348267 122.0
496.318726 1122.0
496.387512 59.0
496.415375 73.0
496.993286 28.0
497.272369 73.0
497.315277 439.0
497.358948 233.0
497.66156 40.0
497.864471 31.0
498.302124 144.0
498.323151 150.0
498.354431 207.0
499.295746 81.0
500.22464 85.0
500.305115 168.0
500.330994 262.0
500.459351 34.0
501.302002 88.0
502.133453 38.0
502.321472 103.0
503.304169 42.0
503.69339 55.0
506.300964 57.0
508.268555 356.0
508.347198 55.0
508.405945 108.0
509.270782 199.0
510.273712 212.0
510.329102 592.0
511.196533 41.0
511.337769 140.0
511.402374 84.0
511.564301 51.0
512.275757 48.0
512.390259 35.0
512.518494 60.0
513.216248 60.0
513.398621 95.0
513.735657 51.0
513.992737 40.0
514.230774 65.0
514.324707 2008.0
515.238708 37.0
515.276245 71.0
515.327148 423.0
515.411865 73.0
516.268066 99.0
516.320129 263.0
516.623657 26.0
517.281616 54.0
517.474365 28.0
518.29071 77.0
518.327271 95.0
518.379578 58.0
519.363342 39.0
520.32135 113.0
521.384521 31.0
521.43103 42.0
522.290405 57.0
522.380066 116.0
523.043457 95.0
524.061218 30.0
524.310059 77.0
524.350708 70.0
525.297241 49.0
526.285217 844.0
526.349121 138.0
526.400146 81.0
527.295776 192.0
528.337524 869.0
529.076416 26.0
529.343506 344.0
530.365051 55.0
532.264404 60.0
532.335754 1335.0
532.437195 63.0
533.018433 54.0
533.200134 73.0
533.34198 499.0
533.408081 50.0
533.452942 40.0
534.35791 386.0
535.357117 130.0
536.274902 75.0
536.406067 186.0
537.412598 220.0
537.819519 32.0
538.324524 113.0
538.408997 78.0
538.668457 67.0
538.94281 84.0
539.282471 139.0
540.254761 51.0
540.313843 65.0
540.368469 552.0
540.417603 65.0
541.288147 49.0
541.374084 139.0
541.422607 102.0
542.32312 139.0
542.371704 243.0
542.401001 176.0
543.31134 122.0
543.37561 140.0
544.113159 76.0
544.207886 55.0
544.292419 992.0
545.193115 48.0
545.283386 183.0
545.348633 96.0
545.382019 50.0
549.011963 68.0
550.295471 69.0
550.41925 155.0
551.344238 65.0
551.375916 91.0
552.150452 62.0
552.230652 115.0
552.269348 269.0
552.363708 8499.0
552.5979 62.0
552.678894 44.0
553.094788 42.0
553.301636 122.0
553.362976 2810.0
554.19812 26.0
554.36792 368.0
555.352112 116.0
555.580872 43.0
556.324219 219.0
556.790222 56.0
557.237976 36.0
557.619751 37.0
557.730286 52.0
557.936584 29.0
558.385742 220.0
559.390625 226.0
560.638489 32.0
560.670776 45.0
561.408813 52.0
562.024963 49.0
562.375854 123.0
562.526123 56.0
562.88623 77.0
563.38385 52.0
564.362061 149.0
565.341675 59.0
566.373047 503.0
567.377075 133.0
568.352356 26.0
568.415771 55.0
569.310425 33.0
569.346436 47.0
569.435486 98.0
570.374878 1485.0
570.463379 89.0
571.372314 344.0
572.280151 97.0
572.343994 132.0
573.353821 37.0
574.666992 58.0
578.27655 44.0
579.317566 56.0
579.37085 48.0
580.297424 82.0
580.389221 1068.0
581.403564 590.0
581.549133 105.0
582.389771 127.0
582.43335 100.0
583.355225 109.0
583.440613 34.0
584.324402 50.0
584.377075 34.0
585.292786 53.0
586.327087 104.0
587.338989 231.0
588.352234 74.0
588.393555 31.0
589.198181 44.0
589.402649 63.0
589.807739 42.0
590.450012 52.0
591.383606 86.0
592.35376 43.0
593.323792 35.0
594.341797 90.0
594.448364 71.0
595.33728 49.0
595.382996 164.0
595.42981 51.0
596.273804 26.0
596.37854 72.0
596.415649 47.0
597.36322 272.0
598.232666 40.0
598.320496 95.0
598.383301 162.0
598.441345 65.0
599.282715 53.0
599.406494 191.0
600.36969 93.0
601.39978 106.0
601.462219 76.0
602.604675 33.0
602.91687 27.0
603.332764 40.0
604.34021 37.0
605.394836 37.0
605.55304 58.0
606.367493 60.0
607.357361 159.0
607.829163 54.0
608.345276 112.0
608.443848 35.0
609.322815 45.0
609.39679 854.0
610.392273 342.0
610.445923 65.0
610.693237 67.0
611.325378 58.0
611.386475 107.0
611.424744 125.0
611.473206 28.0
611.730164 30.0
612.179626 37.0
612.332886 45.0
612.381409 65.0
613.318054 112.0
613.396606 379.0
613.581055 42.0
614.376404 93.0
614.415955 204.0
614.928406 32.0
615.282532 49.0
615.369385 640.0
615.500854 65.0
615.820129 49.0
616.370178 299.0
617.380188 210.0
618.653442 37.0
619.378052 40.0
619.487915 49.0
620.424622 62.0
621.270752 50.0
621.363892 485.0
621.439392 113.0
622.024475 58.0
622.365967 182.0
622.729736 48.0
623.235535 42.0
623.414368 345.0
623.535583 42.0
624.289673 50.0
624.375427 68.0
624.417969 85.0
625.35083 120.0
626.354004 37.0
626.76178 58.0
627.289185 131.0
627.404907 1733.0
627.499451 112.0
628.131897 66.0
628.353516 149.0
628.397339 389.0
629.086365 31.0
629.137878 57.0
629.243652 90.0
629.34552 225.0
629.419617 154.0
629.612732 65.0
630.275574 27.0
630.325012 56.0
630.371704 50.0
630.400452 56.0
630.448608 72.0
631.291992 52.0
631.404785 1616.0
631.527649 134.0
631.97168 26.0
632.401001 625.0
633.397705 153.0
633.434875 113.0
634.419312 40.0
635.477539 108.0
636.258423 55.0
636.356812 52.0
636.495056 42.0
636.772583 55.0
637.072937 55.0
637.450867 1263.0
638.297485 45.0
638.444824 407.0
639.37262 611.0
639.452698 248.0
639.554688 56.0
639.616333 62.0
640.371399 227.0
640.421143 371.0
640.47998 61.0
640.752075 93.0
641.248779 30.0
641.296631 58.0
641.370789 90.0
641.425781 1030.0
642.430725 359.0
642.772644 44.0
643.363342 141.0
644.364441 42.0
645.041077 58.0
645.17981 32.0
645.310425 150.0
645.418152 9597.0
645.648193 49.0
645.721191 112.0
645.779053 73.0
646.214722 53.0
646.350586 153.0
646.420593 3469.0
646.702454 39.0
647.105408 36.0
647.165283 51.0
647.234619 78.0
647.309448 52.0
647.421387 1052.0
648.280334 29.0
648.432068 295.0
648.632996 65.0
648.756958 49.0
649.35144 63.0
649.425476 67.0
649.485718 84.0
650.39801 31.0
651.436035 238.0
652.041748 49.0
652.4776 113.0
653.261292 26.0
653.442078 105.0
653.493713 144.0
655.337952 66.0
655.393616 52.0
655.456543 255.0
656.401001 44.0
656.478821 80.0
656.930115 27.0
657.282532 38.0
657.380737 1049.0
657.449341 77.0
657.516418 27.0
657.551514 35.0
657.701355 58.0
658.202332 46.0
658.379272 426.0
658.646545 34.0
659.384155 406.0
659.526062 73.0
659.632141 32.0
660.00531 43.0
661.453613 228.0
662.505981 59.0
662.638306 84.0
663.738831 47.0
663.815979 40.0
664.391235 176.0
664.513672 61.0
665.148865 76.0
665.242126 46.0
665.287231 105.0
665.445984 15959.0
665.535217 451.0
665.750916 88.0
665.804199 46.0
665.955139 62.0
666.062195 29.0
666.223511 39.0
666.451111 7258.0
666.598755 45.0
666.796814 98.0
667.013123 27.0
667.204895 65.0
667.36322 75.0
667.447876 1580.0
667.626709 59.0
668.326355 26.0
668.379272 56.0
668.451721 171.0
668.507324 101.0
669.416077 45.0
669.470032 154.0
669.584534 63.0
669.669373 41.0
670.490173 87.0
670.817871 38.0
671.467163 28.0
672.210205 36.0
672.330261 62.0
672.419189 70.0
673.206177 38.0
673.356384 66.0
673.47522 42.0
674.409546 121.0
675.372437 38.0
676.46991 58.0
676.623718 49.0
677.274841 49.0
678.312622 74.0
678.444153 172.0
679.251648 102.0
679.351746 43.0
679.396179 65.0
679.460693 2740.0
679.839172 42.0
680.36261 67.0
680.400269 121.0
680.467407 1288.0
680.711365 54.0
681.28949 54.0
681.402588 70.0
681.465332 366.0
681.697693 34.0
682.396057 318.0
682.502502 91.0
682.564514 80.0
682.659424 71.0
683.454346 5232.0
683.655823 62.0
683.681396 108.0
684.065002 65.0
684.177063 41.0
684.260376 72.0
684.45813 1756.0
684.574585 47.0
684.649048 41.0
684.738281 32.0
684.858398 30.0
684.909851 42.0
685.083496 38.0
685.464722 514.0
685.530029 83.0
686.4422 223.0
686.879761 26.0
687.290039 32.0
687.478516 39.0
687.538574 48.0
688.493408 38.0
689.409485 48.0
690.190186 36.0
690.37793 70.0
691.033936 33.0
691.978943 30.0
692.415466 187.0
693.321655 46.0
693.422058 305.0
693.48175 55.0
694.362976 103.0
694.414368 121.0
694.478516 64.0
694.555054 52.0
695.331116 58.0
695.521912 167.0
696.426514 100.0
696.516113 70.0
697.468506 666.0
697.545227 67.0
698.280029 46.0
698.349854 38.0
698.474548 478.0
699.468689 136.0
699.501465 125.0
700.349487 88.0
700.401184 178.0
700.443176 241.0
700.471741 267.0
701.420349 94.0
701.47522 181.0
701.560974 41.0
702.392944 62.0
703.380554 33.0
704.452942 42.0
705.470215 78.0
706.42218 94.0
707.087219 36.0
707.399414 48.0
707.432495 51.0
707.519836 66.0
708.397705 445.0
709.381714 310.0
709.478699 91.0
710.313965 56.0
710.437378 903.0
711.325562 67.0
711.44989 288.0
711.824036 26.0
712.283752 73.0
712.377563 179.0
712.469177 217.0
713.395081 67.0
713.478333 129.0
714.292297 33.0
714.438477 75.0
714.466675 68.0
714.557007 63.0
714.735535 62.0
715.434265 52.0
715.480774 39.0
716.393799 147.0
717.380859 136.0
720.426941 44.0
721.408142 43.0
721.861572 64.0
722.351257 74.0
722.480164 135.0
722.962219 37.0
723.430481 42.0
723.498474 68.0
724.341492 29.0
724.39624 51.0
724.455078 142.0
725.436401 148.0
725.57428 53.0
726.400513 373.0
726.477661 94.0
726.583191 64.0
727.320312 39.0
727.413147 120.0
727.93335 41.0
728.259583 61.0
728.34082 52.0
728.402161 132.0
728.457214 908.0
728.663208 59.0
729.384766 83.0
729.455811 548.0
729.539001 28.0
730.39032 31.0
730.464905 725.0
730.739929 75.0
730.937744 74.0
731.468018 457.0
731.588562 65.0
732.545593 62.0
733.855591 32.0
734.460632 137.0
734.558594 57.0
735.460693 61.0
735.494324 114.0
735.562378 50.0
736.452454 75.0
737.406555 41.0
737.4776 37.0
738.288086 51.0
738.448547 222.0
739.018677 81.0
740.486145 473.0
741.387329 74.0
741.488464 228.0
742.037842 52.0
742.438293 176.0
742.475342 226.0
743.439636 95.0
743.831604 33.0
743.962646 28.0
744.421448 302.0
744.470764 275.0
745.465271 113.0
745.551514 73.0
746.410828 128.0
747.460571 73.0
748.375183 52.0
748.517029 45.0
748.807739 63.0
750.351685 29.0
750.549988 79.0
750.6026 66.0
751.537476 169.0
752.455078 868.0
752.573242 50.0
752.962708 39.0
753.395386 31.0
753.476501 457.0
753.953247 31.0
754.455261 110.0
754.515137 188.0
755.367188 55.0
755.499146 132.0
755.54541 64.0
756.402527 51.0
756.451904 60.0
757.447876 36.0
757.485596 39.0
757.851379 44.0
758.193848 60.0
758.499634 4340.0
758.726074 117.0
758.952942 62.0
759.283508 63.0
759.359863 72.0
759.423157 34.0
759.500793 1926.0
759.786865 38.0
760.42041 68.0
760.503845 596.0
761.523071 202.0
762.478333 89.0
762.525085 45.0
763.244141 39.0
764.503357 118.0
764.561035 48.0
765.660583 36.0
766.425171 48.0
766.499207 170.0
766.57605 110.0
767.547729 94.0
768.480164 194.0
768.540833 187.0
768.69458 58.0
769.348511 35.0
769.381042 33.0
769.492493 58.0
769.555847 157.0
769.640442 33.0
770.182983 46.0
770.370178 58.0
770.476624 1629.0
771.477051 787.0
771.588806 47.0
771.679138 37.0
772.413025 76.0
772.487488 291.0
773.21991 52.0
773.467468 70.0
774.36377 37.0
774.761292 28.0
774.943848 50.0
775.51886 73.0
777.470703 61.0
777.828735 47.0
778.207642 38.0
778.527649 2486.0
778.670593 139.0
779.05957 50.0
779.364197 48.0
779.398071 44.0
779.532959 1441.0
779.857361 35.0
780.013428 30.0
780.432434 33.0
780.522583 513.0
781.285828 27.0
781.351501 51.0
781.547668 183.0
782.493469 48.0
782.542236 32.0
783.514099 107.0
784.475098 251.0
784.527344 219.0
785.504822 290.0
785.888489 66.0
786.450439 92.0
786.54071 113.0
787.450562 64.0
787.515137 198.0
788.511169 113.0
789.499634 105.0
790.540283 39.0
791.474792 40.0
792.541626 767.0
792.653931 91.0
793.408569 125.0
793.503906 101.0
793.55072 296.0
793.667358 28.0
794.464844 33.0
794.559021 94.0
794.631653 75.0
795.347717 26.0
795.392517 58.0
795.501587 569.0
796.538025 5773.0
796.682068 231.0
796.796387 43.0
796.865356 38.0
797.113281 83.0
797.54126 3002.0
797.765076 61.0
797.894226 71.0
798.425842 81.0
798.557556 821.0
798.671997 48.0
799.436829 58.0
799.546448 204.0
800.523376 67.0
801.520386 50.0
802.43512 72.0
803.84613 27.0
804.428711 128.0
805.512085 336.0
805.706604 34.0
806.171082 32.0
806.496826 226.0
806.567139 42.0
807.296509 80.0
807.497986 100.0
808.466736 91.0
808.505737 87.0
809.392273 78.0
809.516235 130.0
810.552673 1260.0
810.735962 77.0
811.320862 43.0
811.450378 175.0
811.48645 215.0
811.556519 489.0
811.676697 30.0
812.450317 142.0
812.558228 37.0
813.130066 111.0
813.324097 70.0
813.399353 208.0
813.506775 2232.0
814.319946 27.0
814.511108 927.0
814.934143 29.0
815.505798 216.0
815.640259 46.0
816.468079 56.0
816.593506 65.0
816.713806 29.0
819.413513 33.0
819.46759 27.0
819.564819 124.0
820.707703 36.0
821.467041 322.0
821.618286 81.0
822.260132 29.0
822.460022 534.0
822.513062 110.0
822.712524 31.0
823.047241 67.0
823.528564 2492.0
823.625244 61.0
823.669556 51.0
823.834839 63.0
824.204102 28.0
824.523315 1275.0
824.63855 89.0
824.755188 44.0
825.46582 145.0
825.528564 476.0
826.071472 55.0
826.475098 43.0
826.54425 42.0
827.051636 27.0
827.523193 453.0
828.165833 52.0
828.532715 209.0
829.484741 339.0
829.979126 28.0
830.487427 158.0
830.536987 179.0
830.616516 42.0
831.496521 48.0
832.173767 33.0
832.74231 33.0
834.498413 61.0
834.728149 33.0
835.448242 79.0
836.912109 39.0
837.125122 37.0
837.580688 126.0
838.460449 51.0
838.552429 226.0
838.804688 67.0
839.313843 59.0
839.489075 1107.0
839.578308 109.0
840.158386 36.0
840.257996 58.0
840.386353 81.0
840.486755 587.0
840.575439 98.0
841.013489 48.0
841.358337 48.0
841.533203 12140.0
841.657898 113.0
841.689453 125.0
841.814575 41.0
842.074585 37.0
842.337524 34.0
842.38092 38.0
842.541992 5975.0
842.671936 52.0
842.780579 140.0
842.991455 26.0
843.059631 42.0
843.366943 51.0
843.530518 1363.0
843.673828 80.0
843.932312 35.0
844.069336 39.0
844.162476 42.0
844.388733 67.0
844.551392 347.0
844.988464 70.0
846.48291 37.0
846.779297 27.0
847.548645 477.0
847.650879 51.0
847.690613 48.0
848.193298 36.0
848.561646 217.0
848.885742 39.0
849.575134 65.0
849.629028 33.0
850.360535 29.0
850.549316 100.0
851.023315 26.0
851.54126 53.0
851.675903 36.0
852.472229 66.0
853.527039 75.0
855.580994 514.0
856.566528 312.0
857.50592 847.0
857.637268 102.0
857.836487 32.0
858.503662 605.0
859.25531 56.0
859.404175 78.0
859.50116 111.0
860.022583 57.0
860.508606 58.0
861.553772 139.0
862.545349 37.0
863.388611 71.0
863.515564 43.0
864.318054 46.0
864.570557 59.0
864.951294 45.0
865.428406 102.0
865.563599 3684.0
865.683777 87.0
865.747925 53.0
865.883606 68.0
866.252991 102.0
866.458374 42.0
866.564636 1718.0
866.730164 56.0
866.7724 74.0
867.455383 37.0
867.489075 68.0
867.555115 494.0
867.699707 37.0
868.472229 60.0
868.604431 49.0
868.700562 27.0
869.517578 121.0
869.587158 78.0
870.470093 48.0
870.602539 62.0
870.702454 27.0
871.536316 42.0
871.595947 51.0
871.818176 87.0
872.980835 44.0
873.851868 31.0
875.537231 50.0
876.275757 30.0
877.950439 37.0
878.26886 39.0
878.542603 57.0
879.581665 424.0
879.688232 42.0
880.589355 475.0
881.611023 181.0
882.166199 58.0
882.502686 41.0
882.587036 112.0
882.63208 120.0
883.00354 91.0
883.358215 39.0
883.451416 182.0
883.56427 3110.0
883.893311 45.0
884.471863 68.0
884.577087 1945.0
885.035095 60.0
885.413391 26.0
885.465332 41.0
885.573975 536.0
885.66864 49.0
885.765076 44.0
886.570801 193.0
886.733215 58.0
886.881958 45.0
887.570557 35.0
887.808716 32.0
889.884827 28.0
890.596619 35.0
891.605957 47.0
894.243835 44.0
894.601746 35.0
894.708801 33.0
895.644897 27.0
896.469727 102.0
896.529358 54.0
896.574707 59.0
897.465942 30.0
897.509888 96.0
897.593567 326.0
897.68219 108.0
897.730835 133.0
897.798584 63.0
898.598267 204.0
898.773438 30.0
899.595886 73.0
900.600708 268.0
901.613098 38.0
901.764954 44.0
902.818787 32.0
902.947327 28.0
904.7323 42.0
906.520996 73.0
907.540894 114.0
907.573181 141.0
908.470032 65.0
908.560852 148.0
909.209473 43.0
909.311035 63.0
909.463501 56.0
909.517334 65.0
909.620911 920.0
909.963135 62.0
910.525146 57.0
910.604553 439.0
910.808472 121.0
911.145874 56.0
911.503906 83.0
911.624756 175.0
912.530945 28.0
912.637634 133.0
913.350769 48.0
913.514893 50.0
913.599976 71.0
914.560547 189.0
915.002014 40.0
915.515259 69.0
915.593445 61.0
916.551819 136.0
917.478333 102.0
917.536499 65.0
918.531921 58.0
919.694641 47.0
921.215332 27.0
922.55304 41.0
923.557129 48.0
924.562439 433.0
924.700317 75.0
924.818787 52.0
925.57251 140.0
926.528564 131.0
926.623169 38.0
927.117981 48.0
927.495972 54.0
927.642761 64.0
927.905823 29.0
928.421814 26.0
929.58197 48.0
929.660339 31.0
929.948425 49.0
932.631958 32.0
933.480835 46.0
933.626465 39.0
934.542419 298.0
934.602539 136.0
935.075684 37.0
935.332214 32.0
935.542114 461.0
935.661926 42.0
936.401184 54.0
936.548035 77.0
936.598816 132.0
936.697571 26.0
937.347778 38.0
937.421021 43.0
937.549011 111.0
938.256042 48.0
938.543274 166.0
940.577637 74.0
941.108765 40.0
941.796997 63.0
942.417053 43.0
942.552185 2212.0
942.701111 60.0
943.252014 65.0
943.551575 1066.0
943.690125 43.0
943.808167 53.0
944.553467 404.0
944.913574 58.0
945.539795 141.0
945.593201 34.0
946.683044 34.0
946.87854 55.0
947.522766 50.0
947.627014 62.0
948.619324 43.0
948.670288 47.0
950.128296 41.0
950.519043 38.0
950.650146 308.0
950.724731 26.0
951.539673 73.0
951.636597 391.0
952.35553 34.0
952.559143 2793.0
952.76947 75.0
952.82373 50.0
953.572632 1874.0
954.268738 41.0
954.485718 36.0
954.569031 351.0
955.557434 139.0
955.734253 61.0
956.476501 107.0
956.561096 475.0
956.616455 265.0
957.537964 290.0
957.947632 36.0
958.550049 126.0
959.256042 39.0
960.271667 31.0
960.341492 42.0
960.478577 110.0
960.631836 908.0
961.632507 751.0
962.065918 38.0
962.638916 301.0
962.857788 51.0
963.624329 70.0
963.822876 31.0
964.162048 27.0
964.626831 78.0
964.665283 75.0
964.885193 52.0
965.170532 32.0
966.608276 83.0
966.665527 38.0
967.160583 26.0
967.554688 56.0
968.653992 241.0
969.21759 100.0
969.332764 42.0
969.392639 32.0
969.503418 66.0
969.679932 286.0
969.891724 32.0
970.256958 86.0
970.32959 73.0
970.578979 14290.0
970.767456 229.0
970.835938 113.0
970.950134 60.0
971.038635 152.0
971.385925 154.0
971.58136 7875.0
971.819153 42.0
971.929688 87.0
972.298767 27.0
972.581299 2535.0
972.769165 60.0
972.836487 66.0
973.098633 72.0
973.149231 106.0
973.48175 97.0
973.577759 334.0
973.734497 118.0
974.068604 40.0
974.576355 64.0
974.633545 144.0
974.810364 32.0
975.650085 206.0
975.964783 36.0
976.029602 51.0
976.214111 55.0
976.665283 78.0
976.800781 60.0
977.655212 86.0
978.354858 31.0
978.641846 6944.0
978.804749 83.0
978.863464 100.0
978.922119 63.0
979.355103 37.0
979.400452 46.0
979.483704 39.0
979.644714 4173.0
979.87262 46.0
980.47052 31.0
980.554016 117.0
980.645935 1617.0
980.905273 26.0
981.572083 102.0
981.66217 340.0
981.791687 29.0
982.12262 30.0
982.59259 50.0
982.643188 77.0
984.735046 33.0
984.997009 28.0
985.372864 29.0
985.480835 47.0
985.645813 37.0
986.104431 35.0
988.073792 29.0
988.259949 26.0
988.612793 93.0
989.586426 95.0
990.531311 34.0
990.73645 32.0
991.883423 70.0
992.217468 54.0
992.506042 26.0
992.567627 55.0
992.659546 1205.0
993.440491 48.0
993.537781 34.0
993.66394 1076.0
993.950256 37.0
994.025635 63.0
994.130371 42.0
994.53717 45.0
994.580566 37.0
994.669495 170.0
995.462952 51.0
995.561401 43.0
995.667664 40.0
996.260864 27.0
996.401001 59.0
996.505005 60.0
996.654114 4786.0
996.850342 44.0
997.114807 71.0
997.251221 32.0
997.650208 2539.0
997.945435 45.0
998.053772 36.0
998.265076 75.0
998.473328 39.0
998.587158 305.0
998.654968 665.0
999.655945 236.0
999.981445 38.0
1000.671509 41.0
1002.458801 58.0
1002.576111 53.0
1002.664124 46.0
1003.358154 34.0
1004.701538 46.0
1004.918945 59.0
1006.627075 29.0
1008.708496 37.0
1009.67688 42.0
1010.502869 56.0
1010.679871 454.0
1010.773499 84.0
1011.647034 109.0
1011.685059 117.0
1011.764282 85.0
1012.672119 74.0
1012.706238 116.0
1013.203674 39.0
1013.696716 128.0
1014.129944 34.0
1014.241577 58.0
1014.485657 69.0
1014.685974 153.0
1015.637085 62.0
1016.701721 54.0
1017.827698 45.0
1017.986328 55.0
1020.663696 88.0
1022.455872 33.0
1022.671448 55.0
1023.635071 33.0
1023.726562 33.0
1024.324829 34.0
1024.438599 28.0
1029.657104 58.0
1030.667969 80.0
1031.664673 55.0
1032.891968 26.0
1033.876465 46.0
1034.317749 32.0
1036.769409 47.0
1037.624512 53.0
1037.670166 40.0
1038.672729 164.0
1039.669678 150.0
1040.681885 47.0
1046.699585 104.0
1047.536011 52.0
1047.669556 524.0
1048.583008 35.0
1048.67041 494.0
1048.775635 55.0
1049.202026 61.0
1049.666504 240.0
1050.662476 57.0
1051.696167 40.0
1052.755005 26.0
1055.674927 143.0
1055.953369 36.0
1056.694946 60.0
1057.724976 49.0
1058.689209 32.0
1063.724854 172.0
1064.648193 94.0
1064.724243 561.0
1064.807983 88.0
1065.504639 56.0
1065.672485 920.0
1065.750977 303.0
1066.009277 57.0
1066.254761 28.0
1066.692749 497.0
1066.788086 79.0
1066.930786 66.0
1067.685059 219.0
1067.766479 28.0
1069.68457 28.0
1069.772339 50.0
1071.343262 38.0
1072.460938 52.0
1073.076538 38.0
1073.73645 171.0
1073.865723 45.0
1074.756592 106.0
1075.705688 114.0
1077.879883 51.0
1079.188843 42.0
1079.643799 45.0
1079.692505 138.0
1080.735229 88.0
1080.824707 31.0
1081.427612 44.0
1081.725708 188.0
1081.86145 53.0
1082.378052 46.0
1082.437378 42.0
1082.737549 411.0
1082.82019 34.0
1082.959229 46.0
1083.241333 66.0
1083.365601 51.0
1083.68396 550.0
1084.667358 335.0
1085.655029 107.0
1085.766235 37.0
1085.953857 30.0
1086.708008 42.0
1087.68396 76.0
1087.878052 50.0
1088.744019 29.0
1089.580444 49.0
1089.752563 57.0
1091.332764 48.0
1091.53894 70.0
1091.72168 1820.0
1091.83728 53.0
1092.25769 31.0
1092.545776 70.0
1092.600098 41.0
1092.733032 1307.0
1092.918945 53.0
1093.547607 34.0
1093.742676 350.0
1093.839111 42.0
1093.911621 84.0
1094.655518 73.0
1094.730347 195.0
1094.785034 53.0
1095.750366 27.0
1097.696899 36.0
1098.660278 28.0
1098.713501 58.0
1099.584961 50.0
1100.116455 29.0
1101.103882 29.0
1101.70813 41.0
1102.270874 59.0
1103.580811 37.0
1105.269897 34.0
1105.759888 377.0
1106.726685 230.0
1107.02771 51.0
1107.111694 31.0
1107.455933 36.0
1107.736084 63.0
1108.024902 36.0
1108.516602 91.0
1108.702393 43.0
1108.751099 45.0
1109.593384 155.0
1109.735474 6553.0
1110.051758 104.0
1110.380493 27.0
1110.567261 28.0
1110.735352 4357.0
1110.868164 165.0
1110.929199 58.0
1111.252441 38.0
1111.300415 27.0
1111.557617 75.0
1111.738892 1573.0
1111.924561 51.0
1112.000244 36.0
1112.753906 314.0
1113.378418 55.0
1113.420288 46.0
1113.764648 45.0
1114.720947 86.0
1114.878662 37.0
1115.733887 77.0
1115.778687 73.0
1115.844727 33.0
1116.160156 75.0
1119.715576 49.0
1119.881226 27.0
1120.644897 39.0
1121.740845 53.0
1121.960571 32.0
1122.418457 54.0
1123.635498 81.0
1123.746704 1097.0
1124.766479 374.0
1124.93042 28.0
1125.2052 62.0
1125.345093 52.0
1125.572021 65.0
1125.754761 328.0
1126.368408 32.0
1126.772949 133.0
1127.109375 28.0
1127.825562 44.0
1128.094482 32.0
1128.463379 50.0
1128.745117 72.0
1128.953125 34.0
1131.739502 60.0
1132.436279 35.0
1132.74707 83.0
1133.733887 210.0
1134.653076 44.0
1134.75415 196.0
1135.678467 28.0
1135.770386 60.0
1136.049072 35.0
1136.484131 31.0
1136.545166 58.0
1136.626221 56.0
1136.722778 52.0
1136.790894 60.0
1137.164673 47.0
1138.032593 41.0
1138.197632 38.0
1138.583008 79.0
1138.735962 52.0
1138.820435 34.0
1139.817749 29.0
1142.588989 27.0
1142.73999 97.0
1143.680786 34.0
1143.735962 65.0
1144.816162 43.0
1150.684204 34.0
1150.750244 363.0
1150.843628 93.0
1151.696045 74.0
1151.769775 466.0
1152.634644 90.0
1152.78064 279.0
1153.522949 54.0
1153.753052 59.0
1153.781006 69.0
1154.731323 37.0
1154.787109 33.0
1154.875122 48.0
1157.842407 63.0
1158.767334 54.0
1159.193848 41.0
1159.742554 26.0
1159.840576 49.0
1159.993896 32.0
1160.583252 37.0
1160.749268 947.0
1161.060791 68.0
1161.339966 44.0
1161.656982 106.0
1161.759155 769.0
1161.909912 49.0
1162.294434 27.0
1162.562378 65.0
1162.627441 36.0
1162.755737 279.0
1163.721802 105.0
1163.770142 184.0
1163.952515 64.0
1164.303955 53.0
1164.737305 67.0
1166.175415 26.0
1166.413086 35.0
1167.891235 57.0
1168.780396 501.0
1169.177856 33.0
1169.661621 28.0
1169.797119 268.0
1170.257202 30.0
1170.408081 34.0
1170.791138 172.0
1171.749878 27.0
1174.750977 144.0
1174.798706 85.0
1175.717041 44.0
1175.771118 51.0
1176.783203 129.0
1177.559692 58.0
1177.801514 193.0
1178.518188 46.0
1178.620972 161.0
1178.757812 3287.0
1179.202393 67.0
1179.516724 37.0
1179.590454 81.0
1179.770142 2324.0
1180.245361 28.0
1180.602051 43.0
1180.764526 640.0
1180.902954 74.0
1181.004028 40.0
1181.077881 33.0
1181.266846 27.0
1181.742554 251.0
1182.633301 50.0
1182.761719 80.0
1182.823364 115.0
1183.202881 52.0
1184.339355 31.0
1185.484497 29.0
1186.368286 50.0
1186.811523 55.0
1188.756836 64.0
1189.489746 69.0
1190.557861 62.0
1190.757812 67.0
1192.555298 37.0
1192.743286 183.0
1193.765137 125.0
1193.968994 53.0
1194.79895 111.0
1194.903687 57.0
1195.094238 51.0
1195.530273 46.0
1195.678589 44.0
1195.75415 63.0
1196.581299 85.0
1196.657471 147.0
1196.762573 3932.0
1196.936523 116.0
1197.039795 63.0
1197.235718 32.0
1197.314697 39.0
1197.773071 2365.0
1197.924438 85.0
1198.002075 51.0
1198.604736 78.0
1198.765869 771.0
1199.672974 28.0
1199.785156 269.0
1200.10022 28.0
1200.213623 64.0
1200.752319 103.0
1201.821045 42.0
1202.362915 27.0
1204.34375 36.0
1204.430298 33.0
1204.629639 33.0
1204.812256 97.0
1205.833252 48.0
1206.81604 84.0
1209.251953 27.0
1210.648193 40.0
1210.774414 83.0
1211.231323 27.0
1211.506104 50.0
1211.785522 170.0
1211.861816 88.0
1218.843628 64.0
1219.724365 41.0
1219.977661 55.0
1221.861328 40.0
1222.830078 538.0
1223.348999 29.0
1223.848633 184.0
1224.796875 130.0
1225.789673 48.0
1226.041138 50.0
1226.811157 31.0
1227.812988 57.0
1228.360107 36.0
1229.467896 32.0
1232.11145 41.0
1236.0448 58.0
1237.825317 41.0
1238.752197 42.0
1242.331299 29.0
1243.203247 26.0
1244.246216 41.0
1244.530273 43.0
1245.349365 38.0
1245.885254 109.0
1246.187378 49.0
1246.483521 68.0
1246.826538 252.0
1246.897461 130.0
1247.647949 48.0
1247.821289 356.0
1248.767334 71.0
1248.850708 59.0
1249.28772 28.0
1250.837158 39.0
1251.142822 47.0
1251.396484 40.0
1252.817749 38.0
1253.462158 26.0
1253.602539 64.0
1254.343872 49.0
1255.424805 42.0
1255.811646 74.0
1255.882812 29.0
1256.822144 61.0
1257.851685 35.0
1258.826782 69.0
1258.917725 51.0
1260.010254 57.0
1261.703003 62.0
1261.835693 66.0
1262.80249 55.0
1262.869629 67.0
1263.463623 34.0
1263.625244 49.0
1263.85022 693.0
1264.256714 67.0
1264.447998 33.0
1264.828247 837.0
1265.037964 29.0
1265.697144 50.0
1265.844727 424.0
1266.402344 26.0
1266.81897 143.0
1266.864624 136.0
1266.997925 83.0
1267.142822 38.0
1267.852783 56.0
1268.872314 28.0
1269.463623 42.0
1269.578613 29.0
1270.86792 33.0
1271.388794 43.0
1273.053345 54.0
1273.453003 28.0
1273.732056 42.0
1273.834961 1068.0
1274.218872 51.0
1274.40271 52.0
1274.633545 52.0
1274.838989 760.0
1275.23645 92.0
1275.63147 39.0
1275.690308 50.0
1275.826294 758.0
1276.03479 53.0
1276.335571 30.0
1276.382812 27.0
1276.832764 168.0
1276.949097 53.0
1277.222168 42.0
1277.836548 162.0
1277.973267 42.0
1278.046753 101.0
1278.198853 32.0
1278.829346 60.0
1279.852295 103.0
1279.918823 67.0
1280.005737 31.0
1280.666138 52.0
1280.825073 132.0
1280.917847 67.0
1281.107056 49.0
1281.384644 34.0
1281.471191 70.0
1281.522949 39.0
1281.636597 35.0
1281.68103 81.0
1281.743896 122.0
1281.849365 2221.0
1282.022339 70.0
1282.861084 2163.0
1283.027588 76.0
1283.123657 129.0
1283.219238 38.0
1283.279785 60.0
1283.702881 62.0
1283.863281 754.0
1284.192627 47.0
1284.238281 44.0
1284.311279 28.0
1284.695435 40.0
1284.841431 192.0
1284.892822 280.0
1285.147461 48.0
1285.308105 30.0
1285.522949 37.0
1285.863892 31.0
1285.981689 33.0
1286.30249 27.0
1286.935913 98.0
1287.159912 34.0
1287.229004 30.0
1287.703613 36.0
1288.010498 51.0
1288.141968 49.0
1288.244873 43.0
1288.480591 71.0
1288.735718 26.0
1288.802124 37.0
1288.994873 45.0
1289.521606 33.0
1289.859985 75.0
1290.003174 41.0
1290.408813 57.0
1290.874878 74.0
1291.10791 58.0
1291.323608 61.0
1291.595825 160.0
1291.649536 359.0
1291.838257 22436.0
1292.103516 212.0
1292.237549 70.0
1292.428711 97.0
1292.626709 252.0
1292.844727 15428.0
1293.036011 203.0
1293.101196 167.0
1293.258911 51.0
1293.393677 41.0
1293.460083 29.0
1293.55835 132.0
1293.664185 84.0
1293.731445 237.0
1293.848755 6017.0
1294.025879 79.0
1294.380249 89.0
1294.495728 50.0
1294.600708 96.0
1294.698242 224.0
1294.852417 1570.0
1295.081421 38.0
1295.21814 34.0
1295.388672 37.0
1295.527466 41.0
1295.601685 89.0
1295.703857 109.0
1295.830444 445.0
1296.046753 49.0
1296.332764 55.0
1296.739624 54.0
1296.814941 120.0
1296.898193 151.0
1296.972778 59.0
1297.162354 40.0
1297.462036 44.0
1297.702393 43.0
1297.829712 78.0
1297.899902 102.0
1298.063721 80.0
1298.386353 88.0
1298.503662 30.0
1298.840576 55.0
1299.074463 31.0
1299.157349 38.0
1299.361572 34.0
1299.643066 78.0
1300.1604 30.0
1300.225586 45.0
1300.407715 35.0
1300.495361 48.0
1300.647827 39.0
1300.961792 31.0
1301.189819 38.0
1301.234009 37.0
1301.460571 45.0
1301.53833 50.0
1301.718384 76.0
1302.128418 33.0
1302.348389 34.0
1302.829346 52.0
1303.253906 35.0
1303.347778 30.0
1303.831787 26.0
1304.019775 92.0
1304.188965 61.0
1304.578369 43.0
1304.673706 34.0
1304.951538 28.0
1305.037476 50.0
1305.135376 29.0
1305.329346 37.0
1305.394897 41.0
1305.484253 43.0
1305.786255 102.0
1305.845581 72.0
1305.903809 71.0
1306.094604 57.0
1306.257812 38.0
1306.338257 86.0
1306.444824 34.0
1306.62854 49.0
1306.741943 68.0
1306.947266 41.0
1307.089233 28.0
1307.145874 31.0
1307.374268 46.0
1307.462036 32.0
1307.592041 107.0
1307.720581 89.0
1307.839111 54.0
1307.933716 37.0
1308.094849 67.0
1308.235352 61.0
1308.281372 50.0
1308.334351 65.0
1308.523315 143.0
1308.644653 46.0
1308.719604 124.0
1308.821655 28.0
1309.009033 57.0
1309.099976 99.0
1309.169312 86.0
1309.276733 85.0
1309.350586 156.0
1309.442993 147.0
1309.650879 948.0
1309.846924 82023.0
1310.136108 248.0
1310.231567 179.0
1310.307617 106.0
1310.404663 121.0
1310.528931 281.0
1310.85022 65647.0
1311.084229 526.0
1311.137207 299.0
1311.222778 217.0
1311.370239 136.0
1311.563965 193.0
1311.851074 24507.0
1312.088379 163.0
1312.169312 85.0
1312.251709 148.0
1312.412964 42.0
1312.602539 124.0
1312.680542 179.0
1312.856079 7179.0
1313.02771 145.0
1313.178223 130.0
1313.25293 149.0
1313.325195 84.0
1313.409546 79.0
1313.479126 135.0
1313.545532 55.0
1313.602173 72.0
1313.666626 81.0
1313.737793 45.0
1313.844482 1198.0
1314.040039 102.0
1314.105957 34.0
1314.282471 60.0
1314.409302 82.0
1314.476685 53.0
1314.635498 68.0
1314.739136 54.0
1314.837891 113.0
1314.897461 180.0
1315.022949 35.0
1315.069702 35.0
1315.269287 27.0
1315.419678 87.0
1315.544922 67.0
1315.676392 49.0
1315.759399 80.0
1315.864258 34.0
1315.930542 90.0
1316.091431 42.0
1316.330444 81.0
1316.395386 43.0
1316.482544 57.0
1316.563721 43.0
1316.646362 45.0
1316.712036 86.0
1316.983643 70.0
1317.099243 49.0
1317.163452 43.0
1317.342407 106.0
1317.419556 85.0
1317.577026 65.0
1317.659546 40.0
1317.838867 173.0
1318.121338 38.0
1318.28186 36.0
1318.363525 51.0
1318.420166 35.0
1318.555298 35.0
1318.683838 38.0
1318.73645 42.0
1318.807251 94.0
1319.098999 40.0
1319.217529 105.0
1319.38147 36.0
1319.453003 40.0
1319.524414 46.0
1320.10437 41.0
1320.346069 46.0
1320.483032 31.0
1320.701782 63.0
1320.750122 48.0
1321.034302 55.0
1322.581787 66.0
1324.02417 26.0
1324.364624 27.0
1328.759277 28.0
1329.515991 28.0
1330.121582 29.0
1330.197632 37.0
1330.363281 29.0
1331.492188 32.0
1331.835327 109.0
1332.685425 27.0
1332.797119 106.0
1333.827148 55.0
1335.182983 33.0
1337.067871 46.0
1337.440796 35.0
1340.16272 30.0
1341.811157 28.0
1342.048828 32.0
1342.099854 30.0
1344.883179 97.0
1346.126587 27.0
1348.350098 41.0
1348.419312 35.0
1352.47168 37.0
1352.723389 27.0
1354.744507 59.0
1357.549072 27.0
1358.459229 50.0
1359.606689 34.0
1360.078003 26.0
1362.037842 33.0
1370.140503 62.0
1377.26001 36.0
1377.525391 29.0
1379.118652 34.0
1388.876709 71.0
1389.093628 37.0
1404.894531 28.0
1418.440918 41.0
1420.65979 65.0
1421.10376 31.0
1426.477661 31.0
1430.971191 46.0
1432.599609 47.0
1437.980591 53.0
1438.157104 32.0
1441.560791 47.0
1449.488525 32.0
1450.022095 26.0
1450.199219 27.0
1453.710083 30.0
1456.358398 33.0
1463.463257 43.0
1465.360718 65.0
1468.514282 31.0
1478.97583 48.0
1483.100708 33.0
1483.155396 37.0
1484.224243 41.0
1485.425049 30.0
1485.742432 43.0
1490.568848 65.0
1491.211182 26.0
1492.654175 40.0
1493.4646 36.0
1494.112549 39.0
1498.83606 57.0
1500.426392 35.0
1501.767944 49.0
1504.539429 34.0
1513.791504 29.0
1516.654175 43.0
1521.658569 54.0
1523.123169 45.0
1524.871704 36.0
1526.066284 41.0
1527.279541 60.0
1534.843018 50.0
1548.250732 34.0
1552.572632 59.0
1557.493774 37.0
1559.251099 42.0
1561.170532 27.0
1562.776001 40.0
1564.865234 52.0
1574.688843 36.0
1577.846069 37.0
1578.401367 32.0
1581.398193 45.0
1583.782593 48.0
1585.218872 38.0
1587.791992 51.0
1599.356689 49.0
1602.466553 46.0
1605.505127 57.0
1606.24353 50.0
1616.963989 53.0
1621.160767 68.0
1622.604736 44.0
1625.071655 55.0
1630.580566 32.0
1635.904297 29.0
1644.68335 40.0
1656.178589 33.0
1657.189209 34.0
1658.645142 32.0
1663.377563 35.0
1663.579712 44.0
1668.672241 37.0
1669.488892 29.0
1670.082397 54.0
1671.365967 34.0
1674.018921 28.0
1675.009766 40.0
1676.701294 33.0
1687.641602 54.0
1691.203857 26.0
1691.946533 38.0
1693.025269 49.0
1694.408203 34.0
1699.561401 41.0
1700.403564 47.0
1701.625366 33.0
1706.78186 34.0
1707.254028 27.0
1709.672241 30.0
1711.287964 31.0
1716.550293 31.0
1716.765381 38.0
1718.250122 74.0
1721.748901 37.0
1725.190674 29.0
1728.843018 60.0
1732.749268 31.0
1733.199219 33.0
1734.543579 57.0
1737.818604 31.0
1738.762207 61.0
1739.246216 26.0
1743.100586 40.0
1749.053833 49.0
1750.777588 42.0
1751.552612 27.0
1757.286255 34.0
1758.047607 44.0
1760.102539 36.0
1761.46814 42.0
1761.644165 38.0
1761.764404 49.0
1768.37439 70.0
1769.88208 92.0
1771.372437 29.0
1771.503296 59.0
1774.470825 40.0
1784.46936 34.0
1789.363037 42.0
1797.787598 36.0
1802.224976 28.0
1804.052612 32.0
1805.704468 48.0
1808.66626 36.0
1812.001099 49.0
1827.442505 80.0
1829.066162 29.0
1831.904175 37.0
1834.809326 43.0
1841.171021 37.0
1842.731201 57.0
1846.871216 29.0
1849.641846 111.0
1852.769287 48.0
1855.803101 32.0
1856.09082 27.0
1859.236938 73.0
1860.13916 47.0
1862.738525 28.0
1863.470459 47.0
1869.988892 39.0
1871.021851 39.0
1871.063965 51.0
1871.827637 26.0
1877.317017 81.0
1878.05249 29.0
1882.844604 51.0
1884.749512 59.0
1884.888306 42.0
1887.148926 69.0
1888.38562 32.0
1893.05542 43.0
1893.151123 31.0
1895.276733 56.0
1905.012695 34.0
1909.260376 57.0
1910.338013 100.0
1912.590942 33.0
1914.354248 73.0
1916.506714 75.0
1921.056519 56.0
1924.716797 28.0
1929.777954 50.0
1931.105713 36.0
1933.390137 40.0
1933.925415 28.0
1934.518311 50.0
1935.134155 31.0
1938.738037 31.0
1944.322876 32.0
1946.221069 28.0
1949.416504 33.0
1954.702637 55.0
1957.10376 36.0
1958.151001 53.0
1958.447021 51.0
1962.646362 36.0
1963.383911 66.0
1964.399414 55.0
1968.161743 112.0
1972.120117 30.0
1984.174316 48.0
1984.886597 36.0
1985.58252 38.0
1988.450684 35.0
1989.911743 45.0
1990.449951 39.0
1990.586914 72.0
1993.921997 43.0
1997.349854 41.0
1999.628662 38.0
2000.415161 75.0
2001.572144 33.0
2002.037476 44.0
END IONS
