BEGIN IONS
PEPMASS=902.45
CHARGE=1
MSLEVEL=2
SOURCE_INSTRUMENT=LC-ESI-Orbitrap
FILENAME=f.Rolandoo1/20190519 Moroidin paper GNPS/Moroidin-[QLLVWAGH].mzXML;
SEQ=*..*
IONMODE=Positive
ORGANISM=GNPS-LIBRARY
NAME=Moroidin-[QLLVWAGH] M+H
PI=Jing-Ke Weng
DATACOLLECTOR=Roland Kersten
SMILES=O=C1CCC(C(NC(C(NC(CC(C)C)C(NC(C(C)C)C(NC(C(NC(C(NCC(NC(CC2=CN3C=N2)C(O)=O)=O)=O)C)=O)CC4=C3NC5=C4C=CC6=C5)=O)=O)=O)C6C(C)C)=O)N1
INCHI=
INCHIAUX=
PUBMED=
SUBMITUSER=Rolandoo1
TAGS=
LIBRARYQUALITY=3
SPECTRUMID=CCMSLIB00005435911
SCANS=1
64.921249 2638.548584
64.921745 4575.40918
64.922241 5090.874512
64.922737 4307.532715
64.923241 2758.452148
64.923737 474.749176
65.904953 1643.999512
65.905457 3588.313721
65.905968 4787.771973
65.906471 4461.43457
65.906982 2830.131592
65.907486 401.417572
66.131798 274.172363
66.132309 522.182617
66.13282 613.453979
66.133331 556.00769
66.133842 390.455505
66.134346 89.295601
67.158897 198.296432
67.159424 423.431824
67.159943 602.639221
67.160461 665.80072
67.160988 564.703918
67.161507 349.717499
67.162033 2.580882
69.823036 1956.571167
69.823593 3819.522461
69.824142 4803.484863
69.824699 4340.174316
69.825249 2856.305908
69.825806 1317.792236
72.077477 310.975433
72.078056 2569.463135
72.078636 16406.351562
72.079224 45821.308594
72.079803 89515.578125
72.080383 128733.664062
72.080963 117794.375
72.081543 71845.8125
72.082123 28778.529297
72.082703 8657.960938
72.083282 1616.093994
72.083862 1385.882812
72.084442 1362.868652
72.085022 461.153656
75.851784 9.087574
75.852409 3397.76709
75.853035 7315.327148
75.853661 9667.981445
75.854286 8803.392578
75.854912 5374.411621
75.855537 64.176918
78.646538 681.839111
78.647202 1617.461426
78.647865 2101.990234
78.648521 1810.450317
78.649185 1037.00708
78.649849 30.371853
83.082115 10.941903
83.082832 352.880127
83.083549 949.551941
83.084267 2131.428955
83.084991 3089.23584
83.085709 2663.533447
83.086426 1219.347778
83.087143 502.632141
83.08786 140.944504
84.041786 188.511032
84.042519 937.911011
84.043251 1302.631958
84.043976 1363.876587
84.044708 1129.060547
84.045441 646.345093
84.077599 282.813751
84.078323 3082.467773
84.079056 7945.840332
84.079788 12729.65625
84.080521 14071.563477
84.081253 10957.321289
84.081985 5943.085449
84.08271 2420.574219
86.091927 711.489258
86.092682 3375.34375
86.093437 15044.847656
86.0942 49000.398438
86.094955 102738.070312
86.095711 156020.1875
86.096474 157025.65625
86.097229 105005.726562
86.097984 48015.945312
86.09874 8028.589844
86.099503 2084.796387
86.100258 1411.942749
86.101013 526.901123
86.101776 93.970734
86.571106 292.034515
86.571869 542.328064
86.572632 678.580627
86.573395 620.149719
86.574158 412.318054
88.199158 133.807419
88.199944 663.852356
88.200722 1180.389771
88.201508 1363.118286
88.202293 1106.22229
88.203079 545.759705
88.704773 181.310349
88.705559 789.434753
88.706352 1258.436768
88.707146 1967.045654
88.707939 2085.936768
88.708733 1746.400146
88.709526 1046.841797
88.710312 300.503021
88.713486 343.121277
88.714279 2658.629883
88.715065 4498.887695
88.715858 5211.124512
88.716652 4060.356689
88.717445 1818.37561
90.196785 165.262634
90.197594 788.870789
90.19841 1200.208862
90.199219 1279.101929
90.200035 968.525269
90.200844 434.865936
92.157265 385.648651
92.158104 2693.381104
92.158943 4662.023438
92.159782 5408.802246
92.160622 4434.855957
92.161461 2303.44165
92.372398 143.673843
92.373238 708.901306
92.374077 1366.868652
92.374924 1587.921997
92.375763 1278.726196
92.376602 1057.183105
92.377449 2719.858643
92.378288 5473.113281
92.379128 8976.063477
92.379974 9761.292969
92.380814 8749.4375
92.381653 8637.254883
92.3825 9606.99707
92.383339 7829.580078
92.384178 3270.393311
92.38755 2087.425537
92.38839 21605.683594
92.389236 49160.738281
92.390076 52118.554688
92.390915 17422.701172
92.391762 2602.052979
95.057701 161.772156
95.058578 717.14386
95.059464 1242.787231
95.060341 1492.658447
95.061218 1260.992065
95.062096 614.591675
97.098 18.109173
97.098907 300.001068
97.099815 599.318848
97.100723 760.224854
97.101631 671.351868
97.102539 396.112152
98.092644 395.912292
98.093567 2760.381592
98.09449 5358.756348
98.095406 7014.749512
98.096329 6446.454102
98.097252 3845.624756
98.098175 640.587341
98.517776 50.11684
98.518707 540.093445
98.51963 776.754761
98.520561 785.397217
98.521484 555.678833
98.522415 254.705566
109.716492 201.710373
109.717583 749.456909
109.718674 1238.989746
109.719765 1521.059082
109.720856 1395.299561
109.721939 920.076111
109.72303 207.266891
110.062752 455.727417
110.063843 2754.709717
110.064941 5634.470215
110.066032 17120.40625
110.067131 47624.664062
110.068222 137709.078125
110.069321 271461.1875
110.070412 402953.4375
110.07151 397538.40625
110.072601 262659.84375
110.0737 118522.882812
110.074791 28963.953125
110.07589 5354.367188
110.076981 2946.153076
110.078079 2411.151123
110.07917 717.304993
110.080269 113.828758
115.034882 60.287003
115.036057 367.401917
115.037224 695.042847
115.038391 855.661255
115.039566 740.627014
115.040733 413.422363
122.066193 1058.144775
122.067467 4180.699219
122.068748 7577.386719
122.07003 9505.263672
122.071304 8577.292969
122.072586 4993.353027
122.073868 1347.615356
122.075142 391.537262
124.081879 339.273407
124.083191 1320.924072
124.084496 3151.838867
124.085808 5424.586426
124.08712 6021.057617
124.088432 4402.40625
124.089745 2257.526855
124.091049 856.978455
124.092361 261.018585
125.103851 1814.81311
125.105179 6719.088379
125.106506 9019.098633
125.107834 9699.907227
125.109161 8079.847656
125.110489 4162.523438
129.061676 1203.552979
129.063065 3685.931152
129.064453 5037.080566
129.065842 4810.272461
129.06723 3211.934814
129.068634 1188.770752
132.477158 1343.88208
132.478607 3918.738037
132.480057 5156.912109
132.481506 5034.055176
132.482941 3564.032227
132.48439 1641.11499
133.989304 344.203674
133.990768 1280.988892
133.992249 1985.997192
133.993713 2082.616211
133.995178 1507.383667
133.996658 625.665039
136.686813 123.500374
136.688339 440.142914
136.68985 647.997009
136.69136 668.518433
136.692886 491.643372
136.694397 209.00145
138.062378 414.686707
138.063919 1119.889771
138.06546 1639.568481
138.067001 1727.710205
138.068527 1334.939941
138.070068 14.453021
140.13588 656.931641
140.137451 9586.061523
140.139023 31250.605469
140.14061 57273.171875
140.142181 78753.625
140.143753 73288.34375
140.145325 46916.769531
140.146896 21296.650391
140.148468 4872.720215
140.15004 845.686462
140.151611 267.915619
142.690216 491.796478
142.691833 1593.792847
142.693451 2233.640869
142.695068 2250.434326
142.696686 1621.16394
142.698303 713.542542
145.043015 83.874779
145.044662 376.744171
145.046326 837.850891
145.047974 1236.522217
145.049637 1290.541382
145.051285 958.514465
145.052948 494.075378
145.054596 152.583389
150.060715 280.795258
150.062454 918.638733
150.064194 1668.312012
150.065933 2046.795166
150.067688 1769.253662
150.069427 1049.051636
150.071167 270.542145
152.137039 190.593246
152.138809 871.716553
152.140594 1954.729858
152.14238 2814.650146
152.14415 2823.740967
152.145935 1996.407837
152.14772 962.957458
152.14949 205.032135
156.06369 3567.543457
156.065536 14867.360352
156.067383 30116.818359
156.069229 80955.476562
156.071075 264960.0
156.072937 618256.3125
156.074783 998353.25
156.07663 1147884.75
156.078476 851979.9375
156.080322 464060.75
156.082169 152239.5
156.08403 34565.449219
156.085876 12691.526367
156.087723 4190.015137
156.089569 3167.509766
156.091415 426.96991
156.093277 105.061516
157.148926 105.692642
157.150803 951.018677
157.152664 3959.139404
157.154526 10664.742188
157.156403 19022.054688
157.158264 22587.933594
157.160141 18045.460938
157.162003 9997.782227
157.163879 3980.495361
157.165741 1017.703979
157.167603 110.541519
159.546478 2784.221436
159.548386 9478.525391
159.550293 15876.082031
159.5522 17818.248047
159.554123 14691.498047
159.55603 8146.247559
159.557938 2076.89502
159.598083 3919.48999
159.599991 11081.064453
159.601898 16949.794922
159.603821 19863.078125
159.605728 12689.964844
159.607635 9458.204102
159.609543 14354.8125
159.611465 22131.199219
159.613373 33754.992188
159.61528 34441.085938
159.617203 22889.763672
159.61911 10330.352539
159.621017 2315.766357
159.659271 1069.23291
159.661194 3464.818115
159.663101 6463.037109
159.665009 8509.728516
159.666931 8587.251953
159.668839 7116.018066
159.670746 4655.47168
159.672668 3530.930176
159.674576 3069.120361
159.676498 1983.827271
159.678406 665.273376
164.077835 729.105835
164.079819 1412.653564
164.081818 1656.460083
164.083817 1397.58252
164.0858 803.606201
164.087799 91.59996
167.083893 1413.303589
167.085953 5439.67334
167.087997 12562.623047
167.090042 19440.820312
167.092087 22474.998047
167.094131 17796.564453
167.096191 10045.952148
167.098236 3090.827148
167.100281 860.430115
167.102325 168.858154
167.110519 298.067627
167.112579 998.016418
167.114624 1855.388916
167.116669 2351.613037
167.118713 2130.39209
167.120773 1345.218994
167.122818 514.916443
167.124863 28.164135
169.161194 1079.095703
169.163284 8637.910156
169.165359 22442.525391
169.16745 35101.199219
169.16954 38679.90625
169.171616 29295.556641
169.173706 15958.850586
169.175797 4246.565918
169.177887 388.805847
173.635284 3372.832275
173.637451 7366.02832
173.639633 9569.293945
173.6418 9186.599609
173.643967 6228.0625
173.646133 1692.915039
175.159561 193.503326
175.161758 1328.933716
175.163956 3866.555664
175.166153 7021.943359
175.16835 8829.356445
175.170547 7524.77832
175.17276 4420.888672
175.174957 1456.471436
175.177155 149.375412
179.145599 6624.533203
179.147873 21860.025391
179.150146 40619.140625
179.15242 52039.757812
179.154694 43854.789062
179.156967 25480.919922
179.159241 9455.378906
179.161514 1738.220093
179.163788 145.275253
183.875366 179.950729
183.877731 483.444885
183.880096 707.942566
183.882462 710.747253
183.884827 504.619049
183.887192 129.764053
185.153946 1034.026367
185.156326 4505.902832
185.158722 10766.896484
185.161118 18200.650391
185.163498 26491.052734
185.165894 21608.517578
185.168274 12613.738281
185.17067 5789.598633
185.17305 1603.404907
185.175446 112.523987
187.118805 627.510132
187.121231 1226.143188
187.123657 1470.982544
187.126083 1232.064697
187.12851 709.665649
187.130936 96.556793
187.778275 361.394958
187.780716 716.278442
187.783157 859.720825
187.785599 750.972778
187.78804 474.084595
187.790482 113.970039
188.164368 855.869263
188.166824 2162.574951
188.169266 3403.484131
188.171722 3921.95166
188.174164 3355.202148
188.176605 2068.068115
188.179062 513.928955
193.102951 990.069092
193.105499 2012.331055
193.108047 2567.891846
193.110596 2257.522217
193.113144 1331.515625
193.115677 462.163025
195.077164 3932.436523
195.079742 17391.414062
195.082321 43771.875
195.084915 70264.515625
195.087494 73974.6875
195.090073 52841.46875
195.092667 26578.078125
195.095245 6358.766602
195.097824 894.920959
195.100418 3309.85083
195.102997 5243.283203
195.105576 8334.719727
195.10817 13355.94043
195.110748 16450.111328
195.113327 15097.664062
195.115921 9744.470703
195.1185 3143.408447
195.121094 390.173065
195.123672 25.474777
198.177704 286.027283
198.180344 664.447754
198.182983 961.373779
198.185638 1008.367737
198.188278 783.381958
198.190918 438.249237
198.193573 121.987434
199.301437 3592.137695
199.304108 7738.379395
199.306778 10202.391602
199.309448 9456.536133
199.312119 6176.743652
199.314789 1467.014648
204.197388 976.339294
204.20015 1818.177124
204.202911 2176.170654
204.205688 1896.669922
204.20845 1159.62915
204.211212 183.14537
210.452133 918.977051
210.455032 1766.674438
210.457932 2260.588379
210.460815 2072.657227
210.463715 1297.798462
211.104996 2649.897949
211.10791 9873.016602
211.110825 32084.814453
211.113724 114331.125
211.116638 278581.5625
211.119537 467415.71875
211.122452 554664.25
211.125366 430705.53125
211.128265 244373.984375
211.13118 89077.945312
211.134094 22571.195312
211.136993 5000.29541
211.139908 2091.401123
211.142822 490.726044
213.078979 2332.799805
213.08194 5882.320312
213.084885 20376.601562
213.08783 84607.820312
213.090775 252483.109375
213.093735 468242.75
213.09668 637888.9375
213.099625 561201.5625
213.102585 348715.90625
213.10553 146241.4375
213.108475 40526.769531
213.111435 11296.333984
213.11438 3696.786133
213.117325 1114.631714
213.120285 464.457916
213.12323 40.720047
213.126175 920.737732
213.129135 1333.271851
213.13208 2034.08667
213.135025 3560.450684
213.137985 5597.278809
213.14093 5291.665527
213.14389 2678.998291
213.146835 1056.59314
223.073257 82.506584
223.076416 877.819336
223.079575 1382.19104
223.082733 1599.594727
223.085892 1455.327637
223.08905 981.299011
223.111176 53.619431
223.114334 604.00116
223.117493 1277.719482
223.120651 1708.453125
223.12381 1585.33606
223.126968 950.050781
231.696793 0.626942
231.700134 413.152588
231.703476 831.497131
231.706818 1128.904175
231.710175 1097.221558
231.713516 755.588379
231.716858 355.167511
232.048325 126.275085
232.051682 4593.997559
232.055023 8594.416016
232.05838 10756.430664
232.061737 9430.557617
232.065079 5380.308594
234.783829 16.204269
234.787247 986.577209
234.790665 1856.463501
234.794067 2440.040771
234.797485 2418.427002
234.800888 1786.045044
235.111649 110.006599
235.115067 796.76947
235.118484 1572.150635
235.121902 2053.289062
235.12532 1873.814941
235.128738 1184.805908
235.132156 446.846161
238.121017 184.041061
238.124512 1133.77771
238.127991 1858.431152
238.13147 2033.587524
238.134964 1564.399536
238.138443 675.262695
239.096085 2997.192383
239.099594 12489.181641
239.103104 38956.734375
239.106613 95474.8125
239.110107 155327.8125
239.113617 175535.484375
239.117126 127828.820312
239.120636 68024.039062
239.12413 21625.255859
239.12764 3315.594238
239.131149 981.938965
239.134659 308.350128
239.46109 438.681
239.4646 3951.238525
239.468109 5676.55957
239.471634 5955.631348
239.475143 4516.902832
239.478653 2190.436035
240.066574 27.989967
240.070099 451.096588
240.073639 708.302429
240.077164 789.924194
240.080688 620.985657
240.084213 310.578064
240.137131 421.696564
240.140656 3461.077393
240.144196 6345.186035
240.14772 7698.166504
240.151245 6393.224121
240.15477 3367.306152
240.15831 543.780518
248.095917 101.066391
248.099625 1008.072754
248.103333 4513.322266
248.107025 9045.751953
248.110733 13229.211914
248.114441 13188.641602
248.118149 9163.243164
248.121857 4038.220215
248.125565 475.662842
249.080765 148.282883
249.084488 786.185608
249.088211 1675.727051
249.091949 3324.728027
249.095673 5203.208008
249.099396 5486.877441
249.103134 3465.742676
249.106857 1465.66626
249.11058 370.692505
256.126312 1581.377686
256.130219 13666.615234
256.134094 38089.0
256.13797 70715.210938
256.141876 101291.898438
256.145752 89098.421875
256.149658 50645.53125
256.153534 21677.642578
256.15741 4721.453613
256.161316 528.269592
257.116425 207.858002
257.120331 876.3255
257.124237 1348.082031
257.128143 1450.581299
257.13205 1117.379761
257.135956 506.934357
263.142883 304.985687
263.146942 1271.824463
263.151001 2037.358643
263.155029 2229.574219
263.159088 1725.713867
263.163147 919.893127
263.167175 68.905685
266.106201 604.218628
266.110321 6215.816895
266.114441 20403.007812
266.118561 33770.769531
266.122681 38828.496094
266.12677 30141.244141
266.13089 16002.944336
266.13501 3469.040527
266.13913 635.921814
266.14325 232.613983
268.130463 154.857086
268.134613 770.603027
268.138763 1714.049194
268.142944 2477.848389
268.147095 2529.760986
268.151276 1876.166748
268.155426 999.121033
268.159607 321.287354
269.027771 880.987671
269.031952 3737.08667
269.036133 5179.915039
269.040314 5517.185059
269.044495 4377.100098
269.048706 2118.739014
273.62558 283.567139
273.629883 1376.209961
273.634186 2003.132446
273.638458 2200.212402
273.642761 1828.947632
273.647064 982.382507
275.129608 374.552521
275.133911 1449.328125
275.138245 2487.111816
275.142578 2849.338379
275.146912 2325.417725
275.151245 1365.828003
275.155548 484.611389
276.131927 257.100037
276.136261 2352.99585
276.140625 7691.908691
276.144958 11875.853516
276.149323 12631.28418
276.153656 8976.617188
276.15802 4008.270508
276.162384 478.965485
282.136597 567.32373
282.141113 3696.311768
282.145599 13770.870117
282.150085 32898.476562
282.154602 54396.421875
282.159088 62079.621094
282.163574 46878.953125
282.16806 25547.119141
282.172577 8364.750977
282.177063 1627.049805
282.181549 542.468201
284.096985 3367.961914
284.101532 10631.606445
284.106049 16450.730469
284.110596 28406.388672
284.115143 50304.335938
284.11969 169456.484375
284.124237 461091.03125
284.128754 839506.8125
284.133301 1116693.875
284.137848 982526.8125
284.142395 597286.25
284.146942 258249.6875
284.151489 69969.851562
284.156006 21929.023438
284.160553 10398.463867
284.1651 2379.13501
284.169647 572.311218
284.174194 30.397095
285.125916 466.402222
285.130493 1359.43457
285.13504 1722.879517
285.139618 1600.822021
285.144165 1103.1698
285.148743 430.340302
288.130524 333.283386
288.135162 1227.178955
288.139801 2703.689209
288.14444 4775.613281
288.149078 5717.40332
288.153717 4130.563965
288.158356 1865.568115
288.162994 586.80426
289.125519 200.506104
289.130188 835.110413
289.134857 1893.441162
289.139496 3052.231201
289.144165 3585.785889
289.148834 3167.675049
289.153503 2092.739746
289.158142 987.186462
289.162811 273.426971
294.102173 2152.373291
294.106934 9173.852539
294.111725 21605.640625
294.116516 33974.476562
294.121277 32378.626953
294.126068 20421.849609
294.130859 9398.053711
294.135651 2811.814209
294.140411 510.299774
294.145203 1137.884277
294.149994 1280.847778
294.154785 1322.758301
294.159546 1256.393677
294.164337 1024.963013
294.169128 371.061951
303.138367 3678.773926
303.143372 18880.185547
303.148376 49186.417969
303.153381 89073.78125
303.158386 114626.367188
303.163391 98926.484375
303.168396 58645.960938
303.173401 23244.46875
303.178406 6820.927246
303.183411 7810.102051
303.188416 9906.945312
303.19342 9987.642578
303.198456 7587.34668
303.203461 3322.108154
304.151825 330.372925
304.15686 1265.468018
304.161896 2464.219971
304.166931 3177.807861
304.171936 2830.233398
304.176971 1717.163086
304.182007 537.037537
305.160248 403.67865
305.165314 1442.214722
305.17038 2652.142578
305.175415 3296.693359
305.180481 2882.912354
305.185547 1770.031616
305.190582 385.763153
307.19223 114.271858
307.197327 502.441772
307.202454 1065.508179
307.20755 1527.699707
307.212646 1536.216919
307.217773 1070.089233
307.22287 493.722656
307.227966 129.628616
310.133392 2820.990479
310.13858 20468.304688
310.143768 56683.066406
310.148926 99418.234375
310.154114 120167.0625
310.159302 95119.226562
310.164459 52733.992188
310.169647 19732.462891
310.174835 4555.908203
310.180023 431.862823
315.149506 692.907959
315.154816 1797.600708
315.160126 2338.964111
315.165436 2162.659424
315.170715 1394.171143
315.176025 462.539886
320.174194 398.731201
320.179626 1148.048218
320.185059 1670.667603
320.190491 1569.605469
320.195923 923.745728
320.201355 251.202835
322.094971 283.130585
322.100433 924.161438
322.105927 1712.927002
322.11142 2262.508057
322.116882 2199.145996
322.122375 1581.363647
322.127869 802.300537
322.133331 206.032761
325.147614 353.609924
325.153168 1004.860657
325.158752 1494.59668
325.164307 1519.06311
325.169861 1097.237183
325.175415 362.513977
327.158264 311.029541
327.163879 990.023193
327.169495 2640.144775
327.17511 5036.365234
327.180695 6687.28418
327.18631 5860.503418
327.191925 3487.841064
327.19754 1504.720703
327.203156 348.207611
332.123688 450.557831
332.129425 1136.789062
332.135162 1589.107056
332.14093 1553.378418
332.146667 1071.728394
332.152405 325.672302
332.169617 466.036194
332.175354 1296.377686
332.181091 2072.038818
332.186829 2340.316895
332.192566 1885.719727
332.198334 1067.184692
332.204071 284.608551
333.15918 317.787994
333.164948 1014.360107
333.170715 1626.459229
333.176483 1661.343384
333.182251 1114.414917
333.188019 321.989197
334.500946 2175.872314
334.506744 5602.729492
334.512543 7605.187988
334.518341 7204.366699
334.524139 4669.256836
334.529938 1450.190918
334.535736 603.812195
334.541565 1661.172852
334.547363 2296.334473
334.553162 2265.379883
334.55896 1554.166748
334.564758 543.956238
335.128326 1222.023193
335.134155 4898.165039
335.139954 10724.799805
335.145782 15991.368164
335.151581 16527.798828
335.15741 12048.850586
335.163239 6006.67627
335.169037 1847.909546
335.174866 232.003128
337.144348 435.355865
337.150208 1084.947144
337.156067 1595.156738
337.161957 1815.559937
337.167816 1748.357788
337.173676 1474.955078
337.179565 1017.44397
337.185425 304.860962
337.197174 130.44899
337.203033 493.666016
337.208923 1177.943237
337.214783 2169.987793
337.220642 2664.851318
337.226532 1953.469238
337.232391 934.114685
337.238281 286.21936
338.162109 2240.168213
338.16803 6220.338379
338.17392 9055.876953
338.17981 9761.085938
338.185699 8154.644043
338.191589 5086.682129
338.19751 2033.334839
338.2034 210.957932
339.119385 263.725342
339.125305 1016.331482
339.131226 2159.682861
339.137146 3058.709473
339.143066 3054.367188
339.148987 2190.333496
339.154907 1154.825562
339.160828 674.972351
339.166748 3612.724609
339.172668 9216.773438
339.178589 13447.015625
339.184509 14009.660156
339.19043 10469.648438
339.19635 3249.021973
340.146118 466.95163
340.152069 1350.645996
340.15802 2199.215332
340.163971 2544.342773
340.169922 2190.554199
340.175873 1394.839111
340.181824 152.248413
349.136017 1797.75293
349.142212 13320.0
349.148407 54553.238281
349.154602 120432.679688
349.160767 186915.90625
349.166962 192932.265625
349.173157 134249.65625
349.179321 66560.757812
349.185516 20142.650391
349.191711 4026.193359
349.197906 1067.700562
350.146515 66.8134
350.15271 2638.920898
350.158936 8627.342773
350.165131 15068.006836
350.171356 19476.716797
350.177582 17463.175781
350.183777 11073.148438
350.190002 4451.318848
350.196198 524.104492
351.148895 7.380275
351.155121 1897.005127
351.161377 12488.817383
351.167603 33434.929688
351.173859 55179.121094
351.180084 62756.78125
351.18634 45798.324219
351.192566 23840.476562
351.198822 6982.107422
351.205048 1140.803101
351.211304 283.569366
353.172913 559.230225
353.179199 4094.249268
353.185486 9411.004883
353.191803 13518.192383
353.19809 13529.953125
353.204376 9257.806641
353.210663 3562.20459
353.21698 832.091431
361.140503 1634.269653
361.147003 6841.418457
361.153503 14861.675781
361.160004 21802.091797
361.166534 21902.738281
361.173035 14490.50293
361.179535 6649.355469
361.186066 1521.625122
361.192566 177.959152
363.15976 1738.604492
363.166321 5373.939453
363.172882 9946.922852
363.179443 13050.174805
363.186005 10284.540039
363.192566 5488.820312
363.199127 1713.289795
363.205688 183.717743
365.189392 823.662598
365.195984 1473.82605
365.202606 1658.20874
365.209229 1394.863403
365.215851 805.025208
365.222473 179.052444
366.170715 2845.045898
366.177368 9103.053711
366.18399 16336.774414
366.190643 20657.654297
366.197296 17807.248047
366.203949 10759.792969
366.210571 4218.63916
366.217224 713.929688
366.223877 26.184786
367.14267 1130.037354
367.149323 8063.171875
367.156006 27393.90625
367.162689 68877.5625
367.169342 119866.648438
367.176025 141204.0
367.182678 107891.03125
367.189362 57403.238281
367.196045 20426.498047
367.202698 4960.38916
367.209381 1624.027466
367.216064 1664.936401
367.222717 890.65332
367.229401 164.028549
378.171204 575.747803
378.178162 1505.505249
378.18515 2500.933105
378.192108 3015.97168
378.199097 2622.67334
378.206055 1565.410767
378.213043 623.48468
378.220001 13.159516
379.142334 1168.173462
379.149353 11081.648438
379.156342 46791.425781
379.16333 105866.570312
379.170349 170342.71875
379.177338 183848.0625
379.184357 132350.234375
379.191345 67985.507812
379.198334 22966.355469
379.205353 4507.948242
379.212341 553.706787
379.21936 104.123337
381.173492 939.702942
381.180573 2101.469482
381.187622 2997.270264
381.194672 3108.328613
381.201721 2274.856445
381.208801 1049.07959
381.215851 64.869759
385.156067 77.821381
385.163239 3298.710938
385.17041 11650.469727
385.177551 21465.966797
385.184723 28140.376953
385.191895 24062.154297
385.199066 14406.538086
385.206238 5734.628906
385.213409 1325.960571
385.220581 114.307617
388.162323 945.21521
388.169586 1914.887817
388.176819 2432.082031
388.184082 2139.23584
388.191345 1213.909058
388.198578 206.958984
389.186798 795.693726
389.194092 1571.745728
389.201355 1861.806641
389.208649 1448.199829
389.215912 664.505066
389.223206 100.508667
391.152588 546.515381
391.159912 1385.62915
391.167236 2069.112793
391.174591 2185.564453
391.181915 1700.605835
391.18927 906.441772
391.196594 44.673141
396.173798 3883.308838
396.181274 21196.472656
396.188751 51175.6875
396.196228 83706.328125
396.203705 92392.117188
396.211182 68911.304688
396.218658 37348.816406
396.226135 12917.568359
396.233612 2022.036255
396.241089 75.304672
397.162628 541.172729
397.170105 1483.882446
397.177612 2696.968262
397.18512 3460.522949
397.192627 3175.795898
397.200134 2078.373291
397.207642 941.480225
397.215149 140.821213
400.113434 740.241882
400.121033 1703.613525
400.128632 2347.889893
400.1362 2379.974121
400.143799 1799.518066
400.151398 466.993225
401.178009 801.781555
401.185638 1788.28479
401.193237 2616.380371
401.200867 2876.05957
401.208496 2373.467529
401.216095 1404.752808
401.223724 212.057373
402.200928 870.133179
402.208588 10464.819336
402.216217 24405.255859
402.223877 35312.960938
402.231537 34866.683594
402.239166 24213.796875
402.246826 9323.180664
402.254486 1613.740723
402.262115 80.279968
406.153412 1777.781616
406.161194 6286.315918
406.168945 20382.136719
406.176727 43145.671875
406.184479 56381.40625
406.19223 47901.574219
406.200012 28040.296875
406.207764 9681.709961
406.215515 1903.380737
406.223297 162.404144
414.179291 816.580383
414.187286 1512.961914
414.195282 1817.411499
414.203247 1443.596313
414.211243 656.586487
414.219238 14.692383
416.176636 4755.180176
416.184662 17622.583984
416.192719 40971.28125
416.200775 74912.820312
416.208832 82112.601562
416.216888 58498.6875
416.224915 27675.693359
416.232971 9535.748047
416.241028 2003.144653
416.249084 71.391685
417.16861 407.753235
417.176666 1274.55603
417.184753 2292.179932
417.192841 2584.633301
417.200928 1865.784058
417.208984 759.851685
417.217072 77.938469
419.203888 766.71283
419.212036 1637.485107
419.220184 2356.652588
419.228333 2472.850342
419.23645 1818.273438
419.244598 870.900574
419.252747 55.597206
422.182068 2597.537842
422.190308 9617.989258
422.198517 32120.875
422.206757 65061.167969
422.214966 91390.296875
422.223206 84890.914062
422.231415 55550.464844
422.239655 24816.742188
422.247894 4251.356445
422.256104 224.183746
422.264343 13.967334
423.319458 1108.581787
423.327728 2163.409668
423.335968 2736.962891
423.344238 2492.181885
423.352478 6526.600098
423.360748 14505.396484
423.369019 29098.751953
423.377258 33092.148438
423.385529 26668.554688
423.393799 14684.885742
423.402069 6124.210449
423.410309 1127.256226
423.418579 57.894104
424.163086 323.085205
424.171387 13961.0
424.179657 45091.117188
424.187927 81187.828125
424.196228 99126.320312
424.204498 76002.070312
424.212799 41916.75
424.221069 15095.397461
424.22937 3304.215576
428.175598 689.721863
428.18399 6889.056641
428.192383 14437.435547
428.200806 19357.005859
428.209198 18057.126953
428.21759 11783.524414
428.226013 4327.702637
428.234406 1289.187256
428.242798 439.806946
428.251221 43.423298
431.190613 4075.938965
431.199097 12349.020508
431.207581 22970.537109
431.216095 28712.050781
431.224579 22434.958984
431.233063 11455.641602
431.241547 4104.220215
431.250061 951.074585
431.258545 47.042789
432.177155 838.961914
432.185669 2189.020752
432.194183 4504.762207
432.202698 3818.566162
432.211212 2790.577393
432.219727 1446.583252
432.228271 127.491974
434.194702 1078.201416
434.203278 2059.70459
434.211853 2548.77417
434.220428 2191.225098
434.229004 1321.500366
443.176483 206.049896
443.185333 9938.942383
443.194183 43821.652344
443.203033 99076.59375
443.211884 157883.90625
443.220734 172436.125
443.229584 125380.421875
443.238434 65722.257812
443.247284 20475.748047
443.256134 2261.790039
444.160095 141.933762
444.168945 1167.130615
444.177826 7559.252441
444.186707 22364.572266
444.195587 34499.242188
444.204468 35674.863281
444.213348 25719.482422
444.222229 13277.301758
444.23111 2302.034668
444.23999 298.39566
444.248871 17.045282
445.200378 508.761749
445.20929 4896.421875
445.218201 11692.083984
445.227112 17849.966797
445.236023 18482.285156
445.244934 13475.039062
445.253845 6705.674316
445.262756 1088.810181
450.167206 86.903595
450.176239 5399.606445
450.185303 33342.347656
450.194366 91946.585938
450.20343 155770.828125
450.212463 185988.65625
450.221527 138615.8125
450.230591 75774.8125
450.239655 25749.410156
450.248718 8230.874023
450.257782 2008.230957
450.266815 2066.705078
450.275879 562.851562
450.284943 21.169943
451.174164 2193.032471
451.183258 11383.28125
451.192322 24406.480469
451.201416 34327.511719
451.21051 33699.082031
451.219604 22637.251953
451.228668 10445.852539
451.237762 1400.327271
451.246857 23.012444
453.179962 4664.220703
453.189087 9113.262695
453.198242 12226.601562
453.207397 11468.255859
453.216553 7216.311035
453.225708 1358.993286
453.234833 30.241877
454.169525 1017.42395
454.17868 1592.402466
454.187866 1840.14624
454.197052 1520.628662
454.206238 807.816101
454.215424 24.656174
455.189941 4611.113281
455.199158 11178.776367
455.208374 17691.90625
455.21759 20934.492188
455.226776 16272.887695
455.235992 8584.960938
455.245209 1479.919678
455.254425 29.50968
456.167633 498.238892
456.17688 1456.497314
456.186096 3838.926514
456.195343 6289.811035
456.20459 7146.377441
456.213837 5178.766602
456.223053 2843.696777
456.2323 946.66333
456.241547 22.992603
457.204071 581.885803
457.213348 1574.140625
457.222626 2542.913818
457.231873 2884.661133
457.24115 2514.872803
457.250427 1770.242065
457.259705 977.346741
459.175629 357.982117
459.184937 4923.833984
459.194275 19118.660156
459.203613 32579.810547
459.212952 38647.769531
459.22226 32508.972656
459.231598 19575.40625
459.240936 6188.780762
459.250275 931.675232
459.259583 9.099091
461.19751 224.608063
461.206909 2404.078857
461.216278 4920.314453
461.225677 7125.097168
461.235077 6486.329102
461.244476 4274.974609
461.253845 1457.058228
461.263245 465.25589
461.272644 5.146779
463.176056 5004.086914
463.185516 16167.242188
463.194946 28976.052734
463.204407 36954.238281
463.213867 32423.701172
463.223328 18825.041016
463.232758 2783.590332
463.242218 390.500336
463.251678 82.815872
464.22702 580.614136
464.236481 4188.282715
464.245972 17298.408203
464.255463 31870.832031
464.264954 41351.0
464.274445 37851.015625
464.283905 24704.207031
464.293396 10838.540039
464.302887 809.939453
465.195892 791.621887
465.205414 1957.550659
465.214935 3661.204346
465.224457 3748.624023
465.233978 2810.652588
465.243469 1276.415894
465.252991 21.681473
466.253754 4573.816895
466.263306 16861.525391
466.272827 26984.318359
466.282379 29886.691406
466.291931 23283.445312
466.301483 12001.974609
466.311035 1448.712158
467.209839 6707.282715
467.219421 11373.675781
467.229004 16141.015625
467.238586 16480.171875
467.248138 11540.28418
467.257721 2612.077881
467.267303 686.64624
467.276886 7.915466
469.227264 238.783218
469.236908 734.073059
469.246521 1864.861816
469.256165 3012.906006
469.265808 3146.210449
469.275452 2143.440674
469.285095 917.307129
469.294739 319.55069
469.304382 27.622395
470.202179 1088.487427
470.211853 2329.960449
470.221527 3389.722168
470.231201 3626.004395
470.240875 2946.030762
470.250519 1741.348389
470.260193 651.719604
471.170471 1845.66394
471.180176 17196.53125
471.18985 57049.273438
471.199554 110310.820312
471.209259 160444.796875
471.218964 149296.34375
471.228668 95279.703125
471.238373 41808.574219
471.248047 11703.485352
471.257751 1690.217407
471.267456 533.51123
471.277161 0.354297
472.161194 2.024441
472.170929 1132.294067
472.180664 3889.965332
472.190369 6990.402344
472.200104 6979.508301
472.209839 2356.593262
472.219574 531.311646
472.229309 293.97757
472.239044 1405.423828
472.248779 2311.722656
472.258484 2181.917236
472.268219 1341.998413
472.277954 560.700928
473.184326 2.831264
473.194092 622.014221
473.203857 10990.56543
473.213623 21049.134766
473.223389 28309.154297
473.233124 28424.238281
473.242889 19807.658203
473.252655 4067.135986
473.262421 650.424744
476.194946 61.805157
476.204773 9339.65918
476.21463 25933.941406
476.224487 53668.886719
476.234344 78822.960938
476.244202 78592.039062
476.254059 40833.886719
476.263916 20785.201172
476.273773 7276.128906
476.28363 805.16687
477.171906 70.756432
477.181793 2797.715332
477.191681 19503.263672
477.201569 67329.992188
477.211456 120017.179688
477.221344 154262.03125
477.231201 127962.742188
477.241089 76505.023438
477.250977 28557.460938
477.260864 8032.333008
477.270752 534.346436
478.171722 3574.988525
478.181641 11764.837891
478.191559 30203.298828
478.201477 45896.082031
478.211395 45754.183594
478.221283 27407.492188
478.231201 15532.380859
478.241119 1747.383179
478.251038 216.020752
481.160065 22.513016
481.170074 897.852417
481.180084 2224.099609
481.190094 4479.894531
481.200104 3677.314697
481.210114 2786.598145
481.220123 1501.985596
481.230133 530.712341
483.177948 24.147066
483.188019 791.929749
483.19809 1511.959106
483.20816 1816.616943
483.218231 1569.320068
483.228302 1027.636719
487.17041 31.830956
487.180603 790.137878
487.190796 1505.596558
487.200989 2075.176758
487.211212 1969.483887
487.221405 1129.358398
488.191589 104.402779
488.201843 2911.178467
488.212067 10806.291016
488.22229 35256.492188
488.232513 57923.824219
488.242737 61790.109375
488.252991 42923.429688
488.263214 22048.603516
488.273438 4582.554199
488.283661 452.920013
489.164703 71.373749
489.174957 5795.497559
489.185242 30649.958984
489.195496 114314.664062
489.20575 259937.40625
489.216003 412234.1875
489.226257 443398.125
489.236542 303864.625
489.246796 157148.171875
489.25705 47038.800781
489.267303 10585.855469
489.277588 1886.893555
489.287842 787.61084
492.205078 3.128696
492.215424 532.88208
492.2258 16271.290039
492.236145 47357.886719
492.24649 84743.140625
492.256866 114021.4375
492.267212 93980.445312
492.277557 55217.332031
492.287933 18860.361328
492.298279 2237.693359
492.308655 465.363098
493.190216 77.506409
493.200592 1405.576538
493.210999 2346.197998
493.221375 2545.715088
493.23175 1742.306519
493.242157 615.968567
494.209564 54.631134
494.220001 2941.285645
494.230408 7321.433105
494.240814 13181.150391
494.251251 16913.644531
494.261658 14684.053711
494.272095 7378.328613
494.282501 903.919312
495.200745 61.195309
495.211182 1050.484131
495.221649 2194.946533
495.232086 3050.579346
495.242523 3149.83667
495.252991 2571.490479
495.263428 1643.586182
495.273895 724.81427
496.184418 40.25581
496.194885 672.049866
496.205353 1483.396484
496.215851 2091.587891
496.226318 1960.867798
496.236816 1099.553711
499.163635 152.239288
499.174225 5187.10498
499.184784 19878.166016
499.195374 33432.363281
499.205933 41314.523438
499.216522 35770.378906
499.227081 20894.826172
499.237671 7589.308594
499.24826 697.937683
500.159149 75.039124
500.169739 1178.534058
500.180359 3386.651123
500.190979 3244.950928
500.201569 1656.709961
500.212189 1832.588501
500.222778 7824.942871
500.233398 15742.835938
500.244019 27071.050781
500.254608 14890.881836
500.265228 7486.475098
500.275848 2749.533203
501.178925 48.731495
501.189545 5951.942383
501.200195 18208.248047
501.210815 30848.986328
501.221466 35059.628906
501.232117 25148.537109
501.242737 13305.181641
501.253387 2976.287354
502.212463 10.852836
502.223145 6427.508789
502.233826 12206.260742
502.244476 14689.498047
502.255157 12735.865234
502.265839 8192.966797
502.27652 1278.478638
504.192566 75.124313
504.203308 954.5802
504.21405 1800.479614
504.224792 2548.557129
504.235504 2795.23291
504.246246 2297.523682
504.256989 1215.845703
505.170868 196.905045
505.181641 1822.674561
505.192413 17719.927734
505.203186 35017.734375
505.213928 47182.296875
505.224701 44637.21875
505.235474 28835.751953
505.246246 11717.53125
505.257019 1079.348267
506.206024 102.257637
506.216797 1703.565674
506.2276 9502.78125
506.238403 15042.977539
506.249207 17101.863281
506.26001 12949.555664
506.270813 6764.373535
506.281616 1680.644287
506.292419 498.831726
507.179352 50.613285
507.190186 3045.88208
507.201019 20048.435547
507.211823 53735.089844
507.222656 88272.65625
507.23349 99823.945312
507.244324 75758.671875
507.255157 41689.523438
507.265991 15017.157227
507.276825 2997.683838
507.287659 716.099976
508.18808 90.911514
508.198944 1347.218262
508.209808 3800.975098
508.220673 6401.828613
508.231537 7519.876953
508.242401 5497.876953
508.253265 2210.520996
508.26413 998.701843
509.232513 67.676399
509.243408 2892.522949
509.254303 17862.175781
509.265198 48858.800781
509.276093 92382.734375
509.286987 113644.796875
509.297882 85962.195312
509.308777 44101.265625
509.319702 14513.689453
509.330597 888.012207
516.189392 538.02771
516.200562 7134.65625
516.21167 25014.482422
516.222778 42902.253906
516.233887 49452.746094
516.245056 32326.416016
516.256165 17384.189453
516.267273 3340.502441
516.278381 459.09552
517.158264 358.510895
517.169373 6967.270508
517.180542 37015.691406
517.191711 118201.421875
517.202881 219159.578125
517.213989 298731.75
517.225159 259512.046875
517.236328 157678.265625
517.247498 66916.328125
517.258606 20864.162109
517.269775 6293.308594
517.280945 3344.869873
517.292114 2402.788574
517.303223 1275.703003
517.314392 388.557922
518.196899 215.090652
518.208069 3978.799561
518.219299 14470.583984
518.230469 28257.896484
518.241638 39345.003906
518.252869 39864.519531
518.264038 29684.056641
518.275208 16354.902344
518.286377 5000.026367
522.179321 245.768036
522.190613 5505.311523
522.201904 33935.824219
522.213257 132825.453125
522.224548 308829.65625
522.235901 483256.28125
522.247192 527980.875
522.258484 366172.0625
522.269836 191995.15625
522.281128 58921.894531
522.29248 14611.902344
522.303772 1566.521606
522.315125 524.407654
522.654846 167.320511
522.666138 2953.685059
522.67749 5337.592773
522.688843 6576.846191
522.700134 5356.146973
522.711487 2502.372803
523.210449 283.908722
523.221802 4080.753174
523.233154 9847.94043
523.244507 14470.890625
523.255798 14336.919922
523.267151 9567.014648
523.278503 3979.241455
523.289856 604.307617
525.190552 136.1978
525.201965 939.376648
525.213379 5116.490234
525.224792 11920.636719
525.236206 18137.955078
525.24762 19220.931641
525.259033 13148.474609
525.270447 6087.479492
525.281921 1485.143433
525.293335 550.023499
526.998413 50.27808
527.009888 1991.584473
527.021362 2909.909424
527.032837 3115.623779
527.044312 2474.23291
527.055786 1369.078125
527.23938 322.235962
527.250854 6963.610352
527.262329 11136.618164
527.273804 12105.899414
527.285278 9545.067383
527.296814 5224.099609
528.193481 136.618103
528.204956 1918.394531
528.216492 10368.588867
528.227966 16078.84375
528.239502 16728.953125
528.251038 11859.723633
528.262512 6216.62793
528.274048 685.318726
529.230896 200.900665
529.242493 1147.231079
529.254028 6234.67041
529.265564 23184.044922
529.2771 43420.214844
529.288635 52960.65625
529.300171 37420.042969
529.311768 20992.630859
529.323303 5101.953613
529.334839 539.484009
531.245361 115.680298
531.257019 1009.046997
531.268616 2026.446899
531.280212 2572.884766
531.291809 2311.319092
531.303406 1549.69519
531.315063 727.611389
533.22467 115.149345
533.236328 921.360474
533.247986 1535.08606
533.259705 1929.377197
533.271362 1772.234741
533.28302 992.734863
534.18335 74.599503
534.195007 2075.396484
534.206726 21926.462891
534.218445 70666.3125
534.230164 130051.617188
534.241882 180694.8125
534.25354 158218.328125
534.265259 93221.296875
534.276978 34783.648438
534.288696 5640.660156
534.300415 543.393433
535.17981 152.658905
535.191528 4100.669922
535.203247 28623.671875
535.215027 55204.902344
535.226746 73636.765625
535.238525 61250.320312
535.250244 35825.007812
535.261963 19423.138672
535.273743 35286.109375
535.285461 71311.882812
535.29718 103029.40625
535.30896 93182.882812
535.320679 50429.046875
535.332458 19966.337891
535.344177 3343.064697
535.355957 108.475494
536.249695 94.238808
536.261475 807.390808
536.273254 1885.35022
536.285034 2810.010254
536.296814 3066.434082
536.308594 2603.997803
536.320374 1698.516235
536.332153 738.231079
537.216553 58.945515
537.228333 3901.5896
537.240173 12977.771484
537.251953 40930.335938
537.263794 86243.632812
537.275574 125800.195312
537.287354 117585.804688
537.299194 73567.632812
537.310974 31344.787109
537.322815 7471.646484
537.334595 205.040436
538.233337 188.326324
538.245178 1417.747192
538.257019 2353.463623
538.26886 2426.324707
538.280701 1612.618896
538.292542 623.064026
540.263733 105.878273
540.275635 875.613586
540.287537 2081.843018
540.2995 3025.183594
540.311401 2915.724854
540.323303 1867.927734
540.335205 732.02771
541.241455 107.893654
541.253418 874.285095
541.265381 2076.941162
541.277283 3589.227539
541.289246 5485.975586
541.301147 4074.235352
541.31311 1737.036011
541.325073 544.689697
542.233826 131.046204
542.245789 1496.150879
542.257751 7059.20166
542.269714 10075.220703
542.281738 10862.62793
542.293701 9319.510742
542.305664 6036.106445
542.317627 1044.815186
544.190613 507.612366
544.202637 4767.917969
544.214661 10285.342773
544.226746 14054.34082
544.23877 11854.182617
544.250793 6221.423828
544.262817 2729.88623
544.274902 7844.329102
544.286926 15004.557617
544.29895 19841.361328
544.310974 17865.146484
544.323059 11177.277344
544.335083 4455.943848
544.347107 665.392029
545.23938 106.569466
545.251465 815.132324
545.263489 1865.149536
545.275574 2907.812256
545.287659 3227.871338
545.299744 2482.692139
545.311829 1144.853516
546.18219 33.982647
546.194336 1943.64856
546.206421 22087.869141
546.218506 76243.132812
546.230652 143277.9375
546.242737 202648.09375
546.254822 181511.3125
546.266968 110726.703125
546.279053 45718.226562
546.291138 11326.649414
546.303284 2073.298828
546.315369 2324.526611
546.327515 2508.681152
546.3396 1046.992188
547.297424 206.512344
547.30957 1633.827271
547.321716 4095.347656
547.333862 6194.174805
547.346008 6060.482422
547.358154 3787.716553
547.3703 1455.840454
547.382446 472.91098
550.198364 709.686218
550.210632 6819.003418
550.222839 20545.001953
550.235107 30347.726562
550.247314 31602.025391
550.259583 21528.779297
550.27179 10533.386719
550.284058 2273.058838
551.23999 235.468979
551.252258 1431.291748
551.264526 1968.533936
551.276855 1951.924316
551.289124 1243.460571
551.301392 378.016235
552.875793 193.78421
552.888123 1190.928101
552.900452 2622.151611
552.912781 10002.645508
552.92511 13541.266602
552.937439 14164.161133
552.949768 14388.202148
552.962097 14068.829102
552.974426 12021.922852
552.986755 11188.325195
552.999084 7694.96875
553.011414 2106.916748
553.023743 387.434357
553.196472 243.466232
553.208801 1568.836548
553.22113 3137.320068
553.233459 5579.736816
553.245789 5934.308105
553.258118 3847.304932
553.270508 1361.692871
553.282837 346.198212
554.246643 251.974823
554.258972 1380.36853
554.271362 1568.308228
554.283752 1886.161743
554.296082 1790.66626
554.308472 1073.30835
555.237732 329.731506
555.250122 2820.026123
555.262573 5617.785156
555.274963 7436.299316
555.287354 6636.245605
555.299805 3601.595703
556.181763 247.520126
556.194214 2474.832031
556.206665 8108.009277
556.219116 14412.333984
556.231506 15337.53418
556.243958 10437.707031
556.256409 21273.773438
556.26886 62718.933594
556.281311 144734.578125
556.293701 225054.5
556.306152 246031.828125
556.318604 171281.390625
556.331055 87492.484375
556.343506 21213.775391
556.355957 2093.402344
556.368408 454.832977
557.227966 178.373413
557.240479 1418.341675
557.25293 5733.54834
557.265381 12053.473633
557.277893 17126.126953
557.290344 17561.224609
557.302856 13107.769531
557.315308 7361.241699
557.327759 808.573853
558.277161 237.646088
558.289673 1523.520264
558.302185 3469.298096
558.314697 6083.624512
558.327209 4621.689941
558.339722 2412.467773
558.352234 894.115051
559.241516 245.967499
559.254028 1476.036987
559.266602 2486.639404
559.279114 2709.223877
559.291687 1953.049927
559.304199 835.96106
562.1875 506.722595
562.200134 6990.459961
562.212769 32300.082031
562.225403 58359.941406
562.238037 74158.796875
562.250671 59725.226562
562.263306 32614.220703
562.27594 10703.65625
562.288635 3749.971191
562.30127 6101.526855
562.313904 7437.739746
562.326538 5707.5
562.339172 2827.699951
562.351807 282.01413
563.238037 2838.756104
563.250671 20626.744141
563.263367 53298.867188
563.276062 95049.757812
563.288696 129125.625
563.301392 126036.554688
563.314087 85440.507812
563.326721 45252.59375
563.339417 16820.414062
563.352112 2686.547119
563.364807 356.6633
568.26532 1280.859985
568.278137 9878.849609
568.290955 17425.900391
568.303833 20369.787109
568.31665 16217.060547
568.329529 8006.317383
568.342346 467.512848
569.242737 233.547821
569.255615 1326.440186
569.268494 2473.04834
569.281372 3326.827637
569.29425 3174.391113
569.307129 2105.241943
569.320007 621.061035
570.222778 541.758057
570.235657 6230.657715
570.248596 21798.695312
570.261475 42922.9375
570.274414 59457.097656
570.287292 57753.816406
570.300232 41877.183594
570.313171 25126.048828
570.32605 9979.700195
570.338989 403.046448
571.231201 197.359436
571.244141 1144.695068
571.25708 2262.541504
571.27002 3114.667725
571.282959 3274.231934
571.295898 2663.339355
571.308838 1584.6604
571.321777 649.164795
571.334778 219.691559
572.255249 1446.794312
572.26825 8977.250977
572.281189 14918.796875
572.294189 17296.179688
572.30719 14883.978516
572.320129 9036.94043
572.33313 3514.087646
572.34613 961.388
573.21698 295.500366
573.230042 1519.166504
573.243042 2358.780518
573.256042 2633.28833
573.269043 1940.122192
573.282104 677.222412
573.295105 176.425888
573.308105 1157.839111
573.321106 2610.538574
573.334167 2989.501953
573.347168 2129.747559
573.360168 806.339417
574.181213 1237.338379
574.194214 12048.326172
574.207275 39000.351562
574.220337 81124.453125
574.233398 118370.8125
574.246399 113083.867188
574.25946 66145.492188
574.272522 30040.599609
574.285583 5829.847656
574.298645 1975.504517
574.311646 2078.24707
574.324707 1759.955933
574.337769 776.109314
575.278625 100.970764
575.291687 1999.039917
575.30481 9277.223633
575.317871 14619.586914
575.330933 16345.413086
575.344055 12498.485352
575.357117 6370.606445
575.370239 1293.287109
579.223816 234.621399
579.237061 1294.367554
579.250244 2500.216797
579.263489 3131.3396
579.276672 2697.684326
579.289917 1624.251953
579.303162 611.518982
580.26947 503.971985
580.282715 3460.897949
580.295959 8522.416016
580.309265 14641.326172
580.32251 17384.867188
580.335754 13962.995117
580.348999 7292.409668
580.362244 990.667236
580.375549 226.366364
583.263184 787.362427
583.276489 5103.043457
583.289856 12733.37207
583.303223 18861.349609
583.316589 19431.292969
583.329956 13831.836914
583.343323 6911.476074
583.356689 1679.985718
584.226013 125.587181
584.239441 2816.881348
584.252808 16662.304688
584.266235 49581.753906
584.279602 99863.75
584.292969 137091.015625
584.306396 126235.679688
584.319763 76304.242188
584.333191 32513.892578
584.346558 10004.509766
584.359985 411.230927
585.231567 16.45949
585.244995 689.60321
585.258423 3188.458252
585.271851 4670.992188
585.285278 3203.045898
585.298706 2314.366699
585.312134 1978.075317
585.325562 2432.05835
585.338989 2581.035645
585.352417 1889.061401
585.365845 824.183472
586.253174 179.36525
586.266602 1907.037354
586.28009 7905.416016
586.293518 15067.582031
586.307007 19621.548828
586.320435 17446.390625
586.333923 10842.479492
586.347412 4676.838379
586.36084 537.515381
590.189575 1538.071533
590.203186 8361.001953
590.216797 14724.170898
590.230408 17655.115234
590.244019 13662.054688
590.257568 6315.733398
590.271179 4379.85791
590.28479 17272.9375
590.298401 33958.492188
590.312012 40521.34375
590.325562 30569.525391
590.339172 14589.901367
590.352783 1867.855469
591.210571 514.771057
591.224182 7034.914551
591.237854 29633.451172
591.251465 53098.632812
591.265076 68925.648438
591.278748 62669.503906
591.292358 38081.867188
591.30603 9628.740234
591.319641 2253.937012
596.244934 246.790527
596.258728 1530.266602
596.272583 3860.365967
596.286377 6005.810059
596.300171 6542.791504
596.313965 4516.288086
596.32782 2023.904419
596.341614 780.150085
598.223999 209.549576
598.237854 1810.968018
598.25177 6449.895508
598.265625 11673.167969
598.27948 14132.009766
598.293396 11013.523438
598.307251 4910.486328
598.321106 833.517273
599.224182 802.965088
599.238098 4677.841797
599.252014 10200.383789
599.26593 14395.402344
599.279785 13130.980469
599.293701 8007.711426
599.307617 2630.245117
601.273987 191.650726
601.287964 3099.529053
601.301941 11449.618164
601.315918 15471.729492
601.329895 15280.500977
601.343933 10033.404297
601.35791 3987.635254
602.183716 78.333138
602.197754 464.427856
602.211792 760.645142
602.225769 1345.335938
602.239807 9731.435547
602.253784 45298.4375
602.267822 151210.3125
602.28186 352837.875
602.295837 548500.5
602.309875 612614.25
602.323853 444452.875
602.337891 238648.71875
602.351929 76369.65625
602.365906 18528.669922
602.379944 3728.645508
602.393982 1213.709473
602.40802 265.467896
603.278137 236.37056
603.292236 1041.004639
603.306274 1765.637207
603.320312 2313.673096
603.334351 2412.42627
603.348389 2010.593384
603.362488 1261.882935
603.376526 482.357422
604.276978 400.116638
604.291016 1653.469116
604.305115 2401.239746
604.319214 2501.217285
604.333313 1893.030396
604.347412 909.063599
605.235901 1100.356567
605.25 6342.853516
605.264099 13758.552734
605.278259 18843.587891
605.292358 17542.470703
605.306458 11230.701172
605.320618 4976.101562
605.334717 625.928894
608.282837 98.2929
608.297058 2121.247314
608.311279 9547.925781
608.3255 23639.970703
608.339722 35317.003906
608.353943 38489.59375
608.368164 30063.589844
608.382385 16634.392578
608.396606 3042.032715
608.410889 261.664917
608.496277 81.524872
608.510498 459.214722
608.524719 763.893677
608.53894 903.602478
608.553162 783.055725
608.567444 431.02829
609.279785 2066.456299
609.294067 10229.025391
609.30835 14150.34082
609.322571 13639.145508
609.336853 9327.865234
609.351135 4029.828125
612.242432 937.81543
612.256836 4801.476562
612.271179 9766.857422
612.285522 12890.200195
612.299927 11756.237305
612.31427 7326.799805
612.328674 2593.174072
613.278015 999.854004
613.292419 5758.921875
613.306824 12566.738281
613.321228 16524.443359
613.335632 14837.475586
613.350037 9019.407227
613.364441 3679.081787
613.378845 546.938782
615.284668 444.579254
615.299133 1693.727173
615.313599 2483.004883
615.328064 2948.915771
615.342529 2601.257812
615.356995 1554.783325
615.37146 485.835449
616.226379 171.872498
616.240906 4823.070801
616.255371 28815.617188
616.269897 73930.601562
616.284424 119323.429688
616.298889 142630.609375
616.313416 112630.539062
616.327942 63667.933594
616.342407 22524.044922
616.356934 4426.186523
616.37146 74.447472
617.213867 2279.307373
617.228455 21674.794922
617.242981 79483.023438
617.257507 163111.140625
617.272034 232503.6875
617.286621 230765.75
617.301147 158567.890625
617.315674 79340.539062
617.3302 25892.699219
617.344788 7142.466309
617.359314 321.282227
618.23291 611.376343
618.247498 6055.65918
618.262085 21760.125
618.276672 46534.179688
618.29126 70538.859375
618.305847 74783.742188
618.320374 55236.476562
618.334961 28897.316406
618.349548 6797.376465
618.364136 1192.328125
619.196045 1161.846191
619.210693 15273.667969
619.225281 49031.085938
619.239868 93666.164062
619.254517 116297.742188
619.269104 96494.546875
619.283752 54752.339844
619.29834 20239.96875
619.312927 11540.868164
619.327576 13437.923828
619.342163 15866.694336
619.356812 12460.686523
619.371399 5392.634277
620.249329 1838.348511
620.263977 13527.861328
620.278625 41005.398438
620.293274 89918.539062
620.307922 134226.203125
620.322571 138888.921875
620.337219 94580.71875
620.351868 47087.011719
620.366516 11299.063477
620.381165 586.253296
621.246521 830.42865
621.261169 8855.53418
621.275879 32420.726562
621.290588 61774.183594
621.305237 82486.8125
621.319946 77128.109375
621.334595 51119.246094
621.349304 23485.201172
621.364014 3951.938477
621.378662 328.429688
627.206116 731.214844
627.221008 8895.555664
627.235901 32407.734375
627.250793 55403.085938
627.265686 65044.144531
627.280579 49781.40625
627.295471 25005.830078
627.310364 6150.816406
627.325256 740.668823
628.309692 117.102608
628.324646 914.71936
628.3396 3555.53418
628.354492 6692.657227
628.369446 6063.878906
628.384399 3596.585938
628.399353 1631.605103
628.414246 566.137268
629.236633 74.24749
629.251587 5183.776855
629.266541 20254.365234
629.281494 52905.066406
629.296509 102755.71875
629.311462 132713.5625
629.326416 121699.570312
629.34137 77233.0625
629.356384 36784.445312
629.371338 9268.560547
629.386292 161.673309
630.225586 722.664734
630.240601 9748.814453
630.255615 44396.980469
630.270569 116539.445312
630.285583 202249.9375
630.300598 257133.03125
630.315613 214373.53125
630.330627 124048.3125
630.345642 49303.542969
630.360596 11332.966797
630.37561 1723.637207
630.390625 873.95697
631.261963 75.305252
631.277039 1435.060181
631.292053 5905.745117
631.307129 14064.347656
631.322144 22360.740234
631.337219 25630.888672
631.352234 19248.826172
631.367249 10231.265625
631.382324 2993.748779
633.221619 891.582031
633.236694 4677.559082
633.251831 10702.570312
633.266907 16656.193359
633.282043 18859.841797
633.29718 16210.972656
633.312256 10916.311523
633.327393 4828.503418
633.342468 938.069031
634.250244 611.270813
634.265442 3965.17334
634.280579 9991.206055
634.295715 14131.119141
634.310852 10963.941406
634.325989 3262.083008
634.341187 543.764587
634.356323 3207.356934
634.37146 6639.220215
634.386597 5937.273926
634.401733 2933.851807
634.416931 794.913269
635.281433 346.725342
635.296631 1493.005127
635.311829 2757.440186
635.327026 3287.549805
635.342163 2637.968506
635.357361 1397.670166
635.372559 415.690582
636.26947 71.478813
636.284729 774.793823
636.299927 10598.510742
636.315125 40092.816406
636.330383 84647.148438
636.345581 125137.15625
636.360779 119305.507812
636.376038 72886.9375
636.391235 27136.664062
636.406494 5335.712891
636.421692 461.398712
638.267761 393.566895
638.283081 3367.030518
638.29834 10672.06543
638.31366 18132.582031
638.328918 21696.039062
638.344238 18225.142578
638.359497 10845.545898
638.374817 4030.60376
638.390076 460.441986
638.420715 75.437065
638.435974 1181.707764
638.451294 3870.275635
638.466614 5987.177246
638.481873 7271.594238
638.497192 6466.502441
638.512451 3864.637695
638.527771 1204.044434
639.308777 145.470245
639.324097 837.055359
639.339417 2750.895752
639.354736 5603.219238
639.370056 6790.65332
639.385376 5509.212402
639.400757 3096.900635
639.416077 1326.880859
639.431396 532.976562
640.306213 777.742737
640.321594 3558.20459
640.336914 6439.651855
640.352295 7556.799316
640.367676 6383.806152
640.383057 3317.724609
641.259827 1224.538574
641.275208 7636.683105
641.290588 20621.568359
641.305969 35253.65625
641.321411 42503.539062
641.336792 33130.351562
641.352173 18629.107422
641.367615 7353.02832
641.382996 1305.64624
643.266174 482.175171
643.281677 1649.696045
643.297119 2343.177734
643.312622 2609.776611
643.328064 2656.58667
643.343567 2750.719482
643.359009 2697.698242
643.374512 2208.818604
643.389954 1424.512207
643.405457 398.187256
644.210876 37.225887
644.226379 4967.100098
644.241882 43653.089844
644.257385 113446.84375
644.272888 194648.25
644.288391 219807.28125
644.303955 165905.125
644.319458 92094.171875
644.334961 39295.367188
644.350464 15421.5625
644.365967 5878.587891
644.38147 387.070404
645.204285 1056.139038
645.219849 10625.363281
645.235352 43261.910156
645.250916 104051.078125
645.266479 163552.578125
645.281982 181093.828125
645.297546 128341.671875
645.31311 65462.363281
645.328613 18282.595703
645.344177 3620.893799
645.359741 419.205048
646.246765 1009.842773
646.262329 7695.381348
646.277893 20279.861328
646.293457 27236.449219
646.309082 29612.236328
646.324646 27225.607422
646.34021 20553.480469
646.355774 10552.78418
646.371399 4315.785156
647.229248 99.456367
647.244873 1321.466187
647.260498 6189.742676
647.276062 19495.265625
647.291687 49541.28125
647.307312 102195.585938
647.322937 153815.640625
647.338562 160821.3125
647.354187 105258.3125
647.369812 49338.96875
647.385376 9396.644531
647.401001 206.388367
648.2453 897.499756
648.260925 7533.063965
648.276611 26262.810547
648.292236 51868.878906
648.307922 69266.359375
648.323547 65359.273438
648.339233 42265.988281
648.354858 16104.618164
648.370483 2715.4646
648.386169 288.270721
655.218323 1290.366455
655.234192 6099.035156
655.250122 12468.365234
655.266052 15769.964844
655.281921 12752.318359
655.297852 11565.62793
655.313721 28748.451172
655.329651 81756.359375
655.345581 156110.03125
655.36145 210246.375
655.37738 193474.296875
655.393311 123568.6875
655.40918 55111.546875
655.42511 14850.677734
655.44104 1935.530762
656.317017 566.132935
656.332947 2087.27002
656.348877 4324.66748
656.364868 5990.609375
656.380798 4199.07959
656.396729 1770.391846
656.412659 582.242126
657.258667 386.057587
657.274658 1811.696533
657.290649 4201.87207
657.30658 4981.566406
657.322571 2647.025391
657.338562 888.26947
657.354553 421.601807
657.370544 1895.418457
657.386536 4184.354004
657.402466 4693.796387
657.418457 2033.405273
657.434448 321.830811
659.244385 553.885925
659.260437 4859.19873
659.276489 30402.902344
659.292542 86701.414062
659.308594 160958.28125
659.324646 216279.328125
659.340698 196680.15625
659.35675 122647.0
659.372803 55635.101562
659.388855 11405.241211
659.404907 1432.816406
659.420959 470.566864
660.288818 352.250122
660.304932 1223.635376
660.321045 1980.642212
660.337097 2349.431152
660.35321 1970.941162
660.369324 900.223267
661.239075 234.126251
661.255188 4875.992188
661.271301 18333.810547
661.287415 34507.703125
661.303589 46921.527344
661.319702 40388.464844
661.335815 20652.605469
661.351929 4129.764648
661.368042 175.871643
662.223633 6602.257324
662.239807 51719.238281
662.255981 206094.640625
662.272156 433568.0
662.288269 653787.75
662.304443 664835.3125
662.320618 473797.78125
662.336792 247783.828125
662.352966 99937.953125
662.369141 37494.59375
662.385254 9939.691406
662.401428 530.383911
663.259033 464.280365
663.275208 1679.91272
663.291443 2786.952393
663.307617 3180.011963
663.323853 2509.888184
663.340027 1341.512329
663.356201 404.511719
665.304565 550.87561
665.320801 1612.257324
665.337097 1963.338989
665.353394 1835.548828
665.369629 1387.026733
665.385925 629.522156
666.330872 573.965881
666.347168 1752.820068
666.363464 2414.533691
666.379761 2604.696777
666.396118 2141.720947
666.412415 1327.498657
666.428711 488.64502
667.310486 1675.015503
667.326843 7153.796387
667.343201 13903.643555
667.359558 18270.326172
667.375854 17185.132812
667.392212 11874.601562
667.408569 5546.734863
667.424927 738.340454
668.308655 502.137512
668.325073 1413.045044
668.341431 1705.65271
668.357849 1801.247192
668.374207 1755.238281
668.390625 1391.415283
668.406982 607.760193
669.259827 481.018036
669.276245 1686.047363
669.292664 2835.860107
669.309082 3134.5271
669.3255 1930.395996
669.341919 512.556091
669.358398 418.543884
669.374817 1586.392822
669.391235 2573.005371
669.407654 2626.989502
669.424072 1976.412231
669.440491 873.37207
670.311768 383.217285
670.328247 1375.736572
670.344727 2290.114014
670.361145 2585.228516
670.377625 1985.484619
670.394043 814.336243
671.300232 336.625458
671.316711 1260.461182
671.333191 2380.006592
671.349731 3318.261719
671.366211 3463.485596
671.38269 2769.496826
671.39917 1720.378418
672.208191 60.667469
672.224731 3066.209961
672.241272 18407.998047
672.257812 43030.242188
672.274353 62657.394531
672.290833 61053.53125
672.307373 38432.757812
672.323914 13699.371094
672.340454 4814.693848
672.356995 2510.457031
672.373474 3117.502197
672.390015 3631.689209
672.406555 2948.707031
672.423096 1197.874512
672.439636 284.933838
673.217407 2179.7771
673.234009 9305.641602
673.250549 18063.089844
673.26709 22626.939453
673.283691 18481.914062
673.300232 9907.46582
673.316833 5157.807129
673.333374 9063.639648
673.349915 15785.569336
673.366516 24969.361328
673.383057 29818.173828
673.399658 20709.072266
673.416199 9902.950195
673.4328 2360.425049
674.245483 1503.144775
674.262085 9127.170898
674.278687 21569.185547
674.295288 28448.195312
674.31189 26194.28125
674.328491 15381.396484
674.345093 4714.835938
675.259277 4023.994385
675.27594 22716.703125
675.292542 57148.523438
675.309204 93832.5
675.325867 105191.171875
675.342468 76095.898438
675.359131 37843.855469
675.375793 9944.333984
675.392395 1009.015503
675.409058 313.501923
676.292053 332.656799
676.308716 1288.873535
676.325378 2453.702637
676.342102 3271.232422
676.358765 3220.218994
676.375427 2374.001709
676.39209 1223.356689
676.408813 333.378082
679.320618 1648.327271
679.337402 5200.353027
679.354187 6713.922852
679.370972 6673.697754
679.387756 5247.459961
679.404602 2560.09375
682.318909 240.990158
682.335815 1032.37085
682.352661 2174.812012
682.369568 2967.644775
682.386475 2707.892822
682.403381 1652.846924
682.420288 564.222229
683.283203 1045.57666
683.30011 11265.019531
683.317078 50588.191406
683.333984 121659.640625
683.350952 192922.4375
683.36792 220408.578125
683.384827 166514.84375
683.401794 89400.382812
683.418701 29540.097656
683.435669 6952.537109
683.452576 521.069519
684.300476 2.015324
684.317444 1708.62439
684.334412 13034.822266
684.351379 37883.019531
684.368408 71029.976562
684.385376 104950.992188
684.402344 101172.101562
684.419312 64908.539062
684.436279 29414.695312
684.453247 5390.30127
685.286011 110.323807
685.30304 820.578857
685.320007 7104.883789
685.337036 25483.023438
685.354065 47337.15625
685.371094 61377.492188
685.388062 56032.878906
685.40509 36515.203125
685.422119 15839.357422
685.439148 1659.423462
686.273682 2542.21582
686.29071 12411.75293
686.3078 28734.238281
686.324829 48137.207031
686.341858 59701.058594
686.358948 50015.964844
686.375977 25764.064453
686.393005 11671.946289
686.410095 3800.418213
687.246399 1323.885864
687.263489 10698.120117
687.280579 35443.796875
687.297668 67944.882812
687.314758 91398.351562
687.331787 83308.375
687.348877 52563.886719
687.365967 20588.164062
687.383057 4643.650391
687.400146 498.20105
688.306763 516.205383
688.323914 1758.669556
688.341003 2900.852295
688.358154 3278.672119
688.375305 2512.707764
688.392395 1204.210693
689.232361 349.694946
689.249512 3458.072754
689.266663 14500.15625
689.283813 32412.994141
689.300964 46649.507812
689.318115 47156.253906
689.335327 33986.820312
689.352478 16404.1875
689.369629 2202.625
689.38678 81.120216
690.211365 4833.888184
690.228577 36113.003906
690.245728 155491.34375
690.262939 351423.125
690.280151 566910.625
690.297363 620957.3125
690.314514 467421.78125
690.331726 262708.5625
690.348938 112761.945312
690.36615 40920.882812
690.383362 16482.583984
690.400513 6869.52002
690.417725 1254.811157
690.434937 254.539337
692.29657 440.371948
692.313843 1553.739502
692.331116 2761.237061
692.348389 3456.785156
692.365662 3087.888428
692.382935 1954.928467
692.400208 685.383362
693.316711 485.270691
693.334045 1336.981934
693.351318 1776.244019
693.368652 1902.370972
693.385986 1574.150024
693.403259 688.849182
695.294312 431.541046
695.311707 2171.861816
695.329041 4760.199219
695.346436 6860.13916
695.363831 7231.509766
695.381226 5403.683105
695.398621 2834.011963
695.416016 776.781738
700.240295 246.547699
700.257874 1842.47644
700.275391 2929.879883
700.292969 4742.091797
700.310547 16635.191406
700.328125 57621.699219
700.345703 167433.78125
700.363281 339173.625
700.380859 486672.46875
700.398438 490722.09375
700.416016 334956.125
700.433594 167788.171875
700.451172 49232.980469
700.46875 8959.015625
700.486328 211.999924
701.278076 227.146469
701.295654 5582.882324
701.313293 32715.279297
701.330872 108947.828125
701.348511 225266.109375
701.366089 324302.25
701.383728 325856.40625
701.401367 224963.203125
701.418945 111980.320312
701.436584 32550.306641
701.454163 5123.729492
701.471802 297.639771
702.318176 266.371918
702.335815 2686.13623
702.353455 8351.485352
702.371094 14935.826172
702.388733 19209.285156
702.406433 17382.148438
702.424072 10697.182617
702.441711 3854.761963
702.459351 235.778198
703.254456 250.752121
703.272156 3678.337646
703.289795 11085.355469
703.307495 17131.238281
703.325195 17134.0625
703.342896 9320.506836
703.360596 1660.719116
704.263489 26.259977
704.28125 4841.912598
704.29895 24004.955078
704.31665 56865.390625
704.334412 92744.664062
704.352112 106017.90625
704.369873 81885.140625
704.387573 44747.070312
704.405273 15187.917969
704.423035 1673.229004
710.29187 112.366928
710.309814 5258.400879
710.327759 23023.103516
710.345703 50021.753906
710.363708 79524.34375
710.381653 85396.945312
710.399597 55792.113281
710.417542 27433.884766
710.435486 7586.049805
710.45343 762.008362
711.280151 125.375648
711.298157 4537.077637
711.316101 20232.816406
711.334106 48413.707031
711.352112 77612.710938
711.370117 83626.945312
711.388062 58105.894531
711.406067 27905.392578
711.424072 7775.403809
711.442078 126.834671
712.306519 3524.316895
712.324524 18565.814453
712.34259 47061.609375
712.360596 88659.476562
712.378662 125064.851562
712.396667 124370.304688
712.414673 83999.078125
712.432739 41813.859375
712.450745 11072.671875
712.468811 392.604736
713.299011 226.431641
713.317078 6775.312012
713.335144 22088.410156
713.35321 36400.488281
713.371277 44608.972656
713.389343 41187.839844
713.40741 27984.707031
713.425476 11478.307617
713.443542 719.901978
714.311646 589.280151
714.329773 1493.401489
714.347839 1992.033691
714.365967 2538.309814
714.384094 3234.52417
714.402161 4793.795898
714.420288 4918.520508
714.438416 2389.614258
714.456482 531.723389
716.307068 604.786194
716.325256 1562.841064
716.343445 2033.765869
716.361633 2108.508301
716.379822 1668.136841
716.39801 675.05896
717.36261 727.706543
717.380798 1933.849243
717.399048 2433.585449
717.417236 2135.116211
717.435486 1304.753662
717.453674 427.146515
718.237854 352.28717
718.256104 2528.630371
718.274353 6317.709473
718.292603 7631.609375
718.310913 4331.262207
718.329163 2797.430664
718.347412 6690.027344
718.365662 11881.839844
718.383911 14262.165039
718.402161 10968.025391
718.42041 4885.461426
718.43866 518.582947
719.315918 638.320251
719.334229 8074.492188
719.352539 23771.240234
719.37085 37269.246094
719.389099 39035.910156
719.40741 28699.287109
719.42572 14334.461914
719.444031 3923.987305
719.46228 295.880859
728.270752 557.283081
728.289368 6499.069336
728.308044 27850.732422
728.32666 103199.492188
728.345276 263605.0
728.363953 470044.25
728.382568 595148.4375
728.401245 507239.09375
728.419861 301956.75
728.438477 129162.625
728.457153 35476.15625
728.475769 8235.932617
728.494446 739.594666
728.513062 38.749718
729.278137 2391.259277
729.296814 18401.361328
729.315491 80797.03125
729.334167 204483.96875
729.352844 358120.25
729.371521 440830.0625
729.390198 365510.3125
729.408875 215229.828125
729.427551 90869.078125
729.446228 24471.898438
729.464905 4813.371582
729.483582 369.880493
730.287598 3304.745605
730.306274 40504.195312
730.325012 138782.765625
730.343689 269333.4375
730.362427 390747.1875
730.381165 405362.59375
730.399841 302544.09375
730.418579 169298.9375
730.437317 68379.148438
730.455994 15745.375
730.474731 1079.188843
731.317871 1244.903809
731.336609 5228.025879
731.355408 11395.644531
731.374146 16963.896484
731.392883 17791.609375
731.411621 13270.422852
731.43042 6351.224121
731.449158 1168.193848
731.467896 343.347992
732.256409 883.82666
732.275208 6630.324219
732.294006 27478.791016
732.312805 67196.625
732.331604 108873.21875
732.350342 124185.171875
732.369141 92670.289062
732.387939 47018.785156
732.406738 12420.640625
732.425537 549.774475
739.315247 498.125824
739.33429 1301.392944
739.353394 1840.779541
739.372437 2059.656494
739.391479 1745.035156
739.410583 787.526611
740.28833 684.140015
740.307434 10749.828125
740.326538 41147.269531
740.345642 85880.28125
740.364746 129181.148438
740.38385 141285.421875
740.402954 106477.578125
740.422058 57753.667969
740.441162 19435.759766
740.460266 2366.89502
741.339844 599.624512
741.359009 4859.338867
741.378174 11505.222656
741.397278 14998.082031
741.416443 13109.299805
741.435608 8600.085938
741.454712 3975.924805
741.473877 724.822327
742.297791 21.369152
742.316956 2315.886475
742.336121 15150.121094
742.355286 36499.292969
742.374512 56372.636719
742.393677 64260.152344
742.412842 52103.292969
742.432007 30898.556641
742.451233 10839.144531
742.470398 227.799622
743.315186 721.523743
743.334412 1890.906128
743.353638 2548.36792
743.372803 2417.466309
743.392029 1519.47229
743.411255 438.888763
745.317688 241.263611
745.336975 7343.580078
745.356262 31337.552734
745.375549 69165.570312
745.394836 108379.007812
745.414124 122314.59375
745.433472 97436.140625
745.452759 56576.792969
745.472046 21742.384766
745.491333 3579.21167
746.283325 896.043518
746.302612 6995.083984
746.32196 35928.589844
746.341309 129088.414062
746.360657 286759.15625
746.379944 448045.3125
746.399292 493882.4375
746.41864 369897.0625
746.437988 198889.3125
746.457336 72241.429688
746.476624 17662.972656
746.495972 3364.925049
746.51532 1147.077393
746.534668 319.966278
747.289551 279.712585
747.308899 7818.67041
747.328247 39287.695312
747.347656 98984.765625
747.367004 171705.765625
747.386414 207141.234375
747.405762 166702.515625
747.425171 92598.015625
747.444519 35441.066406
747.463928 7781.72168
747.483276 499.617035
754.351257 717.073608
754.370911 2175.387207
754.390564 4524.620117
754.410156 5547.264648
754.42981 3824.644531
754.449463 1875.221558
754.469116 492.77182
756.299927 65.931374
756.319641 7153.117188
756.339355 24378.626953
756.35907 50340.796875
756.378784 67900.304688
756.39856 60497.015625
756.418274 41146.355469
756.437988 18766.474609
756.457703 4163.856934
756.477417 284.755371
757.286987 2030.488892
757.306702 23891.136719
757.326477 88733.476562
757.346252 174704.28125
757.366028 252263.671875
757.385803 251892.453125
757.405518 179052.359375
757.425293 91831.117188
757.445068 32449.617188
757.464844 5427.47998
757.484619 233.395355
758.27594 269.536743
758.295776 23557.867188
758.315552 90028.1875
758.335327 175460.546875
758.355164 250954.203125
758.374939 240606.671875
758.394775 166689.375
758.414551 85216.578125
758.434387 31091.068359
758.454163 6265.32666
758.473999 148.371841
759.30658 1612.898315
759.326416 7377.102539
759.346252 22622.296875
759.366089 45825.542969
759.385925 61083.5625
759.405762 54024.78125
759.425598 33579.042969
759.445435 13881.607422
759.465271 2762.198242
759.485168 259.125824
760.279602 675.161987
760.2995 1921.922974
760.319397 3867.43042
760.339233 4209.056152
760.359131 2893.520264
760.379028 1660.776367
760.398926 617.670532
761.274475 139.332199
761.294373 2763.497559
761.314331 15561.53125
761.334229 40480.238281
761.354126 73278.328125
761.374084 90433.179688
761.393982 69868.335938
761.413879 35746.503906
761.433838 11288.742188
761.453735 1525.921021
763.370056 562.841553
763.390015 1384.050903
763.410034 1870.495117
763.430054 1956.949707
763.450012 1512.859741
763.470032 544.548096
765.333679 302.131287
765.35376 1129.384644
765.37384 2059.032715
765.393921 2428.042236
765.414001 2050.803467
765.434082 1311.515503
765.454163 432.923218
766.358643 496.530396
766.378723 1296.382812
766.398865 1872.956909
766.418945 1966.411865
766.439087 1440.2229
766.459229 490.778351
767.365417 524.201721
767.385559 1782.194458
767.405762 4386.562012
767.425903 6345.701172
767.446045 5656.614258
767.466248 3643.579102
767.486389 1765.444336
767.506531 462.94696
768.293457 1909.806519
768.31366 9704.170898
768.333862 22332.605469
768.354004 32704.234375
768.374207 33766.664062
768.394409 25230.152344
768.414612 13463.985352
768.434814 3414.472168
769.344543 360.786682
769.364807 3146.234619
769.38501 8685.266602
769.405273 13020.609375
769.425476 12504.367188
769.44574 7904.194824
769.465942 3467.904785
769.486206 511.787933
771.311035 34.859325
771.33136 629.315491
771.351624 8560.698242
771.371948 26862.664062
771.392273 77181.484375
771.412598 134919.953125
771.432922 180389.984375
771.453247 155631.59375
771.473511 93268.859375
771.493835 31392.289062
771.51416 1438.620605
773.325806 130.248413
773.346191 1227.263794
773.366577 9819.111328
773.387024 37493.042969
773.40741 83425.6875
773.427795 126468.585938
773.448181 141271.03125
773.468567 107065.554688
773.488953 55272.46875
773.509399 15942.248047
773.529785 982.412537
774.264709 2886.785156
774.285095 10587.733398
774.305542 38042.917969
774.325989 143151.578125
774.346375 365129.5625
774.366821 651899.5625
774.387268 821766.125
774.407715 699038.875
774.428162 421159.25
774.448547 180257.484375
774.468994 50224.238281
774.489441 14396.125
774.509888 4887.486816
774.530334 1651.244141
774.550781 444.143982
775.246155 2360.647217
775.266663 8297.492188
775.287109 19220.144531
775.307617 63785.574219
775.328064 222416.59375
775.348511 500860.1875
775.369019 809248.8125
775.389465 918028.875
775.409973 708256.4375
775.43042 389936.5625
775.450928 149286.484375
775.471375 38769.617188
775.491821 12967.013672
775.512329 8028.083496
775.532837 2737.376709
776.332092 582.671021
776.3526 1485.52832
776.373108 2266.255615
776.393616 2819.79248
776.414124 2747.506836
776.434631 1945.719482
776.4552 643.741272
782.335205 705.308899
782.355957 1997.942505
782.376709 3069.060547
782.397461 3421.730957
782.418213 2934.465332
782.438965 1923.185303
782.459717 804.346924
783.332092 198.023071
783.352905 4840.476562
783.373718 16004.044922
783.39447 32616.285156
783.415283 53352.847656
783.436096 56621.042969
783.456848 37709.585938
783.477661 18556.240234
783.498474 5064.078613
783.519226 207.994431
784.330933 463.574127
784.351746 3698.786621
784.372559 8368.526367
784.393433 12915.730469
784.414246 14940.808594
784.435059 12102.114258
784.455872 5387.407227
784.476746 1438.408203
784.497559 317.941833
785.31073 5252.304199
785.331604 33200.253906
785.352478 90045.820312
785.373352 159622.921875
785.394226 210558.40625
785.4151 198973.0625
785.435974 139169.421875
785.456848 72527.976562
785.477722 23803.597656
785.498596 3844.476074
786.292419 3961.564209
786.313354 20029.451172
786.334229 59106.324219
786.355164 110103.101562
786.376099 139970.40625
786.396973 122818.125
786.417908 77315.40625
786.438782 35596.070312
786.459717 9183.777344
786.480652 504.643677
787.317871 139.120758
787.338806 3300.498291
787.359741 16404.654297
787.380676 35266.332031
787.401672 47713.347656
787.422607 45890.960938
787.443542 30250.117188
787.464478 12900.591797
787.485474 3043.896973
787.506409 224.511765
788.303284 344.454529
788.32428 3943.635254
788.345276 10697.961914
788.366272 16543.966797
788.387268 16575.025391
788.408264 11043.011719
788.42926 3892.911133
788.450256 482.097137
789.269592 105.181175
789.290588 6699.857422
789.311646 28641.5625
789.332642 61723.679688
789.353699 95133.210938
789.374695 91820.640625
789.395752 58425.207031
789.416748 26986.642578
789.437805 8101.569824
789.458862 1246.13623
791.312988 151.654449
791.334106 2779.607422
791.355225 20668.673828
791.376282 54794.886719
791.3974 95080.929688
791.418518 108606.710938
791.439636 79808.171875
791.460754 41191.980469
791.481873 14264.3125
791.502991 2526.136719
791.524109 268.155212
794.339966 719.453064
794.361145 1692.924316
794.382385 2160.230957
794.403625 2102.934814
794.424866 1713.083008
794.446106 630.006836
795.359863 948.314636
795.381165 2906.290039
795.402405 5086.26709
795.423706 6160.035645
795.444946 5194.598145
795.466248 3247.565186
795.487488 1589.063232
795.508789 474.950623
797.811462 505.898651
797.832825 1775.133667
797.854187 3174.047852
797.875549 3825.27417
797.896973 3279.932129
797.918335 1992.520142
797.939697 719.053162
799.33075 2660.345215
799.352173 15101.927734
799.373596 36900.253906
799.39502 60431.246094
799.416443 71666.09375
799.437866 60648.253906
799.45929 37580.855469
799.480774 15553.94043
799.502197 2969.980469
799.523621 186.742996
800.381775 3160.822998
800.403259 8454.59668
800.424683 13439.859375
800.446167 14062.498047
800.467651 8889.404297
800.489136 3312.94873
800.51062 548.426331
801.370361 659.384949
801.391846 4848.394043
801.413391 10768.576172
801.434875 14069.96875
801.45636 12778.429688
801.477905 7616.131348
801.49939 2470.548584
802.296082 227.248917
802.317627 3462.303955
802.339172 21150.341797
802.360718 48096.804688
802.382324 70625.453125
802.40387 71457.34375
802.425415 50216.984375
802.44696 23801.794922
802.468506 5929.139648
802.490051 813.253418
803.288208 26567.732422
803.309814 147917.890625
803.331421 457266.3125
803.352966 848372.75
803.374573 1165890.625
803.396179 1078319.75
803.417786 724398.625
803.439331 348466.1875
803.460938 116536.109375
803.482544 20454.146484
803.50415 448.951202
804.325439 3255.470703
804.347046 10740.777344
804.368713 18465.402344
804.39032 21943.912109
804.411987 18225.021484
804.433594 9913.991211
804.455261 2254.42627
811.313782 58.306202
811.335693 4160.952148
811.357605 30190.470703
811.379517 76463.710938
811.401428 128593.695312
811.42334 153209.5
811.445312 122694.085938
811.467224 69564.765625
811.489136 25532.394531
811.511047 3854.756836
811.532959 146.116608
812.366577 439.339142
812.38855 2151.327393
812.410522 4935.605469
812.432495 7794.521484
812.454407 8311.827148
812.476379 6185.203613
812.498352 3418.489502
812.520325 1349.341797
812.542297 7.111937
813.311462 1069.644409
813.333496 10694.866211
813.355469 32373.017578
813.377502 66831.734375
813.399475 98228.09375
813.421448 96508.03125
813.443481 68378.4375
813.465454 35220.507812
813.487488 11431.762695
813.50946 1349.649536
817.351257 2935.996338
817.373413 13303.578125
817.395569 26594.480469
817.417725 42252.332031
817.43988 47072.664062
817.462036 35379.769531
817.484192 17933.271484
817.506348 4796.167969
817.528503 558.007019
819.34906 367.152924
819.371277 1288.088867
819.393555 2280.929199
819.415771 2526.140137
819.437988 1842.384644
819.460266 560.790955
827.368835 776.134216
827.391418 1599.437256
827.414001 1909.522827
827.436523 1856.631958
827.459106 1485.499878
827.481689 489.103973
828.272217 1675.594971
828.2948 2435.359131
828.317444 2353.491699
828.340027 8151.543457
828.362671 36500.765625
828.385254 128753.015625
828.407837 291632.4375
828.430481 477398.1875
828.453064 548204.0
828.475708 425463.875
828.498291 233103.390625
828.520935 88381.703125
828.543518 24589.042969
828.566162 7593.585938
828.588745 1122.80896
828.611389 204.683975
829.335571 4414.727051
829.358215 20404.292969
829.380859 62398.375
829.403503 125290.398438
829.426147 177708.3125
829.448853 172198.1875
829.471497 114257.21875
829.494141 52312.488281
829.516785 14592.600586
829.539429 3135.864014
829.562073 263.962524
830.355591 879.788208
830.378296 14202.408203
830.401001 58904.925781
830.423645 126705.820312
830.44635 196469.140625
830.469055 203960.5
830.49176 145651.84375
830.514465 74291.195312
830.53717 26296.708984
830.559814 6100.443848
830.58252 189.628357
831.286621 466.010254
831.309326 17145.560547
831.332031 78582.351562
831.354797 204363.328125
831.377502 370402.875
831.400269 490138.84375
831.422974 451422.53125
831.44574 296750.71875
831.468445 140121.671875
831.49115 36927.679688
831.513916 3642.726807
831.536621 172.952591
838.35376 2429.165527
838.376831 8512.323242
838.399841 15823.720703
838.422852 19857.185547
838.445862 17011.845703
838.468872 10366.575195
838.491882 3854.293457
838.514954 578.526733
839.298279 218.25679
839.32135 2977.361572
839.34436 16750.900391
839.367432 50474.554688
839.390503 98077.125
839.413574 135126.71875
839.436646 123822.179688
839.459656 77209.242188
839.482727 32885.058594
839.505798 6718.307617
839.52887 200.470749
840.359863 5370.284668
840.382935 19298.742188
840.406067 39546.640625
840.429138 59213.40625
840.452271 60587.171875
840.475342 42878.964844
840.498474 20302.091797
840.521545 5161.047363
840.544678 488.045532
841.330872 70.432014
841.354004 6405.608887
841.377136 19956.673828
841.400269 39632.164062
841.423401 54934.9375
841.446594 52508.730469
841.469727 34443.878906
841.492859 14216.106445
841.515991 2621.697266
845.325012 1629.157227
845.348328 16557.490234
845.371643 39840.675781
845.394958 62095.054688
845.418213 75117.398438
845.441528 66494.664062
845.464844 40583.359375
845.488159 17678.246094
845.511475 3944.770264
845.53479 153.562897
846.351318 197.017502
846.374695 3953.89502
846.39801 20524.412109
846.421387 43987.640625
846.444763 64496.828125
846.468079 67208.578125
846.491455 48415.066406
846.514771 21476.021484
846.538147 4619.060059
846.561523 345.356995
856.266663 796.931091
856.290405 21210.216797
856.314209 43821.855469
856.337952 119327.320312
856.361694 431581.875
856.385498 1351941.0
856.409241 2633483.75
856.432983 3731307.75
856.456787 3559393.75
856.48053 2401336.75
856.504272 1124669.875
856.528076 355711.5625
856.551819 105627.09375
856.575623 50722.96875
856.599365 20956.125
856.623169 1950.907471
857.312988 4053.504395
857.336792 27391.271484
857.360596 117410.257812
857.384399 286752.75
857.408203 490342.875
857.432007 583747.875
857.455811 462844.71875
857.479614 270051.5625
857.503418 108996.015625
857.527283 31039.677734
857.551086 6986.962891
857.57489 367.21167
858.337402 1324.16272
858.361267 10095.811523
858.385071 42418.332031
858.408936 105306.78125
858.4328 185934.921875
858.456604 232995.53125
858.480469 196472.25
858.504333 114988.875
858.528198 46290.433594
858.552063 8575.074219
858.575867 379.480743
859.339722 691.843201
859.363647 1574.458496
859.387512 2339.248779
859.411438 2692.626221
859.435303 2285.882324
859.459167 1348.173584
859.483093 334.210358
867.349487 908.703247
867.373718 3289.315674
867.397949 5748.977539
867.422119 5938.310059
867.44635 3554.011963
867.470581 1504.173584
867.494812 310.754547
874.244934 151.958878
874.269409 5868.987305
874.293945 25356.144531
874.31842 42804.558594
874.342957 82748.539062
874.367493 272354.75
874.391968 883436.0625
874.416504 1765107.875
874.44104 2588103.5
874.465515 2547858.25
874.490051 1759620.75
874.514587 852857.0
874.539124 284106.65625
874.56366 81359.054688
874.588135 42731.664062
874.612671 26322.132812
874.637207 11432.113281
874.661743 2573.317383
875.348938 1719.263184
875.373474 12059.895508
875.398071 40353.097656
875.422607 76376.890625
875.447144 100812.617188
875.471741 88524.695312
875.496277 55460.996094
875.520874 21365.654297
875.54541 3452.529541
875.570007 26.228182
884.306702 3193.039307
884.331665 15315.891602
884.356628 61490.164062
884.381531 179143.328125
884.406494 336833.34375
884.431396 451703.1875
884.45636 401646.71875
884.481323 255428.21875
884.506226 110898.914062
884.531189 30326.619141
884.556152 5113.136719
884.581055 263.380646
885.329956 2508.522705
885.354919 14887.463867
885.379883 44117.421875
885.404907 80249.507812
885.429871 93980.523438
885.454834 70981.234375
885.479858 36215.144531
885.504822 10216.420898
885.529785 886.811523
887.356628 848.549011
887.381714 2768.175293
887.406799 5140.506836
887.431824 5985.945801
887.456909 3782.030762
887.481995 1773.350586
887.50708 407.159058
902.151428 35859.691406
902.177124 14769.31543
902.228516 40385.914062
902.254211 155796.328125
902.279907 494131.625
902.305603 771566.3125
902.331299 1363142.25
902.357056 4309443.0
902.382751 13981742.0
902.408447 27980916.0
902.434143 41451180.0
902.459839 41117908.0
902.485535 28569244.0
902.51123 14002484.0
902.536987 4815369.5
902.562683 1486616.875
902.588379 834925.875
902.614075 482875.9375
902.639832 171878.484375
902.665527 30635.886719
903.257263 3255.238281
903.28302 10985.65918
903.308777 24851.583984
903.334534 60434.753906
903.360229 200322.875
903.385986 650507.8125
903.411743 1299950.375
903.4375 1929431.375
903.463257 1902094.75
903.489014 1308355.125
903.514771 630794.9375
903.540466 211137.53125
903.566223 62861.523438
903.59198 35296.722656
903.617737 22570.4375
903.643494 14185.306641
903.66925 5260.066406
903.695007 498.363831
END IONS
