BEGIN IONS
PEPMASS=617.922
CHARGE=1
MSLEVEL=2
SOURCE_INSTRUMENT=LC-ESI-Orbitrap
FILENAME=f.lfnothias/1901_fungal_symbiont_annotation_confirmation/Pure_compounds/Pure_compounds_mzML/LeucinostatinAandB_1uL_sensitive.mzML;
SEQ=*..*
IONMODE=Positive
ORGANISM=GNPS-LIBRARY
NAME=Leucinostatin A, N9-Oxide ; Paecilotoxin K observed in Leucinostatin A and B standards M+H
PI=Dorrestein
DATACOLLECTOR=lfnothias
SMILES=CCC(C)C=CC(=O)N1CC(CC1C(=O)NC(CC(C)CC(CC(=O)CC)O)C(=O)NC(C(C(C)C)O)C(=O)NC(C)(C)C(=O)NC(CC(C)C)C(=O)NC(CC(C)C)C(=O)NC(C)(C)C(=O)NC(C)(C)C(=O)NCCC(=O)NC(C)CCCON)C
INCHI=InChI=1S/C62H111N11O14/c1-19-38(9)23-24-49(77)73-34-40(11)32-47(73)55(82)67-46(31-39(10)30-43(75)33-42(74)20-2)53(80)69-50(51(78)37(7)8)56(83)71-61(15,16)58(85)68-44(28-35(3)4)52(79)66-45(29-36(5)6)54(81)70-62(17,18)59(86)72-60(13,14)57(84)64-26-25-48(76)65-41(12)22-21-27-87-63/h23-24,35-41,43-47,50-51,75,78H,19-22,25-34,63H2,1-18H3,(H,64,84)(H,65,76)(H,66,79)(H,67,82)(H,68,85)(H,69,80)(H,70,81)(H,71,83)(H,72,86)/b24-23+/t38-,39?,40?,41?,43?,44?,45?,46?,47?,50?,51?/m1/s1
INCHIAUX=BHOASNRSZLVNJK-GRWLOXFISA-N
PUBMED=
SUBMITUSER=lfnothias
TAGS=
LIBRARYQUALITY=3
SPECTRUMID=CCMSLIB00005435708
SCANS=1071
81.070015 10809.751953
83.049141 3997.819824
83.085594 10714.800781
84.080818 663942.125
85.084061 19957.386719
86.096397 94372.609375
90.842262 3818.32666
93.069832 13163.396484
95.085472 10168.704102
97.381798 3650.283203
100.075584 36082.316406
102.09124 24085.712891
103.08667 7104.55957
111.080315 635673.3125
112.075554 83026.523438
112.083748 32910.484375
114.080551 3473.916504
115.087006 5660.592285
119.117485 6819.227539
123.116791 45044.757812
124.120232 4278.517578
125.096329 4847.975098
129.102112 47978.433594
143.118057 25682.398438
144.102341 5286.007812
155.117828 30463.111328
156.102005 32549.855469
168.138123 30746.035156
169.122147 22570.363281
169.133835 5282.510742
171.112946 10679.241211
171.148712 35035.277344
172.144104 103449.640625
173.128281 17852.806641
173.146652 4074.205078
180.10173 5061.552246
187.143906 82602.257812
190.154953 58023.660156
194.153717 1161122.0
195.15715 92189.085938
197.128113 5903.257812
199.143585 70243.554688
199.179871 54457.433594
207.148651 4994.13623
214.154907 13617.736328
215.138809 90634.820312
215.158203 7727.95752
216.141724 7465.80957
220.321686 5236.753906
222.148712 712208.8125
223.152206 64179.285156
225.122955 5898.812988
225.159485 11262.75293
227.174942 60806.976562
228.175781 5072.398926
235.143692 19099.365234
253.153656 5854.57373
275.207397 86327.617188
276.209229 7579.066406
279.206421 5923.762695
284.195251 4885.002441
297.217041 7634.293945
307.201752 11155.847656
310.211121 5208.286621
312.2276 108024.625
313.231628 19422.638672
320.197021 10231.145508
325.21051 20979.992188
326.214844 4917.744141
328.222748 42083.402344
329.227112 7318.983398
338.206604 14077.485352
360.260773 39766.25
382.267456 5505.057617
392.251923 8803.107422
397.280914 22539.017578
410.266022 12707.951172
417.275055 17882.640625
428.275482 6332.091309
435.285126 34297.109375
436.292175 5638.803223
441.306305 6903.377441
451.291168 7128.13623
473.343689 47874.496094
474.348785 9544.4375
483.219238 4596.182129
492.306396 19756.222656
525.374573 9143.177734
528.343445 6065.222168
532.452637 4299.154297
546.35321 83103.523438
547.35614 18745.416016
564.365295 32120.619141
565.371826 9278.902344
568.417053 11115.380859
586.427612 305978.34375
587.431763 76400.757812
599.914795 20203.601562
600.414551 18860.695312
608.917358 42101.09375
609.418152 29301.070312
613.393005 9628.524414
631.405762 78237.25
632.409607 19002.587891
643.989136 4931.612793
649.416626 7334.115723
671.485229 25725.414062
672.480286 9190.737305
800.55603 22966.589844
801.569458 11333.698242
841.873962 5184.767578
893.311707 4714.584961
970.025574 4881.896973
995.678406 12099.359375
1037.613525 5132.002441
1040.613892 5587.743652
END IONS
