BEGIN IONS
PEPMASS=761.295
CHARGE=1
MSLEVEL=2
SOURCE_INSTRUMENT=LC-ESI-qTof
FILENAME=f.Esposito/E-dendroides-ref/Terracinolide C.mgf;
SEQ=*..*
IONMODE=Positive
ORGANISM=GNPS-LIBRARY
NAME=terracinolide C M+Na
PI=Litaudon and Paolini
DATACOLLECTOR=Esposito
SMILES=O[C@@H]1[C@@]([C@@H](OC2=O)[C@](CC2)(OC(C)=O)[C@H](OC(C(C)C)=O)[C@@H](OC(C)=O)[C@@H](OC(C)=O)C(C)(C)/C=C/[C@H](C)C3=O)([H])[C@]3(OC(C)=O)C[C@]1(OC(C)=O)C
INCHI=
INCHIAUX=
PUBMED=
SUBMITUSER=Esposito
TAGS=
LIBRARYQUALITY=3
SPECTRUMID=CCMSLIB00004680113
SCANS=1
71.048454 26.379391
71.08474 12.37077
83.010849 21.04557
105.031685 14.12596
107.045937 15.30579
109.100235 35.387779
113.21563 10.06402
120.98597 18.18642
121.100609 26.3748
123.042297 22.832211
123.07991 22.86784
133.101059 15.18157
135.041153 30.56702
145.096771 10.0351
153.050247 27.89255
169.10025 15.68885
170.107254 17.03002
171.113434 25.20466
175.074783 37.15086
183.078552 33.30265
185.092636 12.4381
187.072113 24.14937
193.09906 20.85985
197.094818 19.31884
203.067062 19.71619
209.1297 19.716869
211.104355 11.50783
216.917068 10.26355
217.083832 16.526569
219.136017 10.63235
221.076859 18.37702
227.140442 11.51221
229.082184 10.39302
229.119553 35.446491
231.062683 17.29817
237.127319 21.494061
240.07309 19.63958
241.050842 12.64101
245.128586 18.17374
247.130249 12.56027
251.175949 15.93851
253.120468 13.96651
254.133591 16.75458
255.063263 16.343611
257.117401 14.1393
259.095886 21.854521
260.13443 12.76926
261.161652 16.807131
267.135925 16.72583
269.112 19.76939
271.127869 31.431129
273.075867 20.16713
273.10675 10.0928
277.115051 13.1259
279.083527 12.40385
279.103088 11.55502
279.131805 17.37285
279.173248 45.557621
281.151398 17.1294
281.183563 13.13982
291.134491 24.43668
295.131409 13.40022
295.167053 39.053871
297.147095 20.184891
297.182983 20.327999
300.167053 12.27632
305.153656 58.11174
307.167542 29.61639
313.17984 26.450399
323.162109 100.026802
325.178925 76.587914
329.147339 23.10474
333.145325 24.866381
336.092255 12.50429
339.195404 10.25721
341.172699 80.586578
345.143982 11.88076
347.158295 23.848551
351.156738 152.947601
352.167786 16.76252
352.904297 28.85487
359.187164 18.307369
362.925079 14.01059
365.218628 13.1169
369.167419 175.832199
370.164154 23.74625
373.136444 39.114079
383.182892 23.234579
387.175598 25.215811
389.168182 95.552254
389.970917 21.33333
391.15033 31.348789
393.16571 14.22069
401.194336 27.97929
405.165527 24.14464
407.177979 11.84063
411.175964 69.311523
417.201599 24.263439
419.202393 11.29292
421.044373 10.9182
429.186462 55.903069
433.158844 95.068237
439.198334 12.20245
447.197296 13.09894
449.190399 141.196396
451.171875 64.859673
461.200592 11.72263
465.184814 12.82357
469.323334 14.60562
471.198517 14.61456
475.170929 11.14881
477.220886 113.9589
478.224579 21.662291
481.212738 13.36854
483.19635 10.62885
489.20929 15.43001
493.182465 743.210693
494.183075 93.133583
509.210846 57.953011
509.254822 17.53928
511.19278 290.9534
512.196838 44.369141
521.211609 77.679878
537.245728 576.158386
538.247009 121.116203
538.53418 17.312389
553.203308 849.136475
553.764343 17.02692
554.202087 121.3395
571.209839 68.280777
572.218933 27.47788
581.23468 1667.782959
581.363098 20.481899
581.496155 12.35017
581.635986 10.8131
581.760742 16.275419
581.82782 19.059219
581.865417 22.68301
581.925354 11.32366
581.964294 14.93317
582.04126 11.31962
582.236023 226.835693
597.265198 281.413696
598.271973 71.174812
599.237549 17.20186
613.22467 633.786804
613.451965 12.49125
614.22699 105.390198
623.161987 12.13843
631.233337 80.658173
641.202087 15.29868
641.256409 5489.873047
641.394836 47.972721
641.517151 26.939671
641.590149 29.570221
641.643555 31.47846
641.674194 23.14814
641.725098 10.44681
641.766418 14.12934
641.813843 17.038481
641.871094 14.9804
641.904175 18.39427
641.932739 12.12521
641.963867 23.019119
642.023621 17.49398
642.083557 17.41535
642.165283 34.078461
642.260376 801.285889
642.345154 12.75447
642.389709 28.118931
642.4646 23.979401
642.516052 24.47122
642.555481 16.52018
642.605591 15.67277
642.627441 16.714569
642.677124 14.68209
642.880554 12.54805
642.987671 14.39313
643.056702 18.484659
657.286194 148.408401
658.292114 29.942289
679.29071 19.11154
683.264587 44.210831
701.277039 5233.594238
701.422058 41.178909
701.485352 31.09165
701.5354 23.01956
701.606384 44.556141
701.681763 28.35071
701.743164 27.886789
701.812256 15.127
701.872375 25.828489
701.920349 21.87888
701.959839 12.77168
701.993896 29.116289
702.088318 15.82005
702.134949 12.99518
702.28125 991.436707
702.372314 29.791809
702.448364 24.507151
702.545715 13.80872
702.602295 19.71336
702.663208 21.61927
702.77356 17.999559
702.915588 17.05587
703.174011 10.38026
703.219116 10.58731
703.303467 13.20844
703.349365 10.44566
703.405579 11.58733
703.878662 10.31795
757.923828 11.00347
761.29834 7801.994141
761.453064 44.5154
761.500061 12.32304
761.548706 27.9769
761.60907 22.80644
761.65094 47.476151
761.71991 44.872921
761.775879 37.074051
761.829224 51.382431
761.882324 39.173328
761.931763 29.45137
761.982239 32.75473
762.039001 31.54674
762.084839 29.758841
762.129089 29.30105
762.163879 10.24755
762.214355 23.992611
762.301941 1504.999023
762.400208 12.72233
762.450134 29.54887
762.477295 36.510139
762.544373 19.018681
762.59668 23.370501
762.675354 16.335171
762.731689 15.09405
762.773438 12.50353
762.820129 12.60002
762.916077 11.16515
762.989624 29.70717
763.091187 22.584181
763.18335 20.5007
763.229431 16.4049
763.317505 16.46204
763.396057 12.31056
763.453918 11.2129
763.498352 14.04595
763.589966 14.72904
764.005554 10.88818
764.049316 10.09005
END IONS
