BEGIN IONS
PEPMASS=632.341
CHARGE=1
MSLEVEL=2
SOURCE_INSTRUMENT=LC-ESI-qToF
FILENAME=P1_C5_conc_GA5_01_2411.mzXML
SEQ=*..*
IONMODE=Positive
ORGANISM=GNPS-LIBRARY
NAME=Apicidin B_120250 M+Na
PI=Cichewicz
DATACOLLECTOR=Luzzatto
SMILES=O=C(N[C@@H](CCCCCC(CC)=O)C(N[C@@H](CC1=CN(OC)C2=C1C=CC=C2)C3=O)=O)[C@@H](CCC4)N4C([C@H]([C@H](CC)C)N3)=O
INCHI=N/A
INCHIAUX=N/A
PUBMED=N/A
SUBMITUSER=tal_lk
TAGS=
LIBRARYQUALITY=2
SPECTRUMID=CCMSLIB00000478091
SCANS=1456
130.066544 480.0
165.095856 432.0
180.085403 448.0
190.117783 344.0
191.111084 552.0
205.13028 544.0
206.137436 340.0
207.095871 604.0
218.100571 428.0
219.105042 284.0
220.111526 324.0
232.128723 880.0
238.117401 332.0
247.151596 320.0
249.143478 1088.0
253.198837 360.0
260.134125 396.0
261.141266 552.0
262.151306 652.0
263.12677 396.0
263.160553 700.0
273.157379 632.0
274.162537 368.0
275.172211 1128.0
276.167694 1224.0
277.173431 352.0
286.14093 308.0
289.139771 312.0
289.184692 652.0
291.141357 344.0
301.660278 512.0
302.158813 864.0
303.154968 452.0
304.14502 424.0
304.201477 436.0
305.210175 392.0
306.217224 532.0
309.651337 856.0
310.153809 444.0
314.676971 456.0
316.165222 456.0
317.160034 516.0
318.168488 380.0
318.213043 1356.0
330.182465 444.0
331.195923 1016.0
332.228485 1564.0
333.202301 1064.0
333.238068 492.0
334.197601 496.0
335.15741 252.0
343.195038 1340.0
344.202667 320.0
345.143555 396.0
345.193359 296.0
346.158386 384.0
346.210754 608.0
347.206757 316.0
358.213593 444.0
359.168671 3212.0
360.169434 1724.0
361.174194 660.0
371.226685 536.0
372.234711 1144.0
373.19812 1036.0
373.239502 580.0
374.200104 1292.0
375.202454 328.0
387.199982 912.0
387.236786 796.0
388.207184 940.0
389.21814 508.0
389.266815 1712.0
390.267029 292.0
400.225555 512.0
401.214203 2924.0
402.217773 948.0
403.245483 300.0
404.228638 332.0
414.232147 768.0
415.230286 7844.0
416.232056 1332.0
417.239685 452.0
421.729858 268.0
429.262512 364.0
430.267487 276.0
443.222198 840.0
444.230377 252.0
457.246887 432.0
460.234985 336.0
472.263824 1652.0
473.269073 280.0
488.234589 464.0
489.22525 428.0
530.268738 632.0
531.284607 604.0
534.786072 368.0
544.30127 280.0
574.343689 524.0
584.322998 284.0
584.816589 264.0
598.309753 404.0
598.815125 844.0
599.3172 272.0
599.826843 516.0
600.812988 288.0
601.321655 3588.0
602.326599 1684.0
603.334778 1016.0
604.338928 416.0
613.830261 460.0
614.332703 296.0
615.326843 260.0
629.335022 3116.0
629.830994 2044.0
630.335815 1872.0
630.838623 720.0
631.244263 452.0
631.339539 404.0
631.824646 288.0
632.340698 21412.0
633.343933 9144.0
634.350525 1836.0
636.323914 316.0
END IONS
