BEGIN IONS
PEPMASS=734.4
CHARGE=0
MSLEVEL=2
SOURCE_INSTRUMENT=LC-ESI-Ion Trap
FILENAME=f.jkharbush/GNPS_JenanKharbush/16.0_Phosphoserine_neg.mzXML;
SEQ=*..*
IONMODE=Negative
ORGANISM=GNPS-LIBRARY
NAME=16:0 PS (1,2-dihexadecanoyl-sn-glycero-3-phospho-L-serine (sodium salt)) M-H
PI=Aluwihare
DATACOLLECTOR=Jenan Kharbush
SMILES=[H][C@@](COP([O-])(OC[C@](C([O-])=O)([H])[NH3+])=O)(OC(CCCCCCCCCCCCCCC)=O)COC(CCCCCCCCCCCCCCC)=O.[Na+]
INCHI=
INCHIAUX=
PUBMED=
SUBMITUSER=jkharbush
TAGS=
LIBRARYQUALITY=3
SPECTRUMID=CCMSLIB00000078676
SCANS=1
212.999908 0.72234
221.285767 1.283434
243.329376 0.645891
244.903381 0.33827
248.972733 4.935426
255.258102 1100.106567
256.280609 145.844162
260.702972 0.601831
267.06665 0.335129
269.221375 1.818059
269.925415 0.719814
275.107422 0.946245
277.627869 0.70974
285.014557 0.445096
285.836731 1.076613
288.984344 27.897366
289.81073 2.291299
290.901245 12.143607
292.05542 1.283787
295.393524 0.528674
301.079285 0.428914
308.925354 0.587642
310.142334 0.699179
315.213989 0.389768
327.052368 2.168792
334.159698 0.642316
335.400787 1.735029
339.276245 1.808807
357.235413 1.745506
362.941223 0.574268
363.997986 0.434141
366.284119 0.626585
369.043945 1.307148
370.935486 1.041832
378.707092 0.490554
381.046875 3.197527
384.937622 1.589279
391.23468 3325.050537
392.304047 494.027496
392.890869 2.993574
395.471985 0.856186
396.668884 0.488826
399.008179 0.486035
402.019287 1.527143
404.19165 0.393673
405.12088 1.42854
407.494415 1.619725
409.283997 963.971436
410.291168 130.514496
417.041748 1.440592
418.30304 0.822559
420.849854 1.132497
422.78009 0.579951
426.330322 0.723357
434.4646 0.439754
435.264679 1.859486
440.701843 1.005393
441.822571 0.526439
442.979309 1.150083
443.964813 1.904816
445.037903 0.672165
446.012207 0.656158
450.712158 2.614824
453.359253 0.393663
458.448242 0.485035
460.976562 1.197016
462.210999 1.047297
462.944153 4.202703
464.003784 0.686041
468.380066 0.569388
470.032837 0.754184
476.533691 0.954665
478.237854 4.577189
479.299042 3.416016
484.210632 0.957283
486.047668 0.486785
489.6474 1.037288
496.251953 23.880819
501.418884 0.585977
502.603699 0.711165
503.996643 1.756558
505.091583 1.47666
507.223816 0.75748
508.619751 0.648924
509.319214 0.951922
511.650208 0.89294
518.775635 3.356166
520.004272 1.365178
520.927002 14.290476
521.990601 6.524022
523.589294 1.365214
529.67865 1.320058
530.455566 0.568606
530.981934 0.582231
533.53302 0.899984
534.6026 0.429009
535.121521 0.641263
538.820435 9.682275
539.90448 17.907907
540.999512 6.386751
542.128723 1.010398
543.123108 0.490803
545.218079 0.585174
547.564941 1.095645
549.079895 1.199516
552.253052 0.721676
555.940308 0.52884
557.330322 0.595487
557.952209 0.779856
559.85907 0.480456
561.994324 0.47875
562.923889 1.081709
564.950012 1.086746
572.368347 2.046764
574.549866 0.574012
575.121704 0.429775
576.663452 1.290635
578.764954 0.896142
580.968323 0.949294
582.028748 0.861562
584.957642 1.526478
586.383118 0.535033
588.483032 0.937857
590.833313 0.4942
593.21991 0.66809
595.352173 0.702691
596.936462 28.349064
597.86145 12.936736
598.936768 19.212976
600.81134 1.446296
615.516479 0.433842
619.001892 7.903754
619.5849 2.041647
620.122925 2.58752
620.998962 29.38578
622.180481 7.216906
623.01593 7.084302
625.727112 1.279941
631.145935 0.811235
633.084656 0.735749
635.792175 1.699157
636.446838 1.347945
637.441528 0.844795
638.129578 0.533707
639.03064 5.33008
640.058228 3.415594
641.031067 5.217569
641.883362 1.927463
643.857849 1.230818
645.008545 2.026741
645.986389 6.574725
647.425842 15776.046875
648.453003 4048.394775
649.054688 4.278161
649.7948 0.437898
655.263245 0.391823
658.888184 1.02614
661.177856 2.434829
662.339661 0.570612
663.246338 1.408589
664.526733 0.381329
665.498169 1.841474
666.493225 1.944475
667.168762 1.002546
669.775208 1.37626
670.98175 2.754177
672.143799 0.480119
673.185364 11.352949
673.866882 19.766836
674.737244 3.104928
675.345642 0.580186
675.957214 1.237659
676.521973 0.622473
677.504211 1.117657
681.998474 0.382379
684.825928 0.291539
686.618774 3.14919
687.630188 11.792545
688.739624 6.110589
689.618408 3.551501
690.485779 2.360663
691.556946 6.675985
692.432983 2.372426
693.377991 0.432253
695.183777 1.054781
695.768738 1.362719
697.098999 1.672239
697.909119 1.097815
702.772827 2.356929
703.629272 1.353187
706.077698 1.118799
709.14624 1.284498
711.427673 0.586102
714.683044 7.438235
715.797485 19.274647
716.929321 16.293089
717.820679 2.872087
733.252991 3.095627
734.015015 1.889577
734.590149 0.865943
735.178772 0.993472
736.534729 0.673282
END IONS
