BEGIN IONS
PEPMASS=732.402
CHARGE=2
MSLEVEL=2
SOURCE_INSTRUMENT=LC-ESI-Orbitrap
FILENAME=f.daniel/Andrea_Bsub/170905_Andrea_Bsub_2/Bsub_II_2-2_MSMS_GNPS_input.mgf;
SEQ=*..*
IONMODE=Positive
ORGANISM=GNPS-LIBRARY
NAME=Plipastatin M+H
PI=Pieter Dorrestein
DATACOLLECTOR=Daniel Petras
SMILES=CCCCCCCCCCCCCC(CC(=O)NC(CCC(=O)O)C(=O)NC(CCCN)C(=O)NC1CC2=CC=C(C=C2)OC(=O)C(NC(=O)C(NC(=O)C(NC(=O)C3CCCN3C(=O)C(NC(=O)C(NC(=O)C(NC1=O)C(C)O)CCC(=O)O)C)CCC(=O)N)CC4=CC=C(C=C4)O)C(C)CC)O
INCHI=
INCHIAUX=
PUBMED=
SUBMITUSER=daniel
TAGS=
LIBRARYQUALITY=3
SPECTRUMID=CCMSLIB00004679205
SCANS=2143
83.060379 87928.882812
83.085663 143740.140625
84.044655 5366547.5
84.700371 70291.164062
86.096664 4574189.0
90.422684 64541.609375
91.054474 360674.125
96.08091 262992.90625
97.076309 107615.703125
97.101173 103436.125
98.060585 83685.976562
100.07618 79518.789062
101.071175 2006473.0
102.055153 7116719.5
109.378883 64736.144531
111.080627 95359.15625
115.086807 12192848.0
116.070778 169532.921875
116.090302 148472.015625
119.049339 500388.6875
129.066025 370258.28125
130.050003 641245.25
135.116898 134005.8125
136.075943 6402299.5
137.079453 97633.703125
140.070679 363051.5
141.102463 939489.6875
149.133255 86206.304688
155.082001 160485.21875
157.061188 101464.023438
168.066666 85132.085938
168.113052 70000.125
169.097458 627139.75
170.044739 106272.648438
173.092316 137744.96875
181.097565 343715.75
181.48291 76674.1875
183.076691 107972.9375
185.092636 127817.0
186.123459 164039.90625
188.107788 84264.226562
192.1017 103353.8125
198.123856 1196815.375
201.086853 299725.625
202.086487 277059.8125
203.103241 739714.75
204.140381 70395.882812
208.108841 260752.421875
209.093307 114865.351562
213.087799 129832.242188
219.211014 284029.5
226.11908 6347748.5
227.102829 135520.640625
227.123001 137992.6875
231.0979 1321129.625
233.129089 149465.65625
237.221756 738592.75
241.083771 122076.851562
244.12912 142516.75
246.123459 318439.125
247.108124 671764.8125
249.160416 1165752.125
250.119888 109111.835938
254.248154 3110348.5
254.27536 99985.0625
255.251358 289110.28125
260.139526 89462.609375
264.13443 409711.3125
265.117676 125970.28125
272.25943 176503.234375
274.118378 88794.382812
275.100525 82868.03125
278.149048 108730.4375
284.124207 137143.203125
292.12851 99467.273438
297.155609 446973.53125
302.134583 405996.5
319.17218 109067.742188
338.26944 118739.296875
344.161316 135564.390625
356.280426 1289838.125
361.185608 79126.03125
366.264069 301067.28125
384.275146 1932539.0
389.182434 709238.375
432.223022 169213.8125
433.916229 90428.9375
451.870636 83824.351562
460.218781 87453.898438
498.357971 166539.546875
517.771973 92948.867188
531.766602 439072.625
532.261719 381554.4375
532.756714 170376.59375
540.773132 1542634.25
541.275696 313261.90625
568.329468 87046.335938
573.328735 96959.007812
581.843811 967025.3125
582.345703 271817.59375
605.294495 84030.15625
620.311157 349462.46875
661.414551 304318.21875
709.394409 100071.125
718.405884 281861.0625
718.913818 156058.828125
723.401062 529631.3125
723.894531 292512.5
732.408752 1322203.625
732.905396 393805.34375
756.505127 91019.007812
774.496216 125275.648438
855.425842 348178.96875
921.430237 137642.234375
937.568176 313285.25
966.44812 142199.21875
1048.605957 101224.710938
1080.534424 112036.4375
END IONS
