BEGIN IONS
PEPMASS=775.361
CHARGE=1
MSLEVEL=2
SOURCE_INSTRUMENT=LC-ESI-Orbitrap
FILENAME=f.ktahlan/KT-1/MUN/Methanol/SC/2 SC on GSPG meth-pos.mzXML;
SEQ=*..*
IONMODE=Positive
ORGANISM=GNPS-LIBRARY
NAME=Tunicamyin I -2xCH2 M+H
PI=Tahlan
DATACOLLECTOR=lfnothias
SMILES=CCCCCCCC/C=C/C(NC1C(O)C(O)C(CC(O)C2C(O)C(O)C(N3C=CC(NC3=O)=O)O2)OC1OC4C(NC(C)=O)C(O)C(O)C(CO)O4)=O
INCHI=
INCHIAUX=
PUBMED=
SUBMITUSER=lfnothias
TAGS=
LIBRARYQUALITY=3
SPECTRUMID=CCMSLIB00005435942
SCANS=3451
70.065376 7463.441895
71.013092 2534.766113
71.049507 7393.996094
72.044922 2813.545654
79.054596 16494.666016
80.049736 5952.286133
81.033684 19174.654297
81.070099 52653.679688
82.065346 15988.44043
83.04924 18825.570312
83.085709 90421.914062
84.044579 298206.1875
84.081245 1728.562134
85.028824 3289.936279
85.06498 2863.94458
86.096466 6792.086914
87.338509 1519.095459
91.054184 3366.279785
93.070015 50973.949219
93.075485 3186.162842
94.064934 3288.666992
95.012825 12968.352539
95.085609 14136.269531
96.044479 148794.703125
96.080498 2828.762939
97.028595 27843.523438
97.064827 17568.740234
97.101227 19889.117188
98.060081 36074.65625
99.044266 6827.847656
99.359467 1554.446289
102.091255 2171.381592
107.049057 5538.733887
107.085564 47959.480469
107.181671 1727.301392
108.044121 1843.23877
109.028542 17014.589844
109.10128 35106.488281
110.060318 14776.160156
111.044128 29082.291016
111.080444 18017.84375
112.039406 6578.750488
113.034637 109171.0
114.054977 2976.319092
120.044571 2278.82959
120.081024 2764.969727
121.028427 3640.45166
121.101334 24370.636719
122.059746 1532.150757
123.044022 2999.400635
123.116982 6702.095215
124.039452 3651.339355
126.055016 112248.859375
127.039169 7561.105469
131.049332 2821.3479
134.060165 6861.068848
136.039764 1689.797241
138.055038 643010.8125
139.039001 33197.125
140.070694 1863.798584
144.065598 123560.46875
148.039398 8778.402344
148.075867 5847.169434
149.06041 5948.930176
149.132599 103137.171875
150.055069 3209.537354
152.070953 1651.160522
155.04541 1778.538452
156.065735 21585.289062
157.04982 2208.299805
158.060501 3358.320801
159.04422 3381.029785
161.582443 1483.88916
162.055573 3696.358154
163.039444 6777.313477
167.143219 67501.5
168.065628 132255.046875
175.377289 1723.712402
176.070328 18792.449219
177.054321 7081.205078
178.049896 10959.984375
180.065201 3310.616211
184.073517 29216.683594
184.169815 67774.148438
186.076157 132341.96875
194.079529 5884.916992
198.07486 1812.352539
204.066162 44511.921875
204.08638 221826.65625
205.048767 13367.772461
208.169861 2527.38501
210.534302 1661.343262
222.076279 45696.851562
223.060074 5960.376953
234.186234 12536.783203
240.086487 38137.535156
250.180252 344104.9375
254.420151 1903.767212
258.09726 3044.921875
260.164673 17010.177734
262.179749 14944.134766
269.076874 8620.314453
276.194794 12421.241211
278.175873 2197.69751
300.195557 3805.884277
304.190491 65978.046875
318.20874 3922.915283
322.200531 32600.640625
334.103607 6194.708496
344.184906 7144.433105
352.114014 37480.566406
370.201508 10709.650391
388.213409 29295.126953
406.222595 212062.609375
424.234924 2539.53833
442.244995 13227.550781
447.345612 7509.665527
482.230316 6916.341797
500.240723 19084.830078
518.250183 114100.484375
554.271362 158055.734375
584.391968 1819.342041
645.339417 1676.78186
775.38916 5705.989258
END IONS
