BEGIN IONS
PEPMASS=582.303
CHARGE=0
MSLEVEL=2
SOURCE_INSTRUMENT=LC-ESI-Orbitrap
FILENAME=f.ktahlan/KT-1/MUN/Methanol/SC/2 SC on GSPG meth-pos.mzXML;
SEQ=*..*
IONMODE=Positive
ORGANISM=GNPS-LIBRARY
NAME=Tunicamycin in source fragment -C8H15NO6 M+H
PI=Tahlan
DATACOLLECTOR=lfnothias
SMILES=CC(CCCCCCC/C=C/C(NC1=COC(CC(O)C2C(O)C(O)C(N3C=CC(NC3=O)=O)O2)C(O)C1O)=O)C
INCHI=
INCHIAUX=
PUBMED=
SUBMITUSER=lfnothias
TAGS=
LIBRARYQUALITY=3
SPECTRUMID=CCMSLIB00005435943
SCANS=3668
70.02903 15934.8125
70.065414 9641.826172
71.01313 24057.617188
71.049576 29567.742188
71.085793 45424.355469
71.741318 4114.50293
72.044724 25960.140625
73.06514 8518.629883
74.791862 4113.946777
79.054482 149122.4375
80.049721 30267.958984
80.194939 4695.986328
81.033722 56457.722656
81.070068 454493.0
82.065338 98831.578125
83.04937 156777.90625
83.080475 4403.452637
83.085693 467442.21875
84.044548 1701329.0
85.028603 46833.296875
85.064949 37889.300781
85.101212 42873.382812
91.054237 18079.064453
92.049515 8434.865234
93.033607 23222.130859
93.069984 192542.453125
94.065117 23372.009766
95.012741 91264.953125
95.022545 4095.854004
95.049118 17607.199219
95.085579 567576.875
96.008072 9936.929688
96.044418 747549.4375
97.028458 110032.40625
97.064865 78457.117188
97.101234 407154.4375
98.023575 6439.570312
98.060127 18428.644531
99.080528 35708.585938
101.620125 4247.063477
103.054237 18833.619141
105.069786 10033.581055
106.065033 10435.540039
107.049309 32951.34375
107.085579 112192.101562
108.044327 31063.894531
109.028442 21173.595703
109.052383 10774.37207
109.101212 181097.703125
110.060097 136102.890625
111.044075 212986.3125
111.080757 61536.683594
111.116867 167431.0
112.03936 75728.5625
113.022278 18494.863281
113.034569 694499.0625
118.065269 10847.114258
118.745682 4390.588379
120.044655 20655.761719
120.081047 18695.644531
121.028137 49674.273438
121.065056 6991.030273
121.101204 423280.125
122.05999 50293.855469
123.04409 30805.058594
123.116875 25149.333984
125.096153 36701.179688
125.132462 83435.601562
126.055046 22680.746094
130.065399 26672.486328
131.049118 31185.478516
132.044693 7282.016113
132.080017 4506.754395
133.028214 6098.437012
134.060043 53706.703125
135.043991 33744.679688
135.116776 138683.40625
136.039352 18344.386719
136.075836 5575.020508
137.023285 11074.126953
137.132187 33082.5625
138.054977 324640.46875
139.039017 243080.28125
139.111801 38995.648438
140.070755 20403.183594
144.153 4211.010254
146.059814 11193.529297
147.043427 7461.84668
148.039307 55133.726562
148.075531 56804.714844
149.060013 27829.552734
149.132568 10947.064453
150.05481 40264.097656
151.039337 6007.075195
152.071121 32303.980469
155.045166 26479.740234
156.065475 140756.84375
157.04985 31183.126953
158.059814 47845.613281
159.04425 20718.34375
160.039322 10897.244141
161.024429 4576.262695
162.055008 57267.597656
163.039322 40184.394531
164.034058 9438.445312
164.070023 5468.429199
166.086243 6704.834473
170.081619 8713.487305
176.070816 124241.828125
177.054306 42890.15625
177.163788 144560.21875
178.05014 66162.820312
180.065964 19803.380859
183.040527 5052.142578
186.055115 22798.552734
187.038956 6280.96875
194.081406 39844.230469
195.174393 381468.6875
198.076797 7453.562988
204.065628 366065.78125
205.049088 80083.875
212.093094 5475.828613
212.200928 373568.4375
222.076111 279215.875
223.059967 23380.951172
233.056091 23389.691406
236.200882 39210.394531
240.086685 260891.125
241.069946 6346.679688
248.201859 6897.673828
258.097382 25916.365234
260.200531 4855.629883
262.216431 87186.835938
264.19342 5143.979004
269.077698 40526.15625
278.211212 1611645.25
286.215729 4793.625
287.087128 5654.203125
288.195099 114239.046875
288.22699 6805.301758
290.211304 107075.085938
298.082794 5006.353516
304.226318 68454.4375
306.20575 25783.884766
314.211151 4843.552246
316.093872 8724.908203
316.226654 5926.412598
328.227539 38883.75
332.221771 393998.4375
334.103912 30314.21875
335.086365 4990.612793
346.238281 23543.148438
350.23291 119188.09375
352.114105 209923.109375
352.229523 5313.398438
370.237762 20465.171875
372.216827 71613.03125
380.223419 6974.067871
392.241608 8282.738281
398.233459 95250.21875
414.34903 5662.911621
416.243286 128901.054688
434.253845 747487.4375
447.346466 27455.84375
452.265259 25753.359375
470.274719 24420.308594
510.258636 10459.569336
528.272949 47729.808594
546.280884 124606.117188
582.301941 58693.933594
END IONS
