BEGIN IONS
PEPMASS=877.38
CHARGE=1
MSLEVEL=2
SOURCE_INSTRUMENT=LC-ESI-Hybrid FT
FILENAME=f.novakj/siderophores/Al_TAFC.mzXML;
SEQ=*..*
IONMODE=Positive
ORGANISM=GNPS-LIBRARY
NAME=Aluminum triacetylfusarinin C [M+Al-2H] M+H
PI=Havlicek
DATACOLLECTOR=
SMILES=CC(=O)NC1CCCN2O[Al]3ON(CCCC(NC(C)=O)C(=O)OCCC(C)=CC(=O)N(CCCC(NC(C)=O)C(=O)OCCC(C)=CC2=O)O3)C(=O)C=C(C)CCOC1=O
INCHI=
INCHIAUX=
PUBMED=27956353
SUBMITUSER=novakj
TAGS=
LIBRARYQUALITY=3
SPECTRUMID=CCMSLIB00001059089
SCANS=1
164.107025 5189904.0
215.060684 19258570.0
226.107407 6051345.0
239.139023 13380091.0
263.096985 6128490.0
265.112732 7988926.0
267.133881 11318444.0
268.075958 5910837.0
281.107605 30388894.0
282.102905 7359111.0
284.11853 6241371.0
285.144501 14652239.0
286.086609 4692229.0
288.342133 10363257.0
296.621216 4701579.0
297.102478 4386244.0
299.118225 8195580.0
300.113434 7853404.0
309.102539 37717516.0
310.097809 5593652.0
310.105713 4266607.0
327.113098 57625964.0
328.116455 7211323.0
335.118103 4338927.0
360.14975 7072807.0
363.113098 7947834.0
375.149353 9702101.0
376.144745 23008138.0
377.165039 5085360.0
378.160339 13621355.0
381.123627 14822300.0
393.171173 6173407.0
394.155243 17732882.0
399.134155 7009157.0
403.144287 7544267.0
404.139557 12637626.0
417.171234 5829561.0
418.155212 9501591.0
420.170898 18926210.0
421.154877 48494884.0
422.150177 35034804.0
422.157959 7968224.0
422.186615 5686940.0
423.153564 5896890.0
432.170776 4338489.0
433.166138 4306403.0
435.181732 17211258.0
436.165833 8614176.0
437.197449 5173100.0
438.145203 5042205.0
439.165497 22076830.0
440.160675 17428268.0
446.150085 6949754.0
446.186523 6252773.0
447.181824 5726498.0
448.165894 9722402.0
451.176697 4589489.0
453.192383 21266850.0
462.181366 9979688.0
463.176788 10644433.0
464.160675 15875260.0
466.176392 17302230.0
472.202179 12267160.0
475.165436 4982461.0
481.187317 19659996.0
487.213104 10381286.0
488.197144 12169188.0
490.212616 6365968.0
505.223602 44861172.0
506.207764 9171441.0
506.22702 9558486.0
513.228821 6756786.0
516.191956 20456408.0
517.19519 4580599.0
523.234192 33051868.0
524.23761 7300983.0
529.223572 36204180.0
530.226929 8223285.0
531.239319 36848364.0
532.242493 8569191.0
533.218262 4569208.0
534.195618 7481505.0
534.202454 98246096.0
534.209534 6514505.0
535.205811 20396164.0
547.21875 5166521.0
547.222961 9687463.0
547.226868 19299712.0
547.23407 282443968.0
547.241516 19737936.0
547.245422 8502533.0
547.24939 4611705.0
548.237488 67837984.0
548.244934 5018650.0
549.249634 12059283.0
551.229065 4218055.0
552.205627 5136541.0
552.213196 74559016.0
552.22052 5504621.0
553.216492 16056402.0
557.218567 10818947.0
559.234314 6832856.0
565.232727 5068948.0
565.237 11191827.0
565.244629 157272544.0
565.252563 11032962.0
565.256714 4722803.0
566.247986 37567060.0
575.212219 4782646.0
575.216553 8889536.0
575.220947 21166898.0
575.229187 287064512.0
575.237366 21246170.0
575.241699 9029713.0
575.246155 5114435.0
576.224304 5142756.0
576.2323 68601000.0
576.240417 5214330.0
577.244751 5336592.0
578.228516 14453508.0
593.21698 4249828.0
593.22168 6767974.0
593.226257 12338430.0
593.230957 28035664.0
593.239746 392432512.0
593.248413 27916214.0
593.252991 12645850.0
593.257568 6530252.0
593.262451 4250172.0
594.234314 8698001.0
594.242798 97830424.0
594.251526 7091692.0
603.260254 8708917.0
611.250122 49283696.0
612.25354 11024409.0
618.27124 21657116.0
619.274475 5262887.0
632.286682 4427093.0
642.27124 12248265.0
644.286987 7237595.0
660.281616 54276400.0
661.285339 16324999.0
662.297302 33894932.0
663.30072 9456196.0
674.297607 7331462.0
677.307922 8497532.0
684.281982 5821336.0
686.297363 11158089.0
687.28125 8892873.0
688.276245 15143885.0
688.312927 17501942.0
689.29718 13266296.0
689.3172 5801652.0
701.308167 4828587.0
702.29248 31617422.0
703.295898 10477794.0
703.323486 4637099.0
704.295837 4413617.0
704.308228 63102352.0
704.320251 4671125.0
705.292053 35635148.0
705.312012 18499196.0
706.295959 10519607.0
719.319092 16395652.0
720.322327 5197523.0
730.287231 11462250.0
730.323364 4809504.0
731.318298 5371910.0
732.302856 25724742.0
733.306519 9371362.0
747.313721 11667168.0
748.298035 5731872.0
750.313599 20991370.0
751.316833 6452558.0
754.323547 5102549.0
756.338928 4275683.0
765.324463 8177791.0
771.350281 9134276.0
772.334961 4962035.0
789.36084 34688048.0
790.364441 10781211.0
797.36554 5309768.0
800.329163 8067072.0
813.360596 11539752.0
814.364685 4746832.0
815.376587 22237868.0
816.379944 9026382.0
817.355835 13975855.0
818.338928 6047832.0
818.359497 5134481.0
831.33606 4391874.0
831.345093 6682366.0
831.354309 16872196.0
831.37146 231701904.0
831.388 16554327.0
831.397705 7054639.0
831.406677 4407539.0
832.358154 7359261.0
832.374939 89669616.0
832.391785 6462567.0
833.388977 7589973.0
835.366577 7281681.0
849.382019 16610521.0
850.385315 6796915.0
859.348206 9150330.0
859.36615 120855272.0
859.384521 8672667.0
860.369934 45311948.0
877.347473 6726084.0
877.358154 15803018.0
877.376709 208114400.0
877.395813 14411006.0
877.405945 6213682.0
878.361267 7160187.0
878.380432 84464816.0
878.399475 5925703.0
879.382935 4650212.0
END IONS
