BEGIN IONS
PEPMASS=1132.59
CHARGE=1
MSLEVEL=2
SOURCE_INSTRUMENT=LC-ESI-qTof
FILENAME=21_1132.mzXML
SEQ=*..*
IONMODE=Positive
ORGANISM=GNPS-LIBRARY
NAME=Stenothricin C M+H
PI=Dorrestein
DATACOLLECTOR=Peng
SMILES=CC1OC(CN(C(C(NC(C(NC(C(NC(/C(NC(C(NC(C(NC(C1NC(C(NC(CC(CCCCCCCCC(C)C)=O)=O)CS(O)(=O)=O)=O)=O)CO)=O)CCN)=O)=C/C)=O)C(C)C)=O)CO)=O)CCCCN)=O)C)=O
INCHI=InChI=1S/C49H85N11O17S/c1-8-32-42(66)58-40(29(4)5)47(71)56-36(26-62)45(69)55-34(19-15-16-21-50)49(73)60(7)24-39(65)77-30(6)41(48(72)57-35(25-61)44(68)54-33(20-22-51)43(67)53-32)59-46(70)37(27-78(74,75)76)52-38(64)23-31(63)18-14-12-10-9-11-13-17-28(2)3/h8,28-30,33-37,40-41,61-62H,9-27,50-51H2,1-7H3,(H,52,64)(H,53,67)(H,54,68)(H,55,69)(H,56,71)(H,57,72)(H,58,66)(H,59,70)(H,74,75,76)/b32-8-
INCHIAUX=N/A
PUBMED=N/A
SUBMITUSER=y6peng
TAGS=
LIBRARYQUALITY=2
SPECTRUMID=CCMSLIB00000075068
SCANS=1
315.23999 3.467734
317.484131 2.300185
318.097809 2.75179
318.865967 4.896152
320.416718 6.428642
322.375763 3.816878
323.951538 7.601666
326.175507 5.411398
327.29187 3.135131
328.16983 8.637684
329.241364 8.305706
332.42804 3.184816
333.281647 5.760913
334.36203 10.121661
335.807739 12.316074
336.628693 12.384247
337.301453 13.034448
339.263031 8.668762
340.310669 13.162642
341.288727 19.263136
341.983612 8.062028
344.111694 3.384437
345.202698 4.110362
346.649902 8.221048
348.387146 9.473833
349.263733 2.822424
351.278351 12.481119
352.24234 5.530874
353.371002 15.882768
354.318207 7.305515
355.395447 8.655207
356.258728 70.077599
357.253113 8.284863
358.508881 2.675144
359.233826 3.271262
360.158569 29.381533
361.040009 4.750916
363.257233 26.332058
364.27478 14.791003
365.011963 5.13278
366.275665 4.509678
367.171112 4.910948
368.788269 10.197523
370.184875 3.189603
372.18692 5.138294
373.534943 10.293197
374.437317 7.325198
375.3974 10.068853
376.488342 5.1989
377.383423 4.08483
378.5914 20.834717
379.73349 13.46421
381.145508 51.641277
382.16449 8.810433
383.236023 12.714304
384.342041 3.613433
385.549072 5.218431
387.166656 5.085553
388.236633 2.030797
389.230255 7.090084
390.515594 24.001497
391.407257 11.153564
392.2117 13.768294
393.064972 2.459527
394.528076 7.834497
395.264923 4.05583
396.307159 5.261838
397.221191 3.415781
398.493134 13.711147
399.525269 18.525049
401.381989 8.746389
403.312531 4.229475
404.392456 72.357445
405.606781 9.943736
406.400238 5.355191
407.970032 25.538475
409.280762 24.271828
410.332733 18.879332
411.344116 17.864546
412.300964 4.07727
414.454102 10.591586
415.990356 8.389908
417.403809 15.171414
418.46521 11.175844
419.70578 14.047232
420.457214 4.219507
421.40686 24.246641
422.161346 45.600334
423.207367 9.537227
424.268494 11.581963
425.260345 10.254696
426.368195 26.277775
428.202209 34.53392
429.471924 8.841084
431.259979 11.787868
432.422607 9.676256
433.411194 4.859292
434.597046 23.45031
435.426117 30.49395
436.289398 7.526988
437.465088 9.030432
438.196411 11.297421
439.322449 22.094067
440.378845 16.92338
441.50238 12.808905
442.266449 8.556544
443.323334 21.388786
444.430786 17.439159
445.560791 28.358679
446.602844 3.685343
447.36731 3.423382
448.444763 8.540898
449.294556 20.276848
450.315857 14.439406
451.4039 12.664644
452.380432 42.799446
453.544617 18.060022
454.441101 11.821298
455.329437 9.178437
456.318604 20.95228
457.340424 24.013739
458.284424 4.699644
459.060455 14.987703
459.963928 7.863146
461.264648 4.079561
463.495544 26.55451
464.442993 8.85566
465.150452 5.170309
466.40033 29.786358
467.249634 19.096151
468.226868 10.024402
469.219849 32.837124
470.36853 114.144279
471.635223 19.790165
473.241699 42.545483
474.423737 5.613986
475.471252 22.770905
476.740967 16.201927
477.384216 6.122784
478.544189 29.69611
479.252136 151.204895
480.334595 53.089973
481.305969 29.733166
482.36322 8.168313
483.217163 5.021578
484.369629 41.253021
485.24884 14.448145
487.272278 154.327377
488.474915 22.513672
489.390991 13.744416
490.331787 30.043243
491.385559 36.317993
492.393158 31.92606
493.300995 19.34837
494.264465 5.784069
495.45752 17.308285
496.434174 10.053674
497.303955 73.08667
498.724457 16.685326
499.529755 27.448059
500.459778 5.893952
501.517303 8.73175
502.257141 3.35741
503.410187 28.625393
504.480011 7.380331
505.252502 3.034655
506.191467 9.320766
507.310089 36.354828
508.408691 88.623322
509.601196 40.871735
510.378113 60.769333
511.330688 138.197388
512.427673 16.676725
513.421814 14.886749
514.294067 20.583412
515.247681 5.102075
516.286072 11.892596
517.444885 14.895971
518.350586 46.231102
519.304199 35.020493
520.505493 11.421794
521.550659 26.827105
522.219055 4.662388
524.000061 28.329788
525.301025 25.458487
526.464905 17.902973
527.265259 21.097424
528.362305 57.728695
529.369263 4.598189
530.427734 18.236383
532.496582 15.784426
533.503784 7.670417
534.425293 13.945092
535.474609 40.010174
536.462952 33.290104
537.512451 17.8666
538.535278 15.171448
539.418945 60.916813
540.436157 31.179081
541.381348 19.413082
542.435242 20.118376
543.195557 16.737194
544.307678 55.835499
545.357056 20.455399
546.455261 29.289883
547.484131 8.310611
548.258667 7.324032
549.02063 6.578562
549.659363 12.243127
550.70874 14.437634
551.342529 42.066967
552.533386 39.84053
553.410767 55.493694
554.405945 20.618238
555.412109 22.50466
556.473145 115.313515
557.455444 21.153374
558.282532 13.235485
558.97522 2.591651
560.213867 99.781685
561.403076 20.78196
562.413696 69.769066
563.599487 19.027327
564.481812 40.382904
565.367004 8.176108
566.357788 16.77573
567.468933 21.415216
568.282715 16.821743
569.462524 31.964344
570.442993 31.077038
571.403198 99.220146
572.315796 86.472328
573.385132 179.181656
574.657532 29.019449
575.455933 11.016283
576.364746 9.8971
577.356506 26.700489
578.202881 34.996243
579.620239 36.78212
580.411865 158.847763
581.432983 27.430653
582.429932 2.975977
583.593384 7.601565
584.46228 7.950189
585.780273 26.91552
586.640137 10.203995
587.625122 18.999565
588.403259 20.031536
590.196289 215.86792
591.233276 17.306242
593.13031 31.554146
594.393677 19.937431
595.34845 36.590668
596.016968 17.773197
596.662842 19.006943
597.318054 40.09486
598.291138 18.805632
599.459106 22.048019
600.366089 27.185135
601.18811 32.910988
602.40155 17.694284
603.47229 14.956849
604.213135 11.743064
605.509094 13.689583
606.391113 32.264347
607.304749 83.129318
608.435425 83.776588
609.422241 23.346884
610.301392 24.964258
611.324951 12.750943
612.269409 7.38589
613.38092 107.435478
614.190063 31.496574
615.376709 37.369968
616.577393 9.851757
617.279907 15.010161
618.37085 31.481323
619.32959 22.597757
620.506042 11.922007
621.42981 24.024654
622.466187 19.147411
623.42041 27.756138
624.429932 37.90023
625.405884 128.304016
626.334229 47.948544
627.634338 25.633625
628.604004 21.827007
629.559753 6.804836
630.80249 34.152992
631.488647 147.397751
632.398071 35.85096
633.434326 24.272514
634.278198 15.689597
635.311157 34.304077
636.213867 16.849693
637.357788 49.667255
638.426636 28.611
639.295166 4.191909
640.453613 23.207232
641.525757 20.070286
642.41272 98.015747
643.338013 163.014618
644.378418 65.094879
645.579773 39.074284
646.341309 61.168262
647.457153 57.205917
648.534119 41.430927
649.471497 18.787571
650.320862 57.058529
651.434204 53.507759
652.822632 27.637138
653.671448 8.653471
654.532959 24.778778
655.414062 3.916903
656.578003 18.072968
657.293152 22.938976
658.664429 22.748722
659.411743 42.747581
660.462769 479.875488
661.346619 284.979767
662.284912 73.673157
663.400208 54.26165
664.24292 15.422059
665.374634 25.392418
666.374756 81.08567
667.40686 31.485388
668.536316 11.142139
669.5979 11.407254
670.693115 4.112512
671.61084 15.156098
672.529968 16.360754
673.334961 18.421175
674.392761 27.856375
675.307983 12.468199
677.069885 72.328262
678.696411 81.194611
679.374756 465.457458
680.427612 45.555691
681.259338 37.905872
682.159607 33.033188
683.335632 51.506546
684.304138 30.665356
685.537231 11.882611
686.438477 24.519924
687.356079 15.91565
688.419678 49.015415
689.476196 78.953056
690.453003 64.120941
691.230896 35.542656
692.360535 25.465458
693.175354 35.782616
694.248535 30.176205
695.08783 40.602592
696.378174 77.509453
697.378906 68.637146
698.415894 62.365772
699.405273 42.283295
700.393433 41.372158
701.329529 49.797733
702.558472 13.651279
703.227905 11.058429
704.253662 63.470398
705.680359 53.787846
706.415527 131.502457
707.466492 86.802216
708.376892 114.722878
709.467834 59.179008
710.421082 23.52343
711.349487 26.273846
712.418396 36.671665
713.357178 18.391743
714.471436 337.763855
715.443298 51.428673
717.340576 458.535889
718.42395 101.83744
719.480835 25.478245
720.493286 24.493155
721.509521 25.989439
722.427002 16.80821
723.383057 95.909637
725.385132 497.035858
726.395569 151.813599
727.391235 46.334034
728.404968 62.811256
729.18396 99.128555
730.352234 60.846153
731.476257 56.600273
732.555115 33.081455
733.384521 23.71545
734.800964 132.270813
735.435974 534.407593
736.230225 51.757153
737.264893 32.814072
738.348267 11.101491
739.723328 64.919838
740.606079 96.907631
741.531677 14.210875
743.435547 1450.094238
744.406128 76.388107
745.362305 53.163361
746.450562 131.89061
747.563416 31.520971
748.390564 67.505386
749.418457 66.707474
750.283325 8.748321
751.291199 28.162619
752.479187 65.497574
753.578369 32.711361
754.529785 3.815534
755.449341 25.536049
756.31543 33.511898
757.496338 132.439972
758.472046 21.318781
759.287598 77.590858
760.259277 56.886272
761.373535 43.507435
762.480652 29.390049
763.41449 41.548111
764.350342 41.383167
765.4552 34.565704
766.335449 118.106285
767.464905 50.004585
768.511292 20.558941
769.441162 30.448099
770.393311 31.034241
771.479492 65.554909
772.516357 35.382904
773.268677 46.093868
774.404907 29.564009
775.378296 61.817116
776.963623 46.131248
777.621155 18.877016
778.540649 15.431331
779.620361 49.549065
780.331665 37.056129
781.200195 33.322601
782.539185 96.975861
783.485596 40.331474
784.342896 7.160923
785.609314 24.663002
786.435547 25.824394
787.326599 65.205215
788.553101 59.869949
789.469238 217.294312
790.520996 97.58297
791.544312 56.59127
792.423096 38.441444
793.480835 36.043892
794.744019 72.050034
795.539429 274.696869
796.552124 31.47806
797.646484 22.33448
798.636597 45.540985
799.537842 45.889172
800.3396 149.647125
801.397583 52.510986
802.397217 15.00305
803.334656 29.924797
804.770752 78.71257
805.551208 138.77478
806.604492 63.682873
807.466736 34.29892
808.514221 11.459808
809.46582 19.146427
810.30249 122.893188
811.018433 40.02449
811.901245 20.156649
812.513306 50.370617
813.453247 29.584833
814.330933 37.536293
815.489258 24.445688
816.490601 54.035034
817.540161 104.718269
818.38208 422.281311
819.344727 42.710148
820.273071 20.523907
821.583984 30.505035
822.573608 37.345997
823.34021 17.222769
824.382935 39.331955
825.487793 44.177223
826.526855 41.491409
827.752319 85.622238
828.410889 218.628433
829.334351 33.300098
830.327026 88.07476
831.40625 65.377594
832.382446 100.547935
833.510132 70.053947
834.440552 19.621937
835.510132 56.82769
836.502563 8.406414
837.405396 10.362371
838.612549 43.329018
839.399658 27.36727
840.344482 66.369652
841.496948 144.226196
842.342529 127.18248
843.538208 37.040756
844.427368 73.607239
845.608765 30.98642
846.384155 104.649689
847.415649 136.294678
848.386963 137.089905
849.455933 286.243256
850.598633 67.734268
851.660034 46.219593
852.833252 38.178478
853.555786 38.504055
854.467529 11.209721
855.227173 14.22418
856.604126 49.014202
858.392456 2481.590576
859.386108 1170.778809
860.36792 92.16893
861.585571 49.417892
862.76001 77.712494
863.794922 106.516724
865.262695 532.979187
866.484619 98.465103
867.404541 30.323406
868.078125 17.123564
868.836426 18.774366
869.529297 20.198729
870.407104 97.971275
871.353271 82.916733
872.521484 94.274445
873.688843 55.299469
874.592529 82.110695
876.42688 2685.697754
877.440674 953.549438
878.456543 131.264328
879.450806 152.620117
880.427612 104.498566
881.440552 164.740845
882.591431 75.431374
883.816284 25.595837
884.528076 44.357208
885.542725 78.53125
886.424438 47.635113
887.645264 167.730713
888.480835 203.139328
889.427612 169.121765
890.532837 229.571747
891.576294 172.231277
892.589233 94.802078
894.420898 12522.500977
895.371704 463.63147
896.575317 88.050903
897.42749 88.605072
898.709717 96.447365
899.482056 319.591644
900.546387 107.729752
901.680786 57.038853
902.715942 64.79908
903.601562 212.577164
904.569946 55.256741
905.709473 152.969559
906.625854 39.974457
907.496704 66.046524
908.511353 433.186157
909.750488 62.394283
910.63147 62.690098
911.532959 32.799156
912.398804 62.153229
913.204102 49.041359
914.639404 113.792725
915.607666 118.292564
917.30835 672.469849
918.580566 69.78727
919.551392 40.234089
920.491089 41.732384
921.414795 36.119431
922.508545 87.780365
923.64856 70.028748
924.547607 48.106476
925.50769 42.810814
926.328003 51.322048
927.491333 45.462543
928.55957 89.82682
929.669434 73.521927
930.390747 43.248932
931.240356 145.909485
932.509644 197.770309
933.498901 69.177948
934.726929 44.858582
935.726196 59.915344
936.535278 35.369034
937.669189 50.278164
938.538452 30.855494
939.180054 50.142365
939.874268 28.198204
940.505981 47.071766
941.370483 65.320061
942.517578 96.897667
943.519287 66.348663
944.68811 77.907425
945.486816 54.764973
946.533447 145.488251
947.603271 120.861633
948.567627 234.947784
949.520386 38.229641
950.555542 273.924591
951.641968 101.573952
952.612793 74.618378
953.507202 134.908646
954.434692 143.671417
955.604248 47.687321
956.547241 26.551804
957.369995 50.635147
958.361206 86.036194
959.369263 45.699036
960.224487 58.340256
961.47998 214.408539
962.422974 65.318298
963.418579 86.011429
964.263428 21.461096
965.081665 21.217014
965.754028 30.351736
966.596558 29.052248
967.760986 80.472076
968.692139 93.225067
969.600708 52.596992
970.458862 116.862411
971.589966 61.464424
972.395386 29.873451
973.459229 89.636086
974.327881 46.08284
975.426392 75.868797
976.584839 51.18103
977.49939 26.630838
978.608643 37.951675
979.509644 121.70327
980.506836 67.716797
981.466431 45.238411
982.526733 62.259804
983.568237 87.005272
984.656738 73.921585
985.87854 103.11438
986.496338 88.927437
987.411743 113.558815
988.515503 43.493469
989.494263 30.493881
990.280151 114.691574
991.440552 52.064041
992.539551 24.768967
993.292358 21.592686
994.082886 42.123688
994.906494 51.150322
995.679077 24.211178
996.479614 69.665291
997.375 96.522018
998.551636 97.060791
999.356445 106.719139
1000.664551 70.855492
1001.676147 82.836494
1002.820923 70.454773
1003.585938 86.724968
1004.520996 174.512207
1005.684937 103.309753
1006.744019 54.254414
1007.537476 44.574928
1008.370972 58.742924
1009.300293 36.154663
1010.519043 120.785728
1011.671021 76.370682
1012.714966 54.594017
1013.706787 91.846695
1014.612671 130.585724
1015.520508 101.002899
1016.416748 111.263931
1017.344116 119.985962
1018.087524 31.240532
1018.696655 81.801003
1019.522827 58.583748
1020.16272 55.661133
1021.283447 68.918701
1022.266968 133.155228
1023.190796 116.98893
1023.837036 145.046799
1024.60083 123.56292
1025.564087 124.872383
1026.66272 91.411743
1027.979248 108.444946
1029.372681 124.18232
1030.250366 58.433487
1031.649292 153.688995
1032.73584 216.834717
1033.666504 367.26944
1034.685547 74.681145
1035.771362 100.446289
1036.707031 54.286476
1037.713867 83.59285
1038.749878 102.935013
1040.241455 169.845764
1041.322998 112.363029
1041.980103 92.577904
1042.633301 199.442383
1043.537109 217.173889
1044.633423 64.851517
1045.719849 72.854088
1046.907837 63.533089
1047.6604 92.257698
1048.598267 78.040909
1049.663086 92.003326
1050.52002 399.953674
1051.645752 158.679016
1052.602295 59.543118
1053.552246 106.785469
1054.500488 38.048462
1055.380127 71.641243
1056.259766 50.587761
1057.286377 137.466003
1058.016357 81.794716
1058.623047 52.158497
1059.787964 86.506203
1060.666016 82.871872
1061.39917 45.43
1062.047119 41.651283
1062.864502 81.643158
1064.600464 148.630447
1065.741455 98.373558
1066.803345 147.824142
1067.703857 217.520935
1068.633423 133.910736
1069.507568 272.811584
1070.528809 188.632401
1071.574829 140.429626
1072.587036 122.292007
1073.606079 133.697571
1074.827637 159.575089
1075.743896 166.885376
1076.514526 67.453003
1077.392578 146.830307
1078.44812 171.406906
1079.483276 161.918777
1080.526611 106.629585
1081.440674 49.987103
1082.190796 32.890587
1082.8573 104.441673
1083.954224 61.833813
1084.721191 97.862442
1085.61438 705.655823
1086.733032 423.616302
1087.572632 666.630981
1088.599487 318.550018
1089.660522 366.112488
1090.715942 172.127808
1091.6604 226.94278
1092.517944 69.271988
1093.487793 100.092926
1094.65332 142.939499
1095.888916 539.577148
1096.612793 2862.781494
1097.525757 1884.121582
1098.528564 107.528442
1099.662354 268.480774
1100.689575 454.090332
1101.732788 230.40271
1102.761963 182.182739
1103.57959 1544.40979
1104.681152 543.738647
1105.859009 274.99054
1106.747925 101.384109
1107.795654 68.385994
1108.828857 198.491028
1109.781372 156.761902
1110.603516 227.383301
1111.504883 67.123177
1112.805054 512.726562
1113.752075 2198.407471
1114.648682 5616.918457
1115.713989 2059.394287
1117.735229 182.116699
1118.435425 112.141754
1119.457886 123.751259
1120.669312 28.633856
1122.030762 58.781162
1122.911987 15.81786
1123.579102 35.044106
1124.365479 8.783667
1130.922363 62.724651
1131.964966 28.285063
1133.133789 5.640368
1133.842651 2.072015
1139.987915 9.936558
1144.402588 3.212245
END IONS
