BEGIN IONS
PEPMASS=465.17
CHARGE=1
MSLEVEL=2
SOURCE_INSTRUMENT=DI-ESI-qTof
FILENAME=gnps_GlaucolideA_pos_MplusH.mgf
SEQ=*..*
IONMODE=Positive
ORGANISM=GNPS-LIBRARY
NAME=Glaucolide A M+H
PI=Norberto Lopes
DATACOLLECTOR=Denise Silva
SMILES=O=C(C)OCC1=C([C@@H](OC(C(C)=C)=O)C[C@]2(OC(C)=O)C)[C@@](OC1=O)([H])[C@@H]3[C@@](O3)(C)CCC2=O
INCHI=InChI=1S/C23H28O10/c1-11(2)20(27)30-15-9-23(6,32-13(4)25)16(26)7-8-22(5)19(33-22)18-17(15)14(21(28)31-18)10-29-12(3)24/h15,18-19H,1,7-10H2,2-6H3/t15-,18-,19+,22+,23+/m0/s1
INCHIAUX=N/A
PUBMED=N/A
SUBMITUSER=rsilva
TAGS=
LIBRARYQUALITY=3
SPECTRUMID=CCMSLIB00000081473
SCANS=1
259.088013 119.0
END IONS
