BEGIN IONS
PEPMASS=770.418
CHARGE=1
MSLEVEL=2
SOURCE_INSTRUMENT=LC-ESI-qTof
FILENAME=f.philipwi/GNPS_Marine_Invertebrate_Secondary_Metabolites_UHManoa/GNPS_SpongeSpectraAlreadyConvertedTo_mzXML/PW-114_P2-B-5_Hymenamide_D_769amu_Scan589_620_01_15581.mzXML;
SEQ=*..*
IONMODE=Positive
ORGANISM=GNPS-LIBRARY
NAME=Hymenamide D M+H
PI=Philip Williams
DATACOLLECTOR=Williams
SMILES=CC[C@H](C)[C@H]1C(=O)N2CCC[C@H]2C(=O)N[C@H](C(=O)N[C@H](C(=O)N3CCC[C@H]3C(=O)N[C@H](C(=O)N[C@H](C(=O)N1)C)CC(C)C)CC(=O)O)Cc4ccc(cc4)O
INCHI=
INCHIAUX=
PUBMED=
SUBMITUSER=philipwi
TAGS=
LIBRARYQUALITY=3
SPECTRUMID=CCMSLIB00000424980
SCANS=598
77.658829 68.0
110.535866 40.0
111.012177 64.0
112.98185 124.0
134.998016 40.0
135.435318 36.0
136.081451 96.0
136.647156 28.0
137.759613 56.0
138.133942 212.0
138.82402 32.0
139.087006 32.0
139.169708 32.0
139.636307 56.0
141.078659 64.0
143.412537 60.0
145.281113 56.0
147.053558 64.0
148.626877 88.0
153.483887 112.0
154.163773 88.0
157.153931 104.0
158.876648 32.0
158.948959 184.0
159.375168 24.0
162.090439 100.0
163.106445 64.0
163.334457 28.0
163.86441 108.0
167.122635 116.0
169.101166 200.0
170.074509 68.0
170.132706 48.0
171.081833 208.0
173.097046 100.0
176.019348 32.0
179.931 100.0
181.413239 56.0
182.135147 32.0
182.216873 40.0
182.307236 24.0
182.513855 36.0
182.574127 32.0
182.677505 40.0
182.763672 40.0
182.858475 28.0
182.976807 116.0
183.043182 132.0
183.15506 7404.0
183.359604 40.0
183.470978 56.0
183.60051 28.0
183.74736 24.0
183.859711 64.0
183.920212 32.0
184.158752 1036.0
184.248856 28.0
184.352707 24.0
184.491211 24.0
184.941696 96.0
185.097672 940.0
185.392731 32.0
185.470856 28.0
185.557678 32.0
185.722687 28.0
185.835632 28.0
186.13327 96.0
186.444397 68.0
186.609802 32.0
187.106476 100.0
187.787186 40.0
188.005615 40.0
188.259171 36.0
188.810562 32.0
189.64357 24.0
192.074066 92.0
192.180084 56.0
192.639862 32.0
193.154221 40.0
194.122391 96.0
194.253418 36.0
194.938095 40.0
195.091965 84.0
196.067352 472.0
196.266418 48.0
196.415283 48.0
196.507599 32.0
196.641663 40.0
196.970078 44.0
197.091644 212.0
197.554459 44.0
197.635101 32.0
198.101349 148.0
198.343658 40.0
199.080475 76.0
199.143433 36.0
200.07103 32.0
201.109238 88.0
201.588623 36.0
201.851166 36.0
202.403976 88.0
203.139206 60.0
204.139801 48.0
205.142838 112.0
205.956192 36.0
207.117676 252.0
207.789841 28.0
208.119919 88.0
209.004486 56.0
209.163483 180.0
209.686981 36.0
210.169983 184.0
210.279602 40.0
210.361343 36.0
210.44455 48.0
210.509293 36.0
210.604874 36.0
210.893005 68.0
210.988953 112.0
211.148926 18392.0
211.253387 52.0
211.383011 32.0
211.486633 36.0
211.64592 84.0
211.709824 32.0
211.8396 52.0
211.921768 56.0
212.149551 2136.0
212.342926 24.0
212.405777 40.0
212.753372 28.0
212.821564 36.0
212.911453 44.0
213.092087 1748.0
213.241776 64.0
213.318146 68.0
213.407028 32.0
213.516449 20.0
213.637558 32.0
213.805298 32.0
214.09433 172.0
214.249802 48.0
215.122787 108.0
215.402084 56.0
216.113678 84.0
216.676285 36.0
217.183258 88.0
217.305405 40.0
217.559189 80.0
217.700241 40.0
218.057785 28.0
218.170746 36.0
218.613495 32.0
219.151031 316.0
219.254852 36.0
220.133514 24.0
221.139954 88.0
222.276108 80.0
222.576874 44.0
223.078293 96.0
223.313187 76.0
223.551392 32.0
224.448166 32.0
224.744308 108.0
225.212799 76.0
225.308472 76.0
225.528595 40.0
227.254974 36.0
227.957001 68.0
228.091751 52.0
228.174744 500.0
228.795074 36.0
229.174225 188.0
229.267761 52.0
229.79892 96.0
229.885895 40.0
230.11615 152.0
230.853378 44.0
231.10527 72.0
231.881149 36.0
231.968506 40.0
232.077744 48.0
232.196548 80.0
232.395874 68.0
232.531937 32.0
232.666107 120.0
232.736115 32.0
232.920914 32.0
232.988083 116.0
233.132919 15528.0
233.388107 88.0
233.50499 36.0
233.631622 44.0
233.709579 60.0
233.903427 36.0
234.135345 2456.0
234.262924 48.0
234.437531 36.0
234.587433 28.0
234.665543 32.0
234.753433 92.0
235.046524 44.0
235.140076 380.0
235.553024 40.0
235.780045 32.0
236.133514 80.0
236.230499 64.0
236.495102 44.0
236.612747 36.0
236.897186 28.0
236.995316 72.0
237.1604 356.0
237.417465 24.0
237.790833 120.0
238.120651 156.0
238.18808 116.0
238.420349 24.0
238.636932 24.0
239.011261 32.0
239.09996 64.0
239.316864 32.0
239.504257 20.0
240.274338 36.0
240.986282 20.0
241.130325 108.0
241.530823 72.0
241.768646 36.0
242.076004 24.0
242.999222 36.0
243.103333 84.0
243.725143 24.0
244.681412 148.0
245.146118 48.0
245.689514 36.0
246.139343 64.0
246.899979 44.0
247.872498 44.0
249.128555 120.0
249.329819 124.0
250.367615 24.0
250.579468 32.0
251.104095 228.0
251.211578 80.0
252.112183 24.0
252.90564 136.0
252.976608 52.0
253.184021 256.0
253.840134 40.0
254.048538 52.0
254.188217 880.0
254.560699 60.0
254.886261 40.0
255.198685 208.0
255.537979 44.0
256.129333 124.0
257.188416 124.0
258.078125 36.0
258.440094 136.0
259.045044 52.0
259.150055 624.0
259.486389 32.0
259.650696 36.0
259.932007 124.0
260.141083 72.0
260.982208 60.0
261.127808 4712.0
261.310486 64.0
261.461609 32.0
261.544098 32.0
261.688446 116.0
261.791565 24.0
261.902954 40.0
262.132446 852.0
262.257019 36.0
262.431396 48.0
263.027222 72.0
263.129974 532.0
263.250397 64.0
263.672028 32.0
263.827301 44.0
264.170624 296.0
264.521454 40.0
264.905182 44.0
264.98819 148.0
265.158508 732.0
265.704651 52.0
265.829376 32.0
266.156982 164.0
266.422089 84.0
267.118896 88.0
267.599121 64.0
268.047668 24.0
268.204254 96.0
268.789154 24.0
268.99823 20.0
269.165527 36.0
269.259644 56.0
269.468903 72.0
269.971375 28.0
270.136261 184.0
270.216705 156.0
270.998779 96.0
271.229675 88.0
274.072723 36.0
275.180725 172.0
275.847321 32.0
275.921417 40.0
277.130249 96.0
277.437653 24.0
277.830627 40.0
278.159363 456.0
278.362122 44.0
279.103912 1116.0
279.384033 28.0
280.003876 28.0
280.10498 224.0
280.188843 120.0
280.62735 64.0
280.821808 100.0
280.962677 120.0
281.174194 440.0
281.303314 68.0
281.412109 44.0
281.537384 28.0
281.571625 48.0
281.698212 32.0
281.847137 108.0
281.954681 116.0
282.089142 164.0
282.186584 58256.0
282.301117 84.0
282.386017 108.0
282.47113 104.0
282.616394 96.0
282.774353 172.0
282.852173 64.0
283.020416 108.0
283.188171 10300.0
283.404572 40.0
283.545624 84.0
283.663696 28.0
283.78833 32.0
283.87381 60.0
283.998962 92.0
284.184265 956.0
284.329376 36.0
284.538422 36.0
284.612305 56.0
284.705139 68.0
285.024872 36.0
285.12735 208.0
285.202728 80.0
285.407898 80.0
285.55484 40.0
285.79187 40.0
285.992035 56.0
286.158386 108.0
286.233856 36.0
286.303955 28.0
286.643829 32.0
286.730164 44.0
286.846375 68.0
287.033997 28.0
287.140717 380.0
287.475433 36.0
287.589996 36.0
287.680817 44.0
287.897095 20.0
288.026886 36.0
288.142914 236.0
288.238159 76.0
288.533783 24.0
288.713013 52.0
289.081665 256.0
289.294006 40.0
289.641052 40.0
289.760406 32.0
289.966614 32.0
290.131622 80.0
290.398224 32.0
291.009583 36.0
291.136749 288.0
291.771271 36.0
291.880157 56.0
292.144958 180.0
292.446747 64.0
292.56665 20.0
292.741119 32.0
292.882935 56.0
293.112061 224.0
293.483246 24.0
293.843719 48.0
293.920197 96.0
294.073242 36.0
294.193481 156.0
294.466888 24.0
294.630981 56.0
295.090698 88.0
295.346497 56.0
295.815216 32.0
296.044128 24.0
296.142853 52.0
296.2341 112.0
296.691589 24.0
297.141937 120.0
298.184143 1204.0
298.33493 60.0
298.778961 64.0
298.913635 28.0
299.204468 580.0
299.619385 32.0
299.818024 28.0
299.928406 36.0
300.185791 304.0
300.425385 108.0
301.195038 396.0
301.952057 40.0
302.197266 272.0
302.597595 32.0
303.005249 32.0
303.134857 192.0
303.404846 40.0
303.682465 52.0
303.871338 32.0
304.049164 32.0
304.169708 3584.0
304.379181 116.0
304.448883 40.0
304.595917 48.0
304.760956 20.0
304.862488 32.0
305.166779 888.0
305.440125 40.0
305.763306 128.0
306.187012 200.0
306.309723 40.0
306.410126 40.0
306.778442 36.0
307.085052 132.0
307.22522 48.0
307.428589 40.0
307.996643 44.0
308.173584 1520.0
308.724213 32.0
308.869843 28.0
309.163879 372.0
309.318115 36.0
309.452667 52.0
309.60968 80.0
310.150909 436.0
311.145996 80.0
311.575623 20.0
312.128265 188.0
312.94986 24.0
313.123169 208.0
313.480072 80.0
313.796173 44.0
314.153778 500.0
315.169006 72.0
315.673431 28.0
315.843323 32.0
315.990601 24.0
317.533539 40.0
319.185181 112.0
319.832184 88.0
319.934784 52.0
320.174286 100.0
323.524963 48.0
323.891968 24.0
324.029633 20.0
324.233856 416.0
324.422943 60.0
324.563416 36.0
324.936768 24.0
325.109131 20.0
325.231812 196.0
325.531586 140.0
325.741608 40.0
325.879669 40.0
325.960236 52.0
326.175049 7244.0
326.320374 112.0
326.516418 104.0
326.697205 36.0
326.875488 40.0
326.999695 32.0
327.175385 1592.0
327.385895 140.0
328.178589 672.0
328.300659 32.0
329.19873 256.0
329.519592 64.0
329.588165 44.0
329.81543 40.0
329.94281 28.0
330.176575 248.0
330.614716 148.0
330.719025 32.0
330.834961 40.0
330.962524 76.0
331.131042 288.0
331.519379 40.0
332.007019 36.0
332.1633 672.0
332.704285 84.0
333.16864 296.0
333.285889 32.0
333.483765 24.0
333.68869 40.0
333.937897 60.0
334.179016 212.0
334.928772 84.0
335.251801 88.0
335.991211 28.0
336.077667 84.0
336.18335 100.0
336.59906 20.0
336.898193 56.0
337.187195 116.0
337.804718 36.0
338.178833 264.0
338.461121 48.0
338.813049 40.0
339.141663 76.0
340.128448 260.0
341.124359 184.0
341.49353 32.0
342.165314 96.0
342.318604 68.0
342.920349 28.0
343.203705 288.0
343.3927 84.0
343.924438 32.0
344.147125 72.0
344.409302 40.0
345.190521 100.0
345.948914 44.0
346.203217 108.0
346.945557 36.0
347.173737 260.0
347.563232 20.0
347.76358 28.0
347.907959 52.0
348.160889 264.0
348.693115 32.0
348.978851 64.0
349.166656 192.0
349.538757 60.0
350.146271 84.0
351.023712 36.0
351.221741 328.0
351.938324 20.0
352.093781 64.0
352.188751 352.0
352.368958 32.0
352.73999 40.0
353.183105 128.0
354.190094 72.0
354.910278 32.0
356.040009 104.0
356.190582 132.0
356.292633 24.0
357.183563 96.0
357.460693 76.0
357.605347 44.0
357.834412 32.0
358.151917 716.0
358.316895 44.0
358.654846 48.0
359.024658 100.0
359.125244 616.0
359.391632 36.0
359.512482 32.0
360.134735 316.0
360.504242 52.0
360.649506 68.0
361.153442 108.0
361.545868 44.0
361.800446 60.0
362.180054 68.0
362.52829 32.0
362.904663 44.0
363.888916 40.0
364.180817 56.0
364.472839 40.0
364.60672 60.0
364.801483 20.0
365.318268 32.0
365.422668 36.0
365.514923 56.0
365.666443 44.0
365.854309 76.0
366.091675 32.0
366.227356 132.0
366.311676 44.0
366.44696 84.0
366.779724 52.0
366.894562 36.0
366.94339 24.0
367.01767 40.0
367.164215 116.0
367.273071 19912.0
367.611145 108.0
367.703033 52.0
367.748932 80.0
367.792389 80.0
367.960388 32.0
368.122284 48.0
368.275391 3580.0
368.525574 40.0
368.556183 40.0
368.656891 24.0
368.879303 76.0
369.013977 32.0
369.226227 1660.0
369.503937 32.0
369.663269 60.0
369.848663 32.0
369.969727 32.0
370.114044 104.0
370.218292 160.0
370.673004 36.0
370.865326 44.0
371.01944 36.0
371.270538 72.0
371.498444 36.0
371.550629 20.0
371.585236 52.0
371.909485 44.0
372.229004 452.0
372.474091 44.0
372.610535 44.0
372.891327 44.0
373.199738 112.0
374.015259 36.0
374.213928 672.0
374.451538 76.0
374.499329 140.0
374.641968 60.0
374.766968 36.0
374.885651 52.0
375.063171 36.0
375.206726 252.0
375.439331 76.0
375.53656 36.0
375.590118 40.0
375.813049 244.0
375.84906 140.0
375.900177 160.0
375.955505 120.0
375.98053 184.0
376.154968 74200.0
376.429291 156.0
376.590607 200.0
376.717987 120.0
376.818237 64.0
376.919983 112.0
376.947021 112.0
377.156281 13876.0
377.404785 52.0
377.562836 36.0
377.702972 72.0
377.927094 76.0
378.04718 84.0
378.160309 2160.0
378.502991 44.0
378.637482 108.0
378.773407 60.0
378.927032 44.0
379.225922 1452.0
379.541901 52.0
379.734833 32.0
379.826996 52.0
379.983521 60.0
380.201233 420.0
380.411102 24.0
380.546234 32.0
380.850525 40.0
380.999817 40.0
381.194061 292.0
381.472778 20.0
381.622192 40.0
381.784088 24.0
382.047485 28.0
382.184448 64.0
382.589142 36.0
382.693848 44.0
382.781158 36.0
383.11795 28.0
383.30246 168.0
383.436188 128.0
383.575256 100.0
383.797577 64.0
384.016815 28.0
384.17923 48.0
384.704163 44.0
384.829224 32.0
385.079346 28.0
385.198669 52.0
385.297516 64.0
385.456085 36.0
385.642456 40.0
385.977081 44.0
386.13678 1020.0
386.384949 60.0
386.556824 160.0
386.657074 28.0
386.785858 44.0
387.033203 44.0
387.141327 136.0
387.682343 124.0
388.187805 24.0
388.954285 28.0
390.225067 52.0
390.37619 76.0
390.65332 40.0
391.05188 96.0
391.144836 68.0
391.245697 68.0
391.422241 48.0
391.785614 184.0
392.098083 136.0
392.469696 84.0
392.595978 32.0
392.785461 48.0
393.060303 72.0
393.225159 100.0
393.419525 112.0
393.543854 24.0
393.760132 40.0
393.857117 52.0
394.072601 76.0
394.189026 92.0
394.500885 88.0
394.619446 16.0
394.789368 48.0
394.989075 168.0
395.155182 188.0
395.269592 44256.0
395.522186 84.0
395.622986 124.0
395.812653 192.0
396.008301 112.0
396.268677 6788.0
396.483551 96.0
396.761353 60.0
396.838562 40.0
397.211487 11472.0
397.460144 72.0
397.610168 60.0
397.708344 124.0
397.895569 60.0
398.00293 36.0
398.21344 2696.0
398.624054 56.0
398.745636 32.0
398.986206 40.0
399.214233 304.0
399.535217 32.0
399.637146 36.0
399.782898 64.0
399.994049 24.0
400.215271 80.0
400.524323 96.0
400.657257 36.0
400.759338 32.0
400.965393 28.0
401.215424 404.0
401.755951 40.0
401.959778 40.0
402.059174 36.0
402.167328 1716.0
402.341309 52.0
402.59903 32.0
402.751129 36.0
403.171509 376.0
403.68692 20.0
403.840637 88.0
403.937408 36.0
404.149841 1456.0
404.327576 32.0
404.480103 40.0
404.648071 24.0
404.776306 32.0
405.000031 56.0
405.151428 388.0
405.514069 64.0
405.764435 36.0
405.90567 68.0
406.252502 44.0
406.689453 36.0
406.911896 40.0
407.196808 356.0
407.795746 96.0
408.194916 32.0
408.719574 88.0
409.019562 40.0
409.192566 108.0
409.548309 36.0
410.038666 28.0
410.206482 104.0
410.555145 24.0
410.697235 52.0
410.898987 52.0
410.991638 56.0
411.162415 128.0
411.317535 48.0
411.579834 84.0
411.718414 28.0
411.834808 128.0
412.365387 28.0
413.244049 156.0
413.676392 40.0
414.24942 80.0
414.893402 152.0
415.659821 96.0
416.078644 100.0
417.229156 164.0
417.546417 112.0
417.950287 32.0
418.250092 88.0
419.191528 184.0
419.746613 104.0
419.894287 152.0
420.129456 40.0
420.351593 56.0
420.900696 28.0
421.12738 72.0
421.2901 276.0
421.639587 168.0
421.934479 40.0
422.654938 32.0
423.226715 628.0
423.822083 72.0
423.940186 52.0
424.23642 184.0
424.504761 92.0
424.59671 40.0
424.701782 36.0
425.207458 224.0
426.204803 168.0
427.206512 136.0
427.609955 96.0
427.88681 64.0
428.229706 96.0
429.008362 136.0
429.188019 184.0
429.510223 32.0
430.184235 128.0
430.342896 36.0
431.182617 100.0
431.282288 64.0
432.408264 132.0
433.230499 84.0
433.960541 32.0
434.345734 116.0
434.598175 164.0
434.850708 36.0
435.222961 44.0
435.499634 40.0
437.181915 116.0
437.286682 80.0
438.195251 64.0
438.300323 112.0
439.248352 56.0
439.555695 120.0
440.277679 64.0
440.799469 48.0
441.616241 160.0
442.867157 88.0
443.233612 284.0
443.493622 32.0
443.708435 28.0
444.215271 1740.0
444.554779 36.0
444.764954 44.0
444.984955 40.0
445.231079 996.0
445.388458 40.0
445.588898 40.0
445.913269 36.0
446.222717 160.0
446.770447 40.0
446.990265 56.0
447.187866 6520.0
447.462616 32.0
447.587341 32.0
447.748199 40.0
447.911713 96.0
448.193207 3048.0
448.460999 44.0
448.649994 40.0
448.782135 56.0
449.216949 124.0
449.365906 96.0
449.514557 52.0
449.887299 132.0
450.055298 20.0
450.191193 84.0
450.903809 28.0
451.340912 32.0
451.720184 36.0
452.343628 152.0
452.764008 24.0
452.899658 48.0
453.836182 152.0
454.207886 180.0
454.311584 140.0
454.45401 100.0
454.896027 60.0
455.004791 48.0
455.201385 536.0
455.766571 48.0
456.205536 84.0
456.338318 104.0
457.174713 204.0
459.298035 84.0
459.707947 28.0
460.897217 92.0
461.247681 780.0
461.774048 52.0
462.124817 60.0
462.24942 444.0
463.226868 156.0
464.305817 216.0
465.257172 68.0
465.329895 156.0
465.878876 84.0
466.264191 68.0
467.265991 104.0
468.27597 156.0
469.229767 36.0
470.200623 52.0
470.297394 96.0
470.499481 36.0
470.693054 56.0
470.789886 20.0
470.926788 40.0
471.234528 552.0
471.440186 32.0
471.703186 76.0
471.976654 112.0
472.222443 544.0
472.632202 36.0
472.781342 24.0
473.066772 44.0
473.20575 7980.0
473.431549 44.0
473.690063 52.0
473.793701 24.0
474.033173 44.0
474.206482 2188.0
474.488892 48.0
474.656677 28.0
474.832642 48.0
475.219574 344.0
475.365234 48.0
475.629333 24.0
475.887482 84.0
476.212585 68.0
476.380341 32.0
476.630798 36.0
476.895264 32.0
477.229401 56.0
477.382599 56.0
477.870209 52.0
478.553253 60.0
478.669281 100.0
478.860077 52.0
479.194916 116.0
479.300995 36.0
480.297943 120.0
480.49353 116.0
480.926788 148.0
481.220398 32.0
481.402191 40.0
481.7659 44.0
482.298401 1048.0
482.491608 52.0
482.773834 20.0
483.096008 68.0
483.290924 212.0
483.923004 80.0
484.877014 184.0
485.031433 32.0
485.143768 104.0
485.43866 44.0
485.565063 72.0
485.663391 24.0
485.843079 120.0
486.269623 200.0
486.631317 60.0
486.738159 64.0
486.866516 68.0
487.262115 128.0
487.660248 44.0
487.758789 36.0
488.278717 76.0
488.885712 72.0
489.05484 36.0
489.235992 8060.0
489.4935 72.0
489.584625 28.0
489.788177 36.0
489.886932 52.0
490.035736 44.0
490.093903 24.0
490.236725 2964.0
490.768677 36.0
491.101044 36.0
491.237854 568.0
491.485687 36.0
491.710114 40.0
491.878296 44.0
492.099823 36.0
492.317261 1156.0
492.575989 44.0
492.717804 56.0
492.76297 44.0
492.995789 48.0
493.322113 620.0
493.477142 20.0
493.576263 24.0
494.029572 28.0
494.266449 1008.0
494.568115 36.0
494.667328 32.0
495.036041 20.0
495.273895 156.0
496.000946 24.0
496.554749 104.0
497.236816 64.0
497.426666 56.0
497.53537 52.0
498.024078 88.0
498.251282 80.0
498.701965 32.0
498.801636 28.0
498.944 24.0
499.22168 1344.0
499.485229 36.0
500.055237 44.0
500.2258 416.0
501.227356 96.0
501.738708 132.0
502.538605 24.0
503.854156 72.0
504.512573 52.0
505.099762 132.0
506.820374 32.0
506.978271 24.0
507.482178 40.0
507.655487 24.0
507.767975 24.0
508.283936 56.0
508.673309 44.0
508.920441 128.0
509.21405 48.0
509.363647 36.0
509.910492 64.0
510.040039 32.0
510.292389 5412.0
510.558441 40.0
510.670471 36.0
510.955383 44.0
511.074219 40.0
511.124451 56.0
511.29361 2076.0
511.653687 24.0
512.014221 44.0
512.158447 28.0
512.297424 504.0
512.576904 32.0
512.692383 24.0
512.917908 32.0
513.079956 52.0
513.300598 32.0
513.595886 84.0
513.764099 172.0
513.905518 112.0
514.28064 784.0
514.678223 44.0
515.120117 20.0
515.260742 2060.0
515.748962 44.0
516.097107 36.0
516.254333 876.0
516.451965 44.0
516.74176 40.0
517.243164 556.0
517.626038 48.0
517.785583 28.0
517.974182 28.0
518.225952 124.0
518.35144 56.0
519.222595 92.0
520.283447 68.0
520.734314 24.0
521.15625 24.0
521.258118 92.0
521.505554 68.0
522.269104 184.0
523.223999 88.0
523.44342 28.0
524.309753 64.0
524.567017 40.0
524.683838 56.0
525.241516 308.0
526.234619 92.0
526.627625 96.0
526.861694 36.0
528.252625 104.0
528.516357 24.0
529.894836 24.0
530.328796 84.0
530.746216 152.0
531.353027 104.0
532.150635 56.0
532.274048 384.0
532.818909 92.0
533.283325 100.0
534.80719 28.0
538.277039 128.0
539.194397 32.0
539.564514 44.0
540.296692 240.0
540.749695 36.0
541.270264 208.0
541.913269 44.0
542.0401 36.0
542.268738 1188.0
542.633911 44.0
542.838135 32.0
543.272766 440.0
543.569824 40.0
543.82251 44.0
544.090088 28.0
544.246338 1240.0
544.714783 72.0
544.982605 40.0
545.255249 196.0
546.054565 28.0
547.500427 24.0
548.223206 76.0
549.022888 32.0
550.261108 188.0
551.295532 124.0
551.654785 104.0
552.283813 64.0
552.523499 40.0
553.138 84.0
554.428101 44.0
555.04364 32.0
555.400024 44.0
555.462341 32.0
555.513062 40.0
555.689636 44.0
555.945068 28.0
556.576538 36.0
556.742004 36.0
557.294922 304.0
557.545105 116.0
557.745972 72.0
557.838989 40.0
557.958984 60.0
558.09082 64.0
558.296814 8616.0
558.534912 36.0
558.795898 56.0
558.904968 76.0
559.058777 32.0
559.120972 68.0
559.15863 64.0
559.295288 2780.0
559.538696 68.0
559.663757 28.0
559.829651 40.0
559.988586 28.0
560.275696 4328.0
560.535706 44.0
560.593079 40.0
560.780212 40.0
560.893005 36.0
561.274902 1184.0
561.656128 108.0
561.831726 64.0
561.988525 20.0
562.279175 160.0
562.441956 32.0
562.943237 132.0
563.061951 96.0
563.833618 28.0
564.136414 32.0
564.28241 56.0
565.211853 32.0
566.728394 28.0
567.001587 44.0
567.117188 52.0
567.502563 24.0
567.72052 148.0
568.125366 32.0
568.280029 1584.0
569.037354 168.0
569.292603 408.0
570.260071 1544.0
570.513306 32.0
570.877258 40.0
571.061584 60.0
571.266663 452.0
571.57959 40.0
572.243286 60.0
572.372375 32.0
572.494385 44.0
572.631653 24.0
573.257263 28.0
573.722351 68.0
574.112244 36.0
574.34137 80.0
574.87616 28.0
575.854797 36.0
576.298462 104.0
577.308899 52.0
579.163635 116.0
579.357361 176.0
579.808105 44.0
580.004456 76.0
581.328674 140.0
582.158936 136.0
582.907715 72.0
583.066772 24.0
583.302063 28.0
583.475464 24.0
583.744202 44.0
583.959839 32.0
584.190918 24.0
584.323975 188.0
584.637817 40.0
585.007812 36.0
585.333923 608.0
585.792786 116.0
585.92218 144.0
586.2901 13232.0
586.603821 36.0
586.72467 44.0
586.907288 104.0
587.294495 4644.0
587.592285 36.0
587.793457 88.0
587.885437 80.0
588.058105 112.0
588.281616 1312.0
588.601807 32.0
588.737183 48.0
588.892334 36.0
589.117859 36.0
589.281006 724.0
589.518494 32.0
589.688782 32.0
589.872864 36.0
589.955017 40.0
590.273926 208.0
591.299744 52.0
591.454773 36.0
591.640808 28.0
591.997498 40.0
592.509399 52.0
592.664612 28.0
592.99054 32.0
593.301025 124.0
593.565002 20.0
593.922241 40.0
594.419495 68.0
594.792542 36.0
595.010193 40.0
595.881287 32.0
596.145813 20.0
596.270386 64.0
597.625366 36.0
597.968201 52.0
598.685486 28.0
599.84021 64.0
600.341797 108.0
600.683594 36.0
601.355591 140.0
601.590088 32.0
602.374451 104.0
603.32843 76.0
603.593018 84.0
604.031616 28.0
604.319153 68.0
604.439026 24.0
604.679321 56.0
604.924927 64.0
605.097412 36.0
605.3797 56.0
606.399597 36.0
607.137024 116.0
607.350891 1004.0
607.671753 24.0
607.781738 64.0
608.158936 36.0
608.351746 320.0
608.630676 28.0
609.356018 76.0
609.684753 140.0
611.330994 324.0
612.156799 48.0
612.312134 540.0
612.609314 48.0
612.836792 24.0
613.325378 204.0
613.720825 24.0
614.526489 40.0
615.316833 32.0
615.759644 32.0
616.218445 32.0
617.595886 104.0
617.770203 64.0
618.324829 116.0
619.339722 172.0
620.149048 68.0
621.292542 56.0
621.768616 96.0
622.307495 48.0
623.232483 28.0
623.709961 48.0
624.315063 180.0
624.569946 28.0
624.975525 88.0
625.318909 128.0
625.693542 164.0
625.822021 100.0
626.144104 32.0
626.426941 132.0
626.71228 44.0
627.355713 792.0
627.80011 28.0
628.344421 1204.0
628.650574 104.0
628.865051 80.0
629.102478 44.0
629.335571 9596.0
629.639099 36.0
629.856567 68.0
630.046143 32.0
630.336121 3484.0
630.558289 28.0
630.670349 60.0
630.925476 36.0
631.05896 44.0
631.33606 376.0
631.781433 32.0
631.894714 36.0
632.109619 48.0
632.348938 216.0
632.782043 40.0
632.92395 104.0
633.041809 28.0
633.953125 60.0
634.229187 76.0
634.775146 60.0
635.032104 32.0
635.917603 40.0
636.366089 24.0
636.768188 44.0
637.041687 36.0
637.411804 60.0
638.120117 112.0
638.345581 24.0
638.49054 84.0
638.651611 44.0
639.325317 888.0
639.860352 28.0
640.318237 668.0
640.715271 32.0
640.97345 108.0
641.342651 408.0
641.69989 24.0
642.087524 36.0
642.216736 32.0
642.329834 76.0
643.121704 36.0
643.833191 132.0
644.09198 108.0
645.372437 144.0
646.374817 152.0
647.493835 40.0
647.948059 24.0
649.717957 32.0
650.807068 108.0
651.194885 52.0
652.206299 44.0
652.727356 72.0
653.356201 220.0
653.554321 148.0
653.683289 120.0
653.849548 64.0
654.085205 32.0
654.354614 396.0
654.625183 76.0
654.864502 124.0
654.996338 64.0
655.197876 80.0
655.359985 788.0
655.587341 192.0
655.822144 80.0
656.126892 72.0
656.34613 864.0
656.610962 32.0
656.940796 132.0
657.137573 164.0
657.331177 77592.0
657.749512 152.0
658.047119 200.0
658.06897 344.0
658.332703 27036.0
658.581299 136.0
658.780029 96.0
658.839294 116.0
658.991638 116.0
659.334106 4952.0
659.58905 76.0
659.623596 36.0
659.696106 84.0
659.878296 64.0
659.986572 84.0
660.337646 468.0
660.528198 28.0
660.71167 68.0
661.212769 112.0
661.489929 60.0
661.685608 44.0
662.098999 168.0
662.223816 32.0
662.437073 28.0
662.551941 52.0
662.763428 36.0
662.865784 72.0
663.077087 28.0
663.268616 48.0
663.331543 32.0
663.380798 64.0
663.5979 48.0
664.142639 36.0
664.423767 36.0
664.604492 32.0
664.76886 80.0
665.222961 52.0
665.459351 32.0
665.620728 44.0
665.684082 36.0
665.903381 44.0
666.107849 32.0
666.444397 68.0
666.620056 36.0
666.874268 36.0
667.220398 168.0
667.549377 32.0
667.697571 52.0
667.878784 44.0
668.158875 28.0
668.389587 44.0
668.554382 116.0
668.785156 36.0
668.933533 24.0
669.06543 24.0
669.25061 52.0
669.60968 32.0
670.137634 36.0
670.352173 32.0
670.814331 28.0
671.111572 80.0
671.375 476.0
671.755737 56.0
672.119263 76.0
672.391479 84.0
672.582092 56.0
672.860779 56.0
673.061584 40.0
673.357056 1836.0
673.582092 40.0
673.72876 68.0
673.905273 52.0
674.05426 24.0
674.364136 428.0
674.617065 24.0
674.848877 40.0
674.981323 36.0
675.356262 224.0
675.61084 32.0
675.989197 48.0
676.135803 108.0
676.366089 56.0
676.80304 52.0
677.53418 52.0
678.056458 136.0
678.480286 32.0
678.762573 32.0
679.559998 40.0
679.920898 28.0
680.890015 84.0
681.222717 120.0
681.355835 112.0
681.638733 40.0
681.892151 160.0
682.190857 24.0
682.359192 72.0
683.346252 256.0
683.627808 28.0
683.970703 52.0
684.154114 96.0
684.342163 144.0
684.704468 32.0
685.468811 148.0
685.789062 172.0
685.955994 28.0
686.223145 80.0
686.340088 92.0
688.044495 108.0
689.96875 148.0
690.236694 84.0
690.487915 92.0
692.19751 24.0
692.415527 180.0
694.46344 72.0
694.740662 80.0
695.085144 28.0
695.992981 32.0
696.228455 120.0
696.749939 28.0
697.237976 32.0
697.383057 136.0
697.541016 112.0
698.428284 532.0
698.686279 20.0
699.023315 32.0
699.376831 924.0
700.08551 48.0
700.389465 736.0
700.608459 44.0
701.362061 696.0
701.925171 72.0
702.094055 44.0
702.350525 236.0
703.372437 128.0
703.987061 52.0
704.105469 28.0
705.171509 144.0
706.509399 96.0
706.950012 116.0
708.119995 28.0
708.404785 76.0
708.544128 148.0
708.849548 32.0
710.581726 88.0
711.822754 28.0
712.162903 32.0
716.11499 136.0
716.934021 44.0
717.480347 40.0
718.949524 48.0
719.582031 132.0
721.29303 56.0
721.73822 32.0
722.252075 52.0
723.606079 76.0
723.828979 148.0
724.411499 180.0
724.652466 132.0
725.39502 572.0
726.412537 396.0
726.896973 80.0
727.414795 100.0
728.432495 128.0
728.94873 116.0
729.361877 52.0
730.153992 128.0
730.360718 116.0
731.618835 44.0
732.084412 144.0
734.362854 72.0
735.380554 144.0
737.994995 84.0
738.50885 60.0
738.739807 32.0
739.03064 36.0
740.265259 32.0
740.542786 40.0
740.698914 32.0
741.271545 44.0
741.730103 48.0
741.918762 28.0
742.108887 68.0
742.419006 7956.0
742.766785 36.0
743.065979 60.0
743.184387 28.0
743.224365 36.0
743.422119 4400.0
743.83075 24.0
743.940002 76.0
744.103149 72.0
744.259705 24.0
744.419434 1020.0
745.112061 32.0
745.411316 164.0
745.738586 32.0
746.226074 24.0
746.365417 68.0
748.334595 40.0
750.481018 76.0
750.65564 32.0
751.822205 52.0
752.013733 44.0
752.228333 68.0
752.399353 808.0
752.75293 88.0
752.875305 120.0
753.39679 372.0
753.662598 28.0
753.890137 72.0
754.053467 56.0
754.389038 168.0
755.396118 32.0
755.69397 68.0
756.360046 116.0
757.201721 28.0
757.394714 112.0
758.816345 48.0
759.009521 52.0
760.046021 144.0
760.503052 48.0
760.872253 36.0
761.259155 124.0
761.646118 44.0
763.617737 28.0
764.357727 20.0
764.48114 44.0
766.022583 116.0
766.265198 104.0
766.514832 196.0
766.582581 76.0
766.65741 164.0
766.88385 72.0
767.000244 64.0
767.048096 76.0
767.122314 84.0
767.166199 76.0
767.379883 36.0
767.685486 52.0
767.857849 72.0
768.198303 148.0
768.383972 100.0
768.551453 108.0
768.935547 168.0
769.395203 176.0
769.658569 196.0
769.772522 236.0
769.834717 248.0
769.900208 92.0
769.953979 176.0
770.067383 336.0
770.416382 127244.0
770.630127 344.0
770.755249 288.0
771.107178 276.0
771.419556 54300.0
771.623779 108.0
771.662048 144.0
772.093323 228.0
772.15741 140.0
772.420532 8324.0
772.686951 76.0
772.79718 64.0
772.991699 72.0
773.419861 1828.0
773.719727 72.0
774.090332 96.0
774.204651 72.0
774.386047 124.0
774.569702 76.0
774.948425 104.0
775.239441 52.0
775.373535 68.0
775.475281 36.0
775.713989 80.0
776.078857 60.0
776.379944 40.0
776.628601 28.0
776.815125 36.0
777.008789 40.0
777.207886 40.0
777.834412 68.0
778.045105 40.0
778.190735 60.0
778.379395 32.0
778.635193 96.0
778.806274 48.0
778.96637 60.0
779.213684 40.0
779.515503 28.0
780.12323 40.0
780.47937 36.0
780.621887 32.0
780.746521 40.0
781.00415 96.0
781.390808 24.0
781.797791 36.0
782.082947 44.0
782.602539 28.0
782.864624 24.0
783.206482 48.0
783.652527 60.0
784.00946 60.0
784.298706 40.0
784.473572 76.0
784.598572 36.0
784.718384 80.0
784.902161 28.0
785.08075 32.0
785.563049 40.0
785.902588 60.0
786.117004 28.0
786.832092 60.0
788.424316 32.0
788.746521 44.0
789.158325 32.0
789.391113 48.0
790.268982 64.0
790.555725 24.0
790.824585 56.0
791.649414 56.0
791.810852 56.0
792.402893 36.0
792.618225 32.0
792.76178 24.0
792.982117 44.0
794.180298 44.0
794.514404 88.0
794.75531 36.0
794.899048 32.0
795.546204 44.0
796.049683 56.0
796.265564 52.0
797.489197 24.0
797.651184 16.0
798.281433 124.0
799.200256 84.0
800.570435 40.0
802.382507 48.0
803.368469 40.0
804.416748 84.0
805.972351 36.0
806.551575 44.0
807.830933 56.0
809.468872 148.0
810.067444 36.0
812.336914 24.0
812.464111 64.0
812.972961 60.0
813.936523 24.0
814.209351 128.0
816.302429 28.0
816.97644 136.0
817.960632 36.0
819.657043 172.0
821.008057 36.0
824.207581 44.0
825.525757 128.0
830.72113 36.0
831.635986 100.0
832.720947 28.0
833.033691 36.0
833.622498 144.0
835.68512 80.0
837.953247 128.0
840.926758 96.0
841.148621 120.0
843.535217 28.0
846.555664 88.0
849.544434 192.0
850.715332 28.0
853.674133 84.0
854.065308 104.0
854.829285 72.0
856.171692 112.0
859.102539 116.0
859.420227 148.0
861.009399 140.0
862.019714 128.0
864.923096 188.0
868.526306 128.0
869.221558 100.0
872.25 40.0
877.000671 40.0
877.925964 104.0
878.68158 124.0
883.222412 108.0
885.098938 88.0
888.116882 100.0
888.249817 72.0
890.153931 136.0
894.434998 16.0
896.170715 148.0
898.61499 132.0
901.732422 104.0
904.375977 108.0
905.008667 32.0
906.063721 80.0
906.255615 116.0
907.234558 28.0
908.44458 176.0
909.597717 120.0
912.387512 140.0
915.355164 148.0
917.960632 112.0
918.269653 32.0
920.569763 40.0
920.956604 40.0
921.537048 116.0
922.040283 48.0
931.899475 32.0
933.53479 120.0
934.762207 48.0
936.146484 136.0
943.807617 96.0
948.650879 112.0
950.261536 64.0
952.089905 160.0
955.436584 136.0
956.441772 132.0
959.736816 72.0
964.363464 116.0
965.551514 68.0
969.398071 116.0
971.383789 120.0
975.849182 136.0
977.393066 56.0
982.081909 132.0
984.440613 92.0
986.501709 112.0
991.995239 132.0
995.029236 32.0
1005.735107 120.0
1009.539246 136.0
1011.829224 152.0
1012.397095 64.0
1013.391174 56.0
1013.878235 192.0
1014.446655 116.0
1016.254456 108.0
1017.00647 44.0
1044.635376 68.0
1054.98291 40.0
1057.282349 60.0
1060.331543 116.0
1064.175049 40.0
1066.109863 48.0
1070.464355 112.0
1074.368042 152.0
1079.011475 96.0
1080.163452 108.0
1081.35791 136.0
1086.562744 116.0
1092.201416 76.0
1096.925415 148.0
1100.073486 76.0
1108.291992 124.0
1113.752686 80.0
1116.349609 108.0
1138.136597 64.0
1144.618896 32.0
1160.004028 112.0
1168.399536 64.0
1170.27417 92.0
1170.775757 40.0
1172.390381 32.0
1176.366089 88.0
1207.363647 64.0
1207.927246 80.0
1234.390503 116.0
1246.468994 76.0
1267.123901 152.0
1276.877075 72.0
1284.450684 124.0
1294.293091 164.0
1298.194702 36.0
1304.035034 36.0
1305.785034 116.0
1317.512939 32.0
1330.641479 72.0
1331.292725 68.0
1340.028931 84.0
1350.081665 68.0
1350.925049 28.0
1351.229614 40.0
1352.588989 96.0
1358.197876 40.0
1362.19458 56.0
1368.082642 116.0
1394.855225 72.0
1399.906982 56.0
1409.774536 108.0
1420.229248 136.0
1434.631226 128.0
1437.892578 44.0
1438.182739 100.0
1480.946045 124.0
1530.165039 64.0
1569.690186 92.0
1623.097412 56.0
1633.746826 28.0
1644.638062 56.0
1678.129028 36.0
1685.056152 40.0
1906.845215 92.0
END IONS
