BEGIN IONS
PEPMASS=505.31
CHARGE=1
MSLEVEL=2
SOURCE_INSTRUMENT=LC-ESI-qTof
FILENAME=f.amcaraballor/20150613_CocultureEndophytes_01_All_mzXML/A1_Green_P1-F-4_01_23326.mzXML;
SEQ=*..*
IONMODE=Positive
ORGANISM=GNPS-LIBRARY
NAME=Strepin P1 M+H
PI=Pupo MT
DATACOLLECTOR=amcaraballor
SMILES=O=C(N[C@H](C(N[C@H](C=O)CCC/N=C(N)\N)=O)C(C)C)C(NC(CC(C)C)=O)CC1=CC=C(O)C=C1
INCHI=
INCHIAUX=
PUBMED=
SUBMITUSER=amcaraballor
TAGS=
LIBRARYQUALITY=3
SPECTRUMID=CCMSLIB00000840430
SCANS=276
136.072968 512.0
181.134308 496.0
220.134796 1828.0
240.172714 364.0
248.129166 1524.0
445.278229 936.0
487.303772 5348.0
488.30127 2056.0
505.306427 2660.0
506.310852 1284.0
END IONS
