BEGIN IONS
PEPMASS=613.5
CHARGE=2
MSLEVEL=2
SOURCE_INSTRUMENT=DI-ESI-Hybrid FT
FILENAME=Syringomycin_E_FT_613.5mz.mzXML
SEQ=*..*
IONMODE=Positive
ORGANISM=GNPS-LIBRARY
NAME=Syringomycin E M+H
PI=Dorrestein/Moore
DATACOLLECTOR=Roland Kersten
SMILES=ClC[C@@H](O)[C@H]1C(=O)OC[C@@H](C(=O)N[C@H](C(=O)N[C@H](C(=O)N[C@H](C(=O)N[C@H](C(=O)N[C@H](C(=O)NC(=C/CC)\C(=O)N[C@@H](C(=O)N1)C(O)C(=O)O)Cc2ccccc2)CCC/N=C(\N)N)CCN)CCN)CO)NC(=O)CC(O)CCCCCCCC
INCHI="InChI=1S/C53H85ClN14O17/c1-3-5-6-7-8-12-17-30(70)25-39(72)60-37-28-85-52(84)40(38(71)26-54)67-50(81)41(42(73)51(82)83)68-46(77)31(14-4-2)61-47(78)35(24-29-15-10-9-11-16-29)65-43(74)32(18-13-23-59-53(57)58)62-44(75)33(19-21-55)63-45(76)34(20-22-56)64-48(79)36(27-69)66-49(37)80/h9-11,14-16,30,32-38,40-42,69-71,73H,3-8,12-13,17-28,55-56H2,1-2H3,(H,60,72)(H,61,78)(H,62,75)(H,63,76)(H,64,79)(H,65,74)(H,66,80)(H,67,81)(H,68,77)(H,82,83)(H4,57,58,59)/b31-14-/t30?,32-,33-,34-,35-,36-,37-,38+,40-,41+,42?/m0/s1"
INCHIAUX=N/A
PUBMED=N/A
SUBMITUSER=mcruesemann
TAGS=
LIBRARYQUALITY=3
SPECTRUMID=CCMSLIB00000075330
SCANS=23
165.223389 3630.226318
165.333786 3283.08667
165.429855 4326.938965
165.43898 3081.349121
165.636459 3148.43042
165.913849 2714.296875
165.931564 2988.380127
166.054871 4078.42041
166.082169 2918.550537
166.305099 3209.055664
166.322998 3354.80957
166.650208 3103.218018
166.820892 3006.480713
167.030975 2953.478271
167.208267 3220.900879
167.225403 3580.973389
167.38562 3169.553223
167.502441 3066.715088
167.637222 3514.468018
167.80455 2797.640381
167.808563 2906.258057
167.90303 2965.331055
168.23671 3381.067383
168.516693 2844.781738
168.521439 2871.562256
168.699158 2700.179199
168.799484 2855.160889
169.028809 3008.243164
169.130188 3256.173096
169.169769 3374.388916
169.361435 2850.522217
169.402618 3419.144287
169.575592 3212.761719
169.620361 3699.796631
169.628113 2552.269531
169.628403 2652.863037
169.714966 2687.413574
169.747452 3220.427979
169.751083 3204.250244
169.801025 3389.415527
169.948029 3389.16748
169.962021 3279.34375
170.037643 3683.517822
170.154236 2584.500732
170.240692 3099.64209
170.510223 3449.47168
170.558807 3508.8125
170.756821 4301.987305
170.757568 3609.789551
171.015167 3318.570557
171.106277 3591.942139
171.226196 3158.526123
171.439468 3478.611084
171.517426 3208.412842
171.570175 3355.148682
171.726151 3449.686768
171.924774 2907.917969
171.988968 3178.777832
172.160309 3177.94165
172.208038 3441.303223
172.325256 4402.506836
172.348053 3444.003418
172.811813 3020.109619
172.91478 3326.516357
173.151199 2981.378418
173.26796 3692.233154
173.275482 2969.538574
173.29866 3358.174072
173.401459 3042.926758
173.604416 3418.041748
173.689041 3332.556885
173.837173 2898.224854
173.84108 3058.075684
173.877396 3033.125
173.941971 2878.636475
173.983994 4420.61084
174.103806 3281.986816
174.350281 3732.320801
174.378342 2628.006836
174.399368 3891.62207
174.479797 2965.755859
174.849487 3717.840576
174.89859 3968.602783
175.066116 3406.185547
175.148773 3853.721436
175.187119 3299.597656
175.251617 3789.924072
175.673798 2925.638916
175.696625 2983.657715
176.240784 4027.571045
176.315781 2945.97583
176.49263 3240.146729
176.587906 2970.617432
176.899033 3183.100342
176.906616 3405.749512
177.274933 3034.134766
177.58638 3367.384033
177.709305 3395.515137
178.200043 3513.574707
178.209717 3443.750977
178.231415 3197.499512
178.373306 3960.124512
178.478943 2992.466309
178.689713 3591.511475
178.968597 3206.222412
179.090286 3624.856445
179.148087 3061.693604
180.019302 3063.27832
180.071808 2911.543701
180.099731 3715.986572
180.589691 3660.796387
180.736877 3564.953369
181.03064 2944.610596
181.035278 3823.862549
181.073303 3220.018799
181.373474 3017.416992
181.437424 3306.972168
181.811829 2979.378418
181.933243 2919.121582
182.081543 3227.164551
182.146805 3819.25415
182.155624 5282.15918
182.33989 3199.438721
182.440613 3151.52002
182.599365 3044.429199
182.894012 3155.132324
183.093826 3523.546387
183.197128 2660.912354
183.323395 2834.911865
183.370087 2759.996094
183.406723 3071.091797
183.527924 4596.210449
183.630951 2979.128906
183.718384 2788.747314
183.739243 3445.338135
183.955429 2744.239014
184.027374 2643.134521
184.037033 3353.233887
184.088379 2988.077637
184.269501 3144.486328
184.436371 3615.18457
184.442291 3758.608643
184.460022 2669.048584
184.774933 3985.50415
184.940674 3026.643799
184.953232 3825.438721
185.041641 2899.138672
185.21048 2947.269775
185.411057 3907.900879
185.434143 2473.947266
185.592361 2938.708496
186.186539 2916.545166
186.188553 2559.777344
186.201218 2692.843994
186.209396 3025.873779
186.892532 3181.401367
186.893524 3033.188965
186.918228 3506.636719
187.127213 2943.907715
187.233261 2647.650879
187.302383 3037.817627
187.431595 2980.4375
187.448868 3281.666016
187.501068 2727.491211
187.647797 2439.243896
187.742371 3228.879395
187.868134 3597.410645
188.034393 3073.992676
188.101166 3684.760254
188.102951 4080.906738
188.797577 3254.061035
189.030457 3455.255859
190.124222 3190.13501
190.190201 3147.727051
190.352142 3276.121582
190.465988 3439.089844
190.799271 3121.114258
190.802643 3376.06665
190.858612 2694.407227
191.126404 2966.335449
191.212173 3365.716309
191.463379 3072.383789
191.610687 3278.685547
191.624985 3604.6521
191.657379 3088.786377
191.985916 2990.179688
192.005646 2872.783691
192.524292 3073.794922
192.542099 3229.825928
192.555771 2785.779053
192.661728 3139.183594
192.667831 3054.071289
192.783463 2946.966064
192.974823 2715.632324
193.149765 2667.429932
193.15065 2747.694824
193.420166 3572.349365
193.666809 3151.189941
193.711349 3090.325928
193.798111 3566.501221
193.827133 2757.520752
193.919388 2780.967773
193.929031 2840.235596
194.14653 2935.648438
194.319092 3524.447021
194.805267 3024.721924
194.914917 3703.558594
195.423798 2841.645508
195.599335 3177.031738
195.677612 2984.960205
195.951797 2929.922119
195.961044 2761.103516
196.133224 2951.490234
196.146667 2935.523682
196.259064 2909.27832
196.465271 2618.369873
196.815872 2921.203125
196.967041 2961.21875
197.415024 3078.491699
197.434906 2838.622559
197.451096 3009.688721
197.635559 3376.268799
197.690384 4011.771973
197.832825 3221.003662
197.857666 3221.02124
197.92131 3705.563232
197.961395 2606.024902
198.097168 4177.243652
198.166519 2982.327393
198.272202 3738.085693
198.413528 3271.533936
198.777924 3070.721924
198.793823 3216.394043
198.9245 2825.004395
198.955551 2869.067627
199.071548 6338.349609
199.262131 3956.833496
199.437042 3249.283447
199.546021 2833.235107
199.563354 2726.511475
199.769226 3520.546143
199.813889 3640.150146
200.047562 3829.459473
200.094452 2864.54541
200.329376 3056.183594
200.381287 2845.671875
200.495056 2644.022217
200.587296 3218.987793
200.771042 2504.413574
200.771774 2848.951904
200.826401 3081.925781
201.026169 2732.425781
201.085632 2964.377197
201.341049 3564.023682
201.580475 3513.45166
201.679855 2852.159424
201.689178 3585.198242
201.830658 3226.095703
201.854324 2880.675537
202.072479 3427.160156
202.128922 4669.47998
202.247543 2898.082275
202.384155 4414.623535
202.614868 3313.766602
202.903595 3574.258789
202.989487 2870.445801
202.991516 5750.200684
203.037308 2969.042725
203.054337 3144.850098
203.139206 3512.780518
203.433167 3454.437256
203.506271 3962.53418
203.610626 2903.353027
203.624237 3208.232178
203.730148 2575.820068
204.14592 2563.217773
204.154968 2584.89209
204.434067 15983.244141
204.478088 3102.590088
204.508743 3671.557373
204.83139 3093.131348
205.051498 3097.334717
205.055908 3364.900391
205.341309 3194.874268
205.489807 2748.688965
205.596817 2812.169922
205.675751 3563.525635
205.835922 3590.814697
205.956329 3371.713379
206.609909 3078.390869
206.62117 3273.517334
206.752731 3447.283936
206.859131 3155.171387
206.874283 2827.1604
206.953354 2717.12207
207.050629 3539.872314
207.240387 3071.965576
207.347656 2878.153076
207.631714 2629.899414
207.657211 3229.580078
207.790848 2585.69458
208.084259 3098.116943
208.089325 4217.279297
208.327759 3062.359619
208.346161 2946.390625
208.398239 3105.031738
208.420898 3207.551025
208.440414 3773.423096
208.567123 4170.303711
208.941422 2894.782959
209.130997 3478.171631
209.271759 3382.172119
209.483688 2752.773438
209.567352 2851.287842
209.587494 3239.740234
209.639389 4195.824707
209.654099 3397.094238
209.744766 3125.532227
209.792908 3498.254639
210.135818 4060.892578
210.303726 2747.836182
210.483704 2874.304443
210.694778 2800.012207
210.849609 3026.999023
210.860535 2627.987793
210.931183 3411.547607
211.079285 3158.22998
211.304321 3619.655762
211.377991 3399.219971
211.378937 3517.591064
211.884735 3081.765381
211.917969 2644.507324
212.294189 2882.192871
212.501389 2846.912842
212.924423 3200.992188
213.079498 3235.478027
213.200378 2693.873779
213.238297 2617.097412
213.348206 3857.564209
213.396744 2997.474365
213.449005 3505.526855
213.510452 3209.839844
213.588882 3249.248779
214.66571 4184.004883
215.106339 3180.494141
215.379395 4285.939453
215.398712 2972.805664
215.554199 3946.415283
215.773575 2676.437744
215.87233 2596.412598
215.969818 3264.247559
216.061417 3553.265625
216.243378 3560.629395
216.701508 3292.089111
217.116684 3147.230469
217.433258 3237.004883
217.715302 2541.516602
218.075058 2647.58374
218.273972 2988.02124
218.385971 2868.62915
218.711304 3058.181396
218.853607 3220.154053
218.949677 3078.114258
219.017593 2875.25
219.062561 3813.591064
219.096146 3536.60376
219.265564 3598.587158
219.287735 2836.659912
219.31778 3385.380371
219.48291 3442.430664
219.781479 3288.701904
219.906647 3019.432129
220.414627 2630.917236
220.470795 4023.720459
220.724426 2808.473145
220.745087 3211.850586
220.871063 3171.651123
221.007629 2762.92627
221.076309 3263.352295
221.202621 3439.184082
221.36731 3148.658936
221.395752 3393.666748
221.572601 3864.415283
221.86377 2776.4375
221.881439 3086.072021
221.903198 3104.443848
221.916519 4401.405273
222.133804 3569.419922
222.14534 3059.243408
222.230484 2780.421875
222.231049 2725.578125
222.238251 2917.507324
222.467422 3643.809082
222.55513 2986.778564
222.657883 3464.75708
222.711273 2369.548828
222.824783 2852.560059
222.876724 3106.707031
222.971451 2631.443115
223.358551 2616.63501
223.359528 3069.323486
223.44281 3475.877441
223.742004 2925.351074
224.142685 3577.26123
224.224121 3087.891357
224.551895 3266.921631
224.591736 3138.613525
224.694855 3047.593018
225.086487 3371.953125
225.17189 2876.111816
225.337723 3427.436279
225.657166 4249.357422
225.661316 3242.872314
225.917633 3000.849854
225.973572 2700.556396
226.330093 2947.012207
226.763916 2803.519043
227.205658 3186.427246
227.641113 9464.180664
227.663834 3615.255371
227.918945 3229.334717
228.14447 3292.857178
228.508453 3797.179199
228.566208 2871.654297
228.576965 3328.432129
229.010025 3433.505859
229.073608 2981.187256
229.09082 3506.088135
229.206039 3100.600098
229.223297 3898.725098
229.32164 2938.710205
229.461029 3388.577637
229.867462 2826.005371
229.930084 2730.156494
229.954407 4217.486328
230.003448 3366.06958
230.033295 2863.996094
230.187637 3767.94165
230.4543 4432.969238
230.988617 3960.51001
231.0009 3022.706787
231.094666 3226.186768
231.293381 3063.746094
231.580444 3219.87793
231.625854 2915.271973
231.711105 3764.747314
231.828842 3375.023193
231.842117 2965.212158
231.854004 3446.057617
231.888657 3302.111572
232.158524 2988.14502
232.292145 3200.385498
232.718124 2878.156982
232.802261 2826.680176
232.80336 2784.027832
233.084778 3005.974365
233.131363 3089.506104
233.219147 3085.532227
233.288147 2617.69751
233.299377 3101.687256
233.304504 3816.588623
233.439926 2837.661133
233.441071 2779.292969
233.854843 2786.812744
234.760544 3252.097656
235.387009 3474.727295
235.524796 3579.591309
235.750961 3300.557861
236.492722 2902.86377
236.541763 3004.83374
236.639633 3159.862305
236.675568 3091.226807
236.804367 2698.658691
236.919678 3266.874268
237.238754 4460.396973
237.247375 3138.203125
237.711716 3956.291504
237.933975 4287.143066
238.287674 3426.171143
238.335159 2940.808838
238.812607 2915.680664
238.907303 3023.325684
238.991257 2931.468506
239.108871 3191.062012
239.114105 8883.769531
239.161652 7367.372559
239.348358 2970.120117
239.466141 3884.129395
239.74295 2994.168701
239.767914 2997.717773
240.097992 5343.051758
240.134735 2628.699707
240.404465 3471.868896
240.503311 4048.554443
240.693695 3227.902344
240.829453 2773.974365
240.892593 2630.438721
241.023987 2999.9375
241.164139 3555.560547
241.317291 2831.463379
241.543289 3259.23584
241.583267 2853.892578
241.630249 2706.013428
241.807907 3219.19751
242.25267 2634.68042
242.299545 3932.956543
242.341187 2495.432373
242.398849 2863.696777
242.476959 3903.071777
242.733459 3040.573242
242.784042 2762.002686
242.828186 3547.816895
243.079605 3276.165527
243.091431 2928.807861
243.17807 3243.882568
243.184265 3425.491455
243.292618 3878.800781
243.665527 4011.028809
243.669022 3615.895752
243.805801 3225.532471
243.921753 3666.455322
244.074081 3898.065186
244.609177 2826.000732
244.640518 3261.16333
244.923218 2827.605957
245.550858 4011.90332
245.574371 2919.813965
245.686722 3142.13208
245.967117 3537.615234
246.066071 3476.055908
246.392609 3253.03833
246.438248 2948.737549
246.479675 3022.590088
246.757065 3918.022461
246.862198 3145.334961
247.334808 2705.54541
247.653137 3049.4646
247.819626 2705.720459
247.83696 2857.785889
247.952454 3776.794678
248.235489 3101.221191
248.637634 3644.148438
248.640411 3605.50415
248.723541 3059.117676
248.875168 3282.324219
249.038132 3007.877686
249.638367 3001.648926
249.645569 3532.127197
250.240707 3298.308594
250.625244 3049.494873
250.866974 3495.917725
251.021606 3509.166992
251.113998 20983.720703
251.249451 2695.648682
251.96637 4842.180664
252.155228 3104.697754
252.157547 3385.588379
253.244385 4103.067871
253.577911 2936.913818
253.594559 3418.565918
253.731964 4143.322266
253.989914 2743.317871
254.2285 3216.882324
254.363892 3224.719971
254.904694 4925.225586
255.02977 2898.430176
255.113007 3497.508301
255.23938 3332.303223
255.364075 2952.605713
255.79422 3311.747803
255.966248 3052.129883
257.171967 11597.799805
257.339844 2745.314941
257.613159 3147.017334
258.017883 3207.831543
258.062256 3046.954346
258.373169 3050.800537
258.421082 3410.514404
258.818512 3263.710938
259.130707 3367.12793
259.388794 2711.089844
259.464905 2721.29834
260.204468 3519.296875
260.449432 3572.250732
260.74884 3144.373535
261.943878 3248.62915
262.425659 2822.945557
262.960022 3542.106934
263.015625 2988.838135
263.110657 6660.004883
263.114044 27470.464844
263.349915 3413.674561
264.288574 3096.186035
264.465118 3902.968262
265.054291 3486.50415
265.570251 3398.114502
265.751862 3237.426758
265.799286 3051.731201
266.226776 3623.200928
266.246948 3076.349854
266.523499 3816.702881
267.09787 3017.491699
267.174561 3012.082275
267.293793 3530.654785
267.798157 2926.175781
268.190735 14068.912109
268.752167 2937.798584
269.038818 3143.29541
269.229187 3236.696777
269.380524 3697.884766
269.43396 3153.770752
270.257874 3442.175293
270.506989 3069.191895
271.174469 3216.655029
271.457611 3634.084961
271.900177 3673.851807
271.939636 3914.384033
271.997498 2964.784912
271.998383 2950.494873
272.32608 3505.706787
272.586426 3069.732666
272.858246 3236.856201
272.870697 2690.350342
273.04184 3622.652588
273.151978 3306.837158
273.289459 3709.408447
273.414124 3653.483887
273.9039 2743.350098
274.057831 3303.502686
274.060425 3034.583008
274.618073 3460.549561
274.674927 3122.911621
274.817657 3991.324219
274.913544 2995.332764
275.347076 2930.188965
275.575867 3216.539551
275.632202 3390.27124
275.747986 3016.989502
276.21637 3290.950439
276.39386 3333.433594
276.495453 3271.619873
277.098389 3862.57251
277.227234 3164.443848
277.385376 2668.761963
277.468536 3312.741211
277.867096 4084.894287
277.937256 3581.59082
278.582001 3874.95166
278.852478 3398.447998
278.854309 2772.260254
279.049805 3066.848389
279.138947 3859.330078
279.879089 3200.100098
280.496674 3127.367432
280.507019 3636.6604
280.71225 3182.9375
280.756317 3734.480713
280.905396 3448.861816
280.917786 4250.077148
281.037567 3743.608398
281.118652 4477.250488
281.120941 7037.792969
281.124481 85100.195312
281.205994 4064.646484
281.554718 2992.96875
281.661713 3614.589355
281.756104 3093.412598
281.931519 3820.709473
282.124512 2770.018799
282.12738 9029.054688
282.213196 4485.347656
282.410614 2994.060303
282.412964 2731.491943
282.468628 3562.043945
283.013916 3472.647949
283.062164 3030.647461
283.464203 3597.425537
283.905792 2547.805664
283.906952 2513.421387
283.947784 3687.345947
284.261261 3180.967773
284.40213 2971.729248
284.857147 2845.098633
285.048767 7066.681641
285.206116 3107.51123
285.263611 2904.341797
285.314423 2832.40332
285.369537 3153.630615
285.746033 4591.379395
285.809021 2944.651367
286.802795 3609.936768
286.974945 3408.698975
287.045776 4245.537109
287.149231 3464.087646
287.230499 2947.544678
287.343842 3122.413818
288.247406 3037.380859
288.628693 2910.587891
289.451202 2968.727295
289.584045 3260.875488
289.646942 3007.665527
289.718811 2992.870605
290.551331 3084.193848
290.809509 3779.220215
291.16098 4424.426758
291.723999 2865.41626
292.01535 2844.298828
292.677094 3032.541504
293.095337 3569.896973
293.292938 3397.331543
293.399445 2665.096436
293.449158 3409.830078
293.73819 3227.287109
294.282471 3707.349609
294.336792 3056.899902
294.481812 2646.265869
294.51712 3127.705078
294.94342 3413.068848
294.968628 3066.572998
295.851288 2780.949707
296.197937 3168.594238
296.52298 3531.153564
296.843964 3713.599854
297.523407 3388.558594
297.540314 3750.849121
297.845764 3259.881104
298.008698 2999.505127
298.376343 2968.343262
298.495453 2685.455566
298.666687 2730.281738
298.903503 3503.690186
299.05722 3208.195068
299.130707 25349.523438
299.13504 213148.78125
299.140228 3432.268799
299.3685 3547.085449
299.407227 3742.273926
299.582214 3083.023438
299.595306 2969.324707
300.126892 3132.694824
300.138428 25253.34375
301.199249 3428.8125
302.311249 2854.39917
302.886169 3440.805176
303.980011 3436.986572
304.158234 3084.580078
304.176819 16354.890625
304.273743 3893.279785
304.344055 3001.184814
304.508331 3079.243896
304.975372 3030.492676
305.718231 2890.877441
306.680267 2895.81958
306.744934 4785.402344
307.284882 2993.385742
307.39798 7629.623047
308.170044 3239.827393
308.398956 3388.700684
309.217285 9339.941406
309.348297 4030.424561
309.395172 3282.08374
309.4198 3463.824707
309.510468 2868.338135
309.797668 3907.947754
309.920502 2934.2854
310.153625 4081.406738
310.586456 4016.49707
310.66806 3157.031982
310.917542 3303.376953
311.41684 3359.595459
311.862915 3506.166504
311.89502 3219.463379
312.412292 3702.003906
312.825989 3434.168945
313.273071 2957.609375
313.899536 3353.780029
314.116943 3251.837891
314.618347 2931.145752
315.43399 3572.003418
315.506958 3548.795166
315.790222 3284.097412
315.797424 3486.948975
315.829773 3491.524658
315.843689 2979.572266
315.902588 3533.188477
316.19577 3164.851318
316.47821 2595.557617
316.553864 4086.189209
317.240845 3346.32959
317.440552 3612.068604
317.533203 3764.343994
317.537659 3029.530762
317.95285 4514.022461
318.024353 3660.203857
318.768402 3806.173584
319.199524 3862.907715
319.762695 3756.066162
320.121429 3701.811523
320.41098 2909.425293
320.715088 3497.265137
320.839874 3888.820068
321.218842 3033.486084
321.920776 2918.625
322.09317 3279.452148
322.511444 2907.066406
322.747345 2924.458984
322.997772 3354.374268
323.253387 2782.520996
324.068298 3092.899658
324.895264 3024.303223
325.046326 3310.952393
325.189514 3270.052002
325.358002 2974.519531
325.752991 2930.053467
326.000824 2972.872559
326.016327 3890.963135
326.041779 3302.618408
326.566589 2809.342041
327.228149 5037.046387
327.566711 3866.758789
327.604584 3803.143555
327.853912 3388.180908
328.254883 3047.096924
328.536621 3194.739502
328.558685 3063.668457
329.172241 2733.530518
330.273376 2840.387451
330.617889 2855.167236
331.32077 3075.845703
331.639526 2583.812256
331.640808 2518.470459
331.891998 3420.01709
331.969757 3076.494629
332.75769 3147.889648
333.106384 3887.463135
333.167969 4050.905029
333.27594 3391.425781
333.687775 2971.400635
334.851898 2897.759766
335.42868 3804.810303
335.623566 7661.95459
336.128784 9403.916992
336.23999 3301.290039
336.621552 3862.249023
337.051727 3049.885986
337.108765 3523.543457
337.212524 14622.158203
337.768463 3161.34668
338.146271 8774.28125
338.215027 3927.223389
338.489807 3698.800781
338.668457 3783.083008
338.997253 4034.828369
340.288086 2900.556641
341.393494 3723.680664
341.410492 2821.962891
341.674622 3133.312988
342.045593 3215.900146
342.061371 2779.958496
342.234314 3251.278809
342.93634 2907.884521
344.065887 3365.354736
344.456329 2954.828125
345.384155 3351.776123
345.810974 3770.062012
346.099182 3287.766357
346.486847 2909.861816
347.031555 2651.250977
347.308716 3280.577881
348.082794 3142.449463
349.202576 3700.907227
349.242676 3074.113037
349.324829 2752.741455
349.331055 3969.764404
349.340302 3798.432373
349.381226 5045.647461
349.564545 3281.526123
350.067261 3026.571289
350.352875 3019.375488
350.484863 4170.017578
350.710754 3807.726074
350.767395 3527.136963
350.894135 2958.046387
350.98587 4534.377441
351.296143 3117.286621
351.800323 3341.646484
352.516571 4147.660156
353.309631 3710.568604
353.59726 3135.333496
353.616669 3004.237793
354.196686 3252.191162
355.110168 3500.63501
355.215485 4720.527832
355.222931 47126.71875
355.670471 2831.931396
356.100403 2817.302979
356.226288 4671.506836
356.333588 3306.393311
357.543457 2797.914795
358.260895 3491.972168
359.835602 4290.675293
360.249817 3118.415283
360.993805 2868.558105
362.30835 3290.689209
362.938324 3270.076416
363.381134 3241.533203
363.857758 3145.193115
364.836548 3298.773193
364.920105 3340.590576
366.333923 3122.707764
366.976379 2929.609619
367.300415 4040.243408
367.661896 3604.397461
367.683777 3736.294922
368.63208 4291.234863
369.068024 4089.277344
369.203186 5230.020996
369.595947 4755.008301
369.705017 2889.265625
370.179932 2637.171875
370.187317 12132.332031
371.462189 3090.115723
372.190735 3201.561523
372.87149 3207.900879
373.163147 3865.471191
373.195923 3285.963867
374.089325 3529.566162
375.013275 3127.60376
375.389038 3526.605225
375.655731 3935.29126
375.695526 4861.469238
375.952484 3374.333008
376.649139 5254.472168
376.653564 11934.675781
376.747253 3177.508545
376.881897 3571.342041
377.650269 6568.390625
378.244049 3589.693848
378.68045 3521.439209
379.042816 3995.546875
379.791656 3404.631104
380.34491 3257.442627
381.105377 2729.071533
381.188049 10010.460938
381.347992 2694.300537
381.414154 3551.381592
382.184509 3775.779785
382.339325 3889.887207
382.458862 3295.838623
383.287415 3376.930908
383.450623 2803.208008
383.493713 2712.892822
384.079651 2638.340332
384.081848 2604.376221
384.496002 3688.099365
385.653107 3656.030273
385.658752 18790.927734
385.890198 2902.669434
385.930847 2950.211182
386.229279 4135.196289
387.029755 4093.082275
387.206726 16838.513672
387.214142 105361.109375
387.234009 4062.297119
388.217529 19099.662109
388.342499 3714.720703
388.477173 3428.496094
388.852386 3125.9104
389.025177 3209.705566
389.907043 2992.321045
390.267487 3391.785156
390.983856 3182.572998
393.314606 3023.31958
393.36084 3931.977295
393.692719 2747.305664
393.925964 4794.854492
394.724701 4431.713379
396.022064 3106.799072
396.733246 3983.453857
396.904938 3892.453125
397.407867 3111.953369
397.903778 3035.93042
398.253357 3460.57373
399.149994 3027.56958
399.565491 3768.189697
400.126282 2817.54834
400.211578 3520.044434
400.909088 3203.020264
401.064331 3099.201904
403.215637 4211.591797
403.280457 5296.802734
404.240967 11733.461914
404.876648 3946.549561
405.243103 3402.698975
405.4086 3365.116455
405.659149 3414.47168
405.696106 3224.228516
405.825745 3908.217041
405.92215 2942.078125
406.430664 4502.045898
406.481262 2777.240723
406.651367 3304.683105
407.597382 3457.060059
407.620667 2854.11792
409.089417 3760.38623
409.383118 2955.06665
410.086334 3410.289795
410.486481 3407.956055
411.462738 3402.103271
412.698914 3318.615234
413.307983 3331.523682
413.759125 3118.641846
414.069397 3123.903809
414.073425 2805.573975
417.25882 3093.067627
417.963806 3980.218994
419.256531 3813.234619
419.265442 27927.132812
419.489014 4356.94043
419.652893 3438.828369
419.693878 3379.092041
420.104218 3253.780518
420.268921 6758.217773
422.491425 3103.950928
423.788177 3350.657227
424.05957 3717.386963
424.074677 2943.332031
424.79538 3233.637451
424.923492 3633.820801
425.066742 3672.322021
425.128998 2994.242188
428.191162 4129.525879
428.277069 3143.565186
428.90802 3656.088379
429.431824 3431.537354
429.542114 3428.740234
430.050049 3535.817627
430.212158 3393.50708
430.586578 3198.282227
432.471069 3348.226807
432.675781 3804.450928
434.849823 3900.895508
436.199097 4161.664551
436.83429 3712.730469
436.909607 3764.562988
437.266785 21592.894531
437.276154 238460.28125
437.927765 3553.618652
438.270416 5339.914062
438.279419 55316.019531
438.687866 3739.480469
438.857178 3145.995605
440.778015 4299.524902
441.04599 4025.343018
443.127563 4074.073242
443.345581 3520.234375
443.500946 3674.592529
443.753876 2773.420898
444.235687 6224.893066
445.178467 4265.739746
446.242706 4093.384766
446.250977 15335.482422
446.84256 4428.837402
448.046143 2884.826904
448.091522 3420.125244
448.111115 3137.192627
449.121002 3938.67041
450.160736 2679.661377
450.164398 3008.639893
450.324066 3510.312256
450.624664 4594.64209
450.884949 3456.804932
451.689087 3740.234619
451.822662 3011.268799
452.240448 9915.259766
452.512634 3232.287354
452.726318 3358.442383
453.224915 17568.65625
454.054291 3324.340088
455.265808 4950.554199
455.276062 49841.011719
455.286682 494427.65625
455.366211 4058.852539
456.006409 3135.726074
456.279846 11527.794922
456.290039 96502.359375
456.303497 4256.879883
457.29364 5905.16748
458.70575 2966.625244
460.940063 4776.458496
461.463684 3184.144531
461.643677 3348.37915
462.193207 4255.199219
462.277222 3623.153809
462.778137 3872.509277
462.879303 2964.730713
464.567596 3123.994141
465.41452 3409.478027
465.449097 3958.758545
465.74472 3089.574463
466.231842 3106.471191
466.964355 3400.653564
467.412079 3321.453613
468.062347 3277.830811
468.112885 3280.105225
468.259064 3401.017334
468.300171 3143.738037
468.573761 2898.069336
469.266998 19218.546875
469.692139 3985.138672
470.251007 14148.560547
470.565491 3461.429443
470.62674 3754.497559
472.471497 2871.368896
475.005127 2867.442383
476.573883 2930.064209
477.304291 3087.039062
480.896851 3739.564453
481.112885 3971.731201
481.182678 7294.848145
482.249878 3493.758545
483.199921 4253.308105
485.152191 2884.691895
485.731018 3695.171387
485.957611 3215.325684
486.937225 3664.611572
486.964874 4475.838379
487.102997 4371.041504
487.249451 2995.544434
487.266388 6510.459473
487.278076 87860.234375
487.331268 3203.41626
487.746063 2724.800293
488.19342 3274.676758
488.281677 16058.299805
490.017212 3046.837646
490.874451 2954.249756
490.909027 3064.96875
491.036316 3221.044434
491.05542 3408.004639
494.377441 3340.123779
494.393616 3639.675537
495.019653 3218.445312
495.964569 3519.012451
499.240906 4047.947266
499.349213 3266.958252
499.659576 3761.023926
500.213379 8566.585938
500.225769 54661.691406
500.851715 3641.928223
501.228912 9677.782227
501.61676 3564.938965
501.639221 3198.663818
502.206696 2647.852783
502.253052 4035.926025
502.975372 3305.975586
503.01889 3179.911133
503.371552 3547.566406
503.436615 4366.007812
503.46756 2936.763672
505.216614 5454.957031
505.288055 5861.686523
506.203918 3868.284668
506.731506 3812.74585
507.783386 4133.743164
508.267059 3628.556885
508.282257 4590.109863
508.398163 3485.749268
509.247498 3367.003906
509.477081 3557.445801
509.693787 3642.980225
510.269897 3566.35498
510.28009 3614.973389
510.91275 3539.544678
511.136963 3269.69458
511.27832 3542.818115
511.383545 3612.476562
511.978638 4406.713867
512.583313 3192.448242
514.073792 3816.792236
514.221802 11956.368164
514.256714 4032.652344
515.154114 7905.882324
515.19104 2919.924561
516.613342 3530.6604
517.151184 4107.415527
517.216675 20481.896484
517.287354 5142.188477
517.460205 3179.964111
517.655151 3641.695068
517.708984 10238.219727
518.11438 3363.36499
518.213989 5790.318359
518.223267 4284.556641
518.236084 70558.335938
518.355469 3402.577148
518.708069 3801.026367
518.782654 9480.00293
519.239319 17754.041016
519.27533 8743.738281
519.285095 9065.673828
519.330139 3903.340088
519.756592 3505.621338
520.518616 3553.124023
520.895752 4668.254883
521.071045 5069.129395
521.257629 3113.931885
523.155518 3826.713623
523.822815 3618.199463
524.45575 3611.684326
525.052429 3716.884521
526.222229 19308.480469
526.274841 3097.591797
526.288147 5045.978027
526.714478 3731.325195
526.723328 11573.327148
527.220337 6222.271973
527.788452 14343.517578
528.289978 6963.346191
528.303589 8506.407227
528.370605 3215.346436
528.475403 3611.295654
529.616455 4828.193848
531.201782 2775.806396
533.747925 3532.544922
534.889282 2974.489258
534.946289 3158.163574
534.987732 3646.57959
535.832092 4138.812012
536.228149 3694.4646
536.247742 4647.699219
536.277161 13339.675781
536.778625 11775.607422
536.792236 2900.560791
537.324219 4935.212402
537.339844 28242.451172
537.529846 3665.670166
537.765015 3138.071777
538.156128 3580.131592
538.343994 4999.066895
539.271606 4903.553223
540.301514 3112.792969
540.806091 7351.911133
542.042542 4585.335938
542.178833 3969.606934
543.649292 3920.889648
543.962585 3575.552979
543.994202 3057.485596
544.299561 7701.438965
545.26001 4093.9646
545.281738 6418.838379
545.299316 3904.727295
545.547119 4374.539062
545.770142 4158.134277
545.929688 3165.086182
546.304749 5124.300781
546.819275 3559.702393
546.832581 3368.006104
547.453064 3835.392822
547.509766 3353.284912
547.975525 3768.873535
548.357422 3161.731201
549.251038 3672.418945
549.281006 3379.669922
549.293762 6037.077637
549.309387 85289.65625
549.811035 42705.980469
549.924805 3439.728516
550.308411 10130.617188
551.195801 3380.483398
553.191101 3724.502686
554.235229 3156.283936
554.265747 24178.744141
554.377319 3786.588623
554.757874 5475.107422
555.81012 6560.105957
555.996582 3059.70166
556.299133 12172.660156
557.158447 3212.19043
557.302551 5700.005371
557.662659 4853.85498
558.157715 3076.277344
558.298523 11325.894531
558.314331 122959.289062
558.799805 6044.535645
558.816162 58113.546875
559.318176 16880.583984
559.819336 3539.012207
560.412659 4243.311035
560.958679 3969.065674
561.112732 2900.875488
561.278503 12362.912109
561.647339 3613.263916
561.951965 3699.810303
562.162842 3818.967529
562.464966 3802.335449
562.872559 3901.94165
563.27124 155501.59375
563.757446 4515.595703
563.773071 62640.664062
564.269287 41530.171875
564.2771 15843.486328
564.316467 4113.393555
564.772217 17553.447266
565.252808 13278.929688
565.271973 8610.100586
566.236389 12775.420898
566.255737 3288.323975
566.283997 4903.447266
566.344604 3145.088867
566.609131 3457.390625
567.240662 4609.366699
567.297058 4210.497559
567.639648 3246.901367
567.797302 4031.615967
568.264343 3422.108887
568.299072 10109.943359
568.801025 11519.179688
569.280212 3065.317383
569.865051 3627.904297
570.653809 3741.757812
572.728577 4314.754883
572.854065 4723.625977
572.912659 5297.616211
573.091125 8565.411133
573.107361 14124.969727
573.117554 8252.295898
573.164185 5580.561035
573.170959 3917.118896
573.179993 6685.061523
573.196472 3548.286377
573.27887 10778.680664
573.841431 5652.936523
574.159546 3413.000488
574.214844 3995.764404
574.281494 4147.57666
574.366272 4677.615723
574.751892 3580.027344
574.763306 3213.399414
575.268127 4243.878906
576.302734 3417.341797
576.454285 7596.013184
576.511414 3610.743896
576.519836 4591.853516
577.284729 6703.777344
577.295532 12478.989258
577.30481 65570.773438
577.785889 3694.549805
577.806091 44275.734375
578.294495 6404.566406
578.306641 9227.182617
579.603638 3480.860596
579.837708 7687.32666
579.855408 4044.832764
579.887634 4789.731934
579.898926 7954.179688
580.001221 3279.044922
580.102295 3353.572754
580.723938 3581.067139
581.765381 3660.000977
581.923218 2908.687744
582.097168 3530.22998
582.262573 6597.752441
582.278687 41494.261719
582.625854 3119.444336
582.63269 3192.710938
582.996826 3432.921631
583.045593 3203.562988
583.064209 7323.041016
583.182617 3427.738281
583.263428 14861.236328
583.282227 9440.711914
583.326294 3281.273438
583.533142 3851.050293
583.624512 2796.28833
583.647461 3072.854736
583.841187 3720.188721
584.248718 8210.160156
584.266602 5456.060059
585.288086 3253.697754
585.56073 3652.965576
585.753967 3144.45874
586.260925 7692.730469
586.288818 25530.460938
586.309692 85946.75
586.454712 4383.930176
586.509766 4098.989258
586.528564 7130.686523
586.53833 2870.862549
586.777893 7524.178711
586.790161 11345.144531
586.811401 47640.488281
586.969055 3736.645264
587.279724 4331.902344
587.293518 5617.445312
587.31427 11470.775391
587.673096 3599.26123
587.76062 3220.799805
588.243774 2847.257568
589.092957 3149.580322
589.967834 3614.000732
590.807495 3578.724121
591.018921 4500.404297
591.511292 3357.286621
591.518616 3917.116211
593.256165 5248.731445
593.719788 3783.872803
593.991699 4078.9021
594.319519 4831.86377
594.330322 4051.322266
594.342102 4948.167969
594.43219 4169.021973
595.139587 3349.561523
595.293945 4664.614258
595.794617 4024.69043
596.081177 3167.554199
596.262695 3476.276123
596.821655 2964.703857
597.088623 2979.712646
597.094543 3014.254395
597.111572 3597.394287
597.165466 2961.565186
597.436646 3024.241699
597.443726 4000.21875
597.950867 3697.180908
598.211548 3162.535645
599.008606 4042.135254
599.588562 3214.533203
599.688965 4559.277832
600.289062 6348.594727
600.514771 4844.839355
600.790039 4038.371094
600.812378 3426.950439
601.075684 3712.297607
601.864441 5844.950195
604.278564 4403.601074
604.298645 38340.964844
604.404663 6321.939453
604.466675 3553.42627
604.799805 30363.380859
605.295898 10656.293945
605.304077 4390.762207
605.528992 4764.666504
605.545837 9829.625
605.557556 3838.982178
605.799316 9513.725586
605.859314 3898.318604
606.099731 3979.590088
606.294189 4019.75293
607.088074 4298.367676
607.617371 4674.357422
608.128845 3758.145752
608.553101 3565.352783
609.289307 3619.796387
609.82312 3929.1604
611.285095 3567.422852
611.381775 7815.509766
612.466797 3470.739502
612.991638 3556.426025
613.266602 19700.730469
613.284058 135782.125
613.302551 2389985.75
613.317871 12549.027344
613.326111 5865.516113
613.33075 5404.012207
613.766846 15855.007812
613.786377 135642.671875
613.80426 2386343.0
613.820007 16161.549805
613.827332 11354.0
614.267212 10520.62793
614.284607 76245.554688
614.301514 1616046.625
614.326172 10868.322266
614.596069 3937.898926
614.769165 6837.388184
614.784363 75825.820312
614.802917 1217330.125
615.122131 4646.379395
615.285767 33541.144531
615.304626 411604.78125
615.661438 3969.553223
615.786316 6826.799805
615.806519 98246.71875
616.306885 16464.095703
616.805664 3609.866211
616.914429 3781.89209
617.189636 7352.784668
617.204834 4484.577148
617.263367 6570.253418
617.26825 6264.815918
617.296265 3205.241699
617.304993 2968.791992
617.351624 4138.89209
618.281555 9355.814453
618.299988 112805.28125
618.872803 3772.838135
618.995911 3599.801514
619.041565 4551.941406
619.303711 31658.830078
619.334229 4249.54248
620.304749 7399.293457
621.247925 2961.385742
621.713867 3741.17334
622.647095 8881.160156
623.031311 3174.931641
623.247986 5829.976562
625.387451 3416.086182
626.304199 4157.087402
626.526001 5005.778809
627.220215 4561.207031
627.75885 5307.506348
627.85022 4383.527832
628.777832 3087.878906
628.979675 3700.485107
629.186401 3147.44165
629.292297 6416.449707
629.305542 4326.590332
629.341858 5095.508301
629.373901 3034.289795
629.394592 5341.708008
630.598633 4426.138672
630.822266 4174.987793
630.841125 7652.066895
630.870972 3660.429932
630.892212 6396.118164
630.903931 7279.857422
630.912537 10782.413086
631.219727 4806.40918
632.341797 3400.435059
632.349548 3192.679932
632.483337 3218.04834
632.958435 3211.2854
633.041992 3414.2146
634.338684 3100.329102
634.652222 6200.77832
634.967773 3546.793945
635.234619 5379.313477
635.26709 4206.374512
635.278687 28348.564453
636.205994 3664.002441
636.279236 7339.102539
636.558838 3931.592041
637.037354 3934.450928
637.436951 3634.033936
637.732788 3420.989014
637.828613 4331.305664
638.400208 3089.352051
638.768494 3926.533936
638.919067 3555.766113
639.773376 3354.723389
640.214233 3465.068359
641.350403 14637.563477
641.863464 3947.794922
641.990723 3841.625
642.838623 5198.196289
642.84906 6223.998535
642.88147 3628.819336
642.914978 13747.947266
642.946411 4231.565918
643.169495 3638.01123
643.235229 3687.607666
643.309692 3076.154297
643.332031 28842.824219
643.751709 3724.852539
644.335266 11128.197266
646.07489 3430.95459
646.783508 3537.207764
646.842712 3555.427979
647.079773 4207.226562
647.127991 4199.682617
647.45459 4842.01416
648.307129 3138.766846
648.675415 3335.242676
650.314209 3565.850342
651.065674 5111.019043
651.126282 3072.480469
651.727539 6871.265625
651.743164 3410.647461
652.192017 6864.489258
652.213623 86633.84375
653.217468 21786.746094
653.245117 31466.431641
653.472107 4552.100586
654.210388 19285.757812
654.229492 3573.500732
654.250977 5540.859375
654.964417 6410.744141
654.99469 3736.079346
655.204834 2983.269775
655.213867 6694.665039
655.242249 9913.506836
655.332458 15087.750977
655.567078 2814.705322
656.103271 2852.986084
656.33667 4908.414551
659.72052 3050.392822
659.747498 3434.297607
659.767517 6863.344238
660.104065 6342.736328
660.434753 3422.858643
661.321838 4172.970215
661.342468 38382.464844
662.345886 13803.369141
663.113953 3622.691406
663.348511 3758.705078
663.769592 3257.645996
664.202576 5085.02832
664.468445 5455.427246
664.494995 4408.579102
664.533875 8092.754395
664.54541 8057.043457
664.872314 3307.050049
668.197937 3617.349365
668.386963 4088.720947
668.602356 3965.830078
668.682312 5187.543457
668.701416 3440.563965
668.733948 4498.283691
669.201843 4130.90918
670.397339 3790.942871
670.723083 3256.831299
671.21167 7373.394043
671.232788 61024.578125
671.255676 921892.75
671.283875 4631.213379
672.219727 4009.596924
672.237183 16220.677734
672.25946 243311.5
673.183289 8997.283203
673.22876 17451.666016
673.252991 257772.515625
673.282043 4810.63623
673.342285 18102.226562
673.51178 3301.414795
673.536194 3444.037842
674.232483 5301.754395
674.256775 68223.484375
674.346985 4491.638672
675.259705 7653.562988
677.515198 4013.396973
677.526978 3356.229248
678.73938 3713.630127
679.179993 3541.069092
681.240662 10437.306641
681.445801 3988.553711
682.016968 3633.269043
682.121277 6315.764648
682.151917 5281.621094
682.179016 5551.398438
682.198486 10235.87793
682.295654 7568.328125
682.488403 3451.969971
682.838623 4340.01123
682.946289 3496.068115
683.491821 3795.72876
683.674927 3710.093994
683.79303 4030.994141
683.994629 3119.974365
684.060486 5817.442871
685.038391 3732.367676
685.091736 3329.194092
685.677246 5544.46582
686.049866 3539.031494
686.573792 3290.896729
686.944702 4950.154785
687.224426 3253.345215
687.72644 3542.979248
687.759888 3770.449951
689.28009 3372.217285
690.127747 4310.138672
690.360474 4456.34082
690.786682 4109.775391
691.269653 3149.17627
691.356201 3189.94873
695.394043 3371.393311
695.446167 2961.469238
696.558167 4395.181152
696.634155 5792.203125
696.712219 3811.465332
696.771362 3449.934082
696.913696 3115.755615
696.935669 4125.710938
696.991882 7158.591797
697.002014 4725.128906
697.016357 9494.433594
697.214905 3677.055908
698.747986 4089.133057
698.890137 3484.42749
699.322205 18370.414062
700.302429 4658.311035
700.326538 8182.106445
701.190125 4079.63501
701.201355 4537.149902
702.033142 4352.336426
706.140564 10961.448242
706.158325 4131.346191
706.176392 5914.421387
706.186157 4098.022461
706.211426 21159.142578
706.752319 3781.744873
707.149048 2825.961182
707.194824 3325.290527
707.81311 4371.212402
710.820984 4308.520508
711.216431 3259.064209
711.299988 7112.830566
713.185669 5185.325195
713.307617 4648.289551
713.609802 3165.558838
713.865417 3569.497314
714.669861 3397.760254
715.608887 3905.315186
716.058044 4211.231934
717.08252 4118.047852
717.304932 5061.300293
717.332642 79505.5625
717.804199 3384.202148
718.045898 3252.518311
718.271057 3939.327881
718.335571 22092.414062
718.5578 2971.555664
719.254578 5041.881348
719.339111 7108.940918
721.287598 5941.200195
722.024292 6392.123535
722.060669 3615.912598
722.10321 4868.832031
722.120239 3601.79834
722.13678 4266.641602
722.228088 3243.652832
723.237915 3306.591797
728.998535 4367.89502
729.687195 4017.414062
730.139832 3293.703125
730.482056 3178.368896
730.732422 3101.938965
731.534119 4255.092285
732.318909 5444.427734
732.386353 2847.255371
732.397888 4320.506348
732.835571 3235.62793
733.390686 3368.768555
735.299011 18397.210938
735.344177 33732.515625
736.28363 46365.171875
736.304016 5468.194336
736.348511 8928.313477
736.697083 3571.556885
736.833374 3996.756104
737.002258 3496.359863
737.23761 2932.787842
737.267578 84538.398438
737.285706 10991.088867
737.424133 4490.439941
737.450012 5553.080078
737.873901 6750.839355
738.270264 18700.527344
738.281006 16934.162109
738.740723 3396.507812
739.264038 17854.015625
739.280273 6013.527832
739.329041 44157.339844
740.332825 13560.414062
740.455322 3102.209229
740.751038 3448.601074
741.249023 3436.679932
741.263123 4922.741211
741.324707 12254.578125
741.584106 3206.999268
742.491089 8017.577637
742.513855 4071.103516
742.531311 5857.496094
742.54364 5237.607422
742.566589 10170.316406
742.913208 4185.398926
742.983093 4125.203125
742.9953 6115.585449
744.729187 3637.927246
746.177856 3075.245361
746.357605 3330.576172
746.438477 3554.835449
746.797852 3940.880615
746.893738 2663.065918
747.958435 4261.341309
748.545959 4685.220215
748.624939 7023.446777
748.641479 4741.381836
748.979858 2972.190186
750.027222 2981.210693
752.147522 3403.437988
753.280884 25856.486328
753.309509 341095.65625
753.595642 4158.399902
753.827148 3715.507812
753.901367 6551.354004
754.294617 34360.921875
754.313721 100478.03125
755.27832 4293.989746
755.306152 86727.867188
755.320618 12375.007812
756.310181 34720.761719
757.428284 4078.143555
758.128906 3491.180908
758.982788 3370.498779
759.194763 3009.912109
760.119568 3772.717285
761.246155 3051.982666
764.128418 3873.806641
764.556702 4374.695801
764.847107 3104.495361
765.566772 4364.658203
767.560852 4022.574219
768.234009 3491.669678
769.182678 3412.012939
771.246399 2814.744873
771.259399 4938.927246
771.289734 34305.613281
771.319702 490274.40625
771.94281 3316.552979
771.956604 4540.295898
771.976135 6077.328125
772.035034 8753.427734
772.292664 8195.171875
772.323853 161377.15625
772.624695 3286.679688
773.013489 3719.461426
773.043335 2810.449707
773.285095 7736.242188
773.316833 119131.484375
774.320801 38515.683594
775.167664 3245.525146
775.325562 6005.324219
776.132629 4479.280273
776.158813 3800.994385
776.803223 3834.861328
777.817505 3329.748779
778.298279 3658.638672
779.008972 4233.332031
779.782532 3390.967773
780.188477 3345.821533
780.655151 3230.39917
781.774902 4044.813965
782.74884 3064.55127
785.246155 3669.123535
786.325317 3180.205078
788.560547 3409.594482
789.12323 4524.801758
789.885254 4120.770996
790.572327 4594.595703
795.454773 3855.99292
795.466797 2905.050537
796.461975 5335.79834
798.953796 3365.123535
800.197327 3704.234375
801.568359 3284.962646
801.733704 3155.08374
801.847229 4929.577637
801.932434 9729.225586
805.135315 4072.53418
805.992188 3529.015137
806.118347 3520.5271
807.423279 3193.352051
807.738403 4413.683594
811.634827 3034.562256
814.200623 3292.639648
816.07312 3660.10083
816.67572 3585.603516
821.105957 4415.745117
821.226196 3394.962891
822.364258 8706.414062
823.248535 3162.131592
823.708374 3891.494141
825.402527 3998.829102
825.503906 4062.951172
826.16333 3718.741211
826.245911 4442.896484
827.017578 4055.887939
828.707825 3768.977539
829.793762 3370.831543
829.954834 2896.955322
830.046936 4288.695801
830.567322 3330.985596
834.126831 3080.83667
835.314636 3869.400879
835.669556 3753.470947
836.124451 3474.443115
836.313416 5049.467773
836.384094 3867.194092
839.430786 4058.322021
840.703552 3821.231445
841.450684 3937.175537
843.620483 3654.195557
846.293884 3506.326416
846.95697 4237.053711
847.900635 3259.445557
848.775208 2975.195801
849.436096 3688.033936
853.380127 3447.282471
853.481995 3402.927246
854.254822 3582.459717
854.42804 3505.244873
854.700134 3625.178467
855.259583 3056.614502
856.385559 4038.327637
861.356445 3608.945801
862.234985 3011.120605
862.660034 3271.813965
862.835693 3210.272949
863.784668 3735.707275
863.82489 3674.762939
864.368652 4300.287598
864.481628 3338.727295
865.161133 5341.423828
866.987793 3173.508789
867.184326 4110.688477
868.309082 4877.893066
869.4552 3378.1521
869.715454 3689.067627
870.335449 4302.966309
871.036926 4455.772949
871.516052 6757.557129
871.610901 6683.11377
872.116821 8778.345703
872.16925 5736.825195
872.210876 10460.084961
875.732849 3644.01123
876.287903 4145.898438
879.033264 4039.860352
879.266479 3210.959961
879.28418 3360.091797
879.369507 7092.762695
880.362244 4501.73584
881.434021 4075.126709
882.47052 4262.723633
883.258118 3736.316406
885.534119 5016.871582
887.39447 4357.776855
889.244995 3674.333984
889.761353 3133.336426
895.928955 3455.428711
895.94751 4361.567383
896.612915 4209.017578
898.947693 3433.235352
899.101685 3105.176758
900.620483 3761.728027
900.666809 4232.837402
900.730225 3160.714844
901.239563 3180.766113
901.523743 3223.509766
901.829712 4159.636719
902.829224 3548.834717
903.333618 3586.614258
905.348328 4438.765137
910.273071 4019.714111
910.306213 3578.38623
911.835205 3698.690674
911.842285 3749.033936
912.406921 4032.103516
912.688416 3705.847656
913.445862 5287.442871
914.892456 3110.276611
915.009033 3329.165283
916.912964 4019.860107
918.070068 3088.968994
918.441589 3344.166992
920.34436 4724.439941
921.909241 3640.384277
925.197083 3646.302979
926.509277 4184.068359
926.646851 3637.624268
930.678406 3441.029053
933.86438 4253.267578
934.683167 3282.160645
935.95459 3919.113037
936.615784 3581.493164
937.038879 3992.221191
937.244751 3124.522461
938.438354 13787.704102
939.445801 10330.398438
939.556335 3131.438232
939.585144 4210.445801
940.434204 6054.157227
941.77655 4190.848633
943.309937 4113.333008
946.024292 4881.856934
946.093567 2928.805908
946.118286 7846.519043
947.46405 3691.886475
948.982239 3299.324707
950.70752 3179.085449
951.771057 3942.734131
952.75647 3480.324707
953.592468 3620.872559
953.748962 3313.281982
954.944824 3511.744385
955.168945 13898.293945
955.211548 10675.601562
955.236755 11866.097656
955.270996 17267.6875
955.516602 3275.283203
955.877502 11344.488281
955.914795 7734.456543
955.94989 10163.914062
955.982605 17785.894531
958.545227 3956.900146
960.506042 4228.447266
962.177124 3682.06958
962.987488 3159.55127
963.375793 3254.69458
964.021667 3279.054443
964.162292 3036.941406
964.174988 3040.774902
964.483459 8491.047852
964.578125 3154.775879
964.599609 5336.853027
964.974548 3630.259521
965.130005 3870.045898
966.205078 3394.17334
966.338928 3740.69458
966.460083 3601.909912
968.551575 3285.38501
969.436279 52649.335938
970.43927 20194.570312
970.871277 3296.826416
971.429443 17473.826172
972.43158 4336.600586
973.247314 4157.511719
974.003235 5356.122559
974.043762 4588.008301
974.077271 4171.658691
974.091248 3417.078857
974.125793 3325.717041
974.944763 3148.734619
975.096313 3631.6521
977.463074 4362.812012
979.838196 3479.810547
981.380737 3242.256348
981.663452 4109.429199
981.863647 3378.167236
984.136719 3171.897949
984.579773 3873.617188
988.301453 3587.974121
990.612549 4038.869873
991.485352 3707.166504
991.82782 3199.374512
992.280701 5011.350098
992.674316 4034.441406
992.841431 3555.635742
993.348816 3190.001953
996.865356 3812.268066
997.148071 3966.370605
997.472168 3553.87793
999.294678 3442.107422
999.855408 3811.881348
1000.28717 3587.522217
1000.908203 3026.628174
1002.971313 3837.889893
1003.977051 3724.270752
1004.33606 4179.072754
1005.936768 4596.332031
1006.440186 3301.736572
1006.661804 5404.097656
1006.913452 3883.264648
1007.467773 4100.224121
1009.046082 4036.088623
1010.914246 3626.118408
1012.245728 4308.114746
1015.624146 3209.9646
1016.543335 3880.553955
1017.464966 3799.635986
1020.921204 3639.040527
1022.142212 5947.193848
1022.910583 5750.210938
1023.014343 5722.004883
1023.167175 3533.147217
1023.431885 3131.123535
1023.452759 3714.507568
1023.827271 4981.279785
1024.802856 4165.541992
1025.474487 36176.894531
1026.479004 15086.444336
1027.4021 4100.119629
1027.470947 11985.712891
1027.935303 3271.543213
1031.040039 4380.805664
1031.167725 4462.962891
1032.262451 3992.638184
1033.225098 3308.4104
1033.725098 5314.097168
1034.328735 3390.613525
1035.949341 4387.164062
1037.413208 3413.789551
1037.472412 4416.14502
1038.996582 3934.591553
1039.387817 3862.199951
1040.10437 3315.510986
1041.945435 3485.29541
1042.047974 4031.237061
1044.883301 3785.244141
1047.521606 3013.58667
1048.098145 4239.160156
1050.105957 3034.319336
1050.229004 3487.420654
1052.207642 3641.625244
1053.405884 3332.891602
1053.660156 3438.40332
1055.67688 3634.822998
1055.823608 4882.229004
1058.300903 3585.001953
1061.227417 4799.751953
1061.815063 3223.807617
1063.279175 3169.618896
1066.312744 3693.152344
1067.256714 3558.503906
1068.014404 4055.928955
1068.23999 4208.187988
1069.771851 3030.187012
1072.130737 3768.196045
1073.809082 3400.540527
1074.906616 4699.075684
1075.259644 4214.46582
1078.367554 4907.320801
1079.069946 3757.354004
1080.543091 5263.088379
1083.702393 3951.740234
1084.203735 3400.340088
1087.358154 3908.027832
1089.927734 3940.187256
1091.271851 3325.703857
1091.488403 4344.348633
1092.002441 3865.344238
1092.48877 4303.657715
1094.037109 3314.484131
1100.892578 3515.637939
1103.973633 3640.798828
1104.799683 3647.493408
1106.869385 3110.169189
1107.525513 10136.060547
1108.850098 3223.647217
1109.775513 3237.247559
1112.040649 4308.444824
1112.348633 4313.854004
1114.509766 3762.189697
1115.21521 5116.047363
1116.743774 3544.358398
1117.747192 4821.32959
1119.349976 3594.272949
1120.654175 2816.756348
1125.473145 6013.918457
1125.538574 138080.625
1126.231201 5266.666016
1126.540283 79179.625
1127.537842 51813.480469
1128.41748 4274.341797
1128.53772 19314.828125
1128.645142 4343.114258
1129.540039 6481.239746
1130.799927 4073.786377
1131.701904 3761.68335
1134.55542 3862.884033
1134.697021 3341.411865
1134.852539 3487.799316
1135.524292 10800.407227
1135.790649 4695.724609
1136.526001 5827.602051
1137.522095 6275.846191
1142.961548 3613.552734
1143.674561 3341.507568
1145.982666 4142.608398
1146.18335 3850.331299
1148.550171 3294.286133
1153.388672 5344.802246
1154.169556 3963.712891
1157.486816 5337.448242
1157.807861 3986.761963
1159.156738 3588.168213
1161.100464 3448.422607
1162.9198 3574.502686
1164.253784 3484.652832
1167.892456 3937.338623
1170.906006 3459.448242
1171.502441 3931.140381
1174.545044 4962.736816
1175.161011 3110.270508
1178.564819 3171.253906
1179.668945 3765.803467
1181.667114 3339.176758
1183.658691 4337.538574
1186.606445 3670.093262
1187.145752 3145.175781
1187.715576 4270.448242
1188.589233 3544.421631
1189.452026 3975.335938
1190.843628 3672.557617
1192.66394 3810.046875
1193.074585 3331.651123
1193.21167 6539.727539
1193.296143 4041.257812
1194.165527 3784.747314
1194.290527 3929.617676
1195.746948 3147.65918
1197.524658 3719.736328
1197.965454 2799.031738
1198.753296 4274.105957
1199.806885 3607.154785
1200.195923 3703.196289
1202.644897 3447.699707
1203.831299 4638.743164
1204.185425 3174.957031
1205.433594 3030.54126
1209.588623 3561.363281
1213.276245 4748.469238
1219.903564 4165.525391
1221.383545 4541.687988
1224.454346 3241.779297
1224.480347 3010.507324
1226.134521 3240.906982
1227.020874 4572.005371
1233.499146 3754.827637
1234.712158 3900.92749
1234.845093 4233.567871
1236.71228 4277.599609
1239.090454 7159.675781
1239.113647 7125.033691
1239.265015 13182.450195
1240.530029 3480.133789
1241.758179 3379.16748
1244.005249 2997.014404
1244.494873 3076.516602
1244.540771 5179.881836
1245.780273 3281.388672
1247.924316 4306.31543
1251.556274 3300.684326
1252.492188 3179.506104
1254.059082 3728.227295
1255.578857 4124.885254
1256.411133 4910.839355
1258.862427 3361.622314
1259.894653 4322.75
1266.568237 4209.287109
1267.521118 3801.307861
1268.64624 3326.872314
1271.164429 3079.310547
1271.550293 4167.503906
1271.690063 4317.526367
1271.987183 4105.917969
1272.553467 3192.181396
1274.401855 3094.578857
1275.546875 3992.640137
1280.008423 4519.883301
1281.174927 3271.993408
1281.703613 4091.391602
1282.259766 3371.221924
1286.248901 4302.476562
1286.325195 3104.397705
1287.480713 3664.003174
1290.85083 3556.582275
1291.234009 3998.928467
1294.339233 3463.231689
1297.654175 4140.716797
1297.840332 3482.927979
1302.641602 4651.625488
1306.444336 4669.217773
1306.868408 4569.14502
1307.843994 4202.755859
1310.143311 4878.384277
1310.299438 3909.347656
1311.780273 3391.364502
1312.067505 3771.392578
1313.169067 4451.680176
1313.463623 3109.044678
1313.71521 3564.069092
1315.283203 4238.026855
1315.624512 4101.145508
1315.844849 3051.421387
1317.101074 3743.835938
1317.892578 3343.678711
1319.625366 5390.469238
1322.732666 3893.877441
1325.912964 3442.904785
1329.198608 4684.279297
1331.39978 4742.062012
1335.970703 3199.793457
1336.586914 3493.236328
1337.206665 3856.598633
1337.404907 3361.368652
1338.895142 4283.724121
1339.892578 3826.513916
1340.644653 4399.125977
1342.80542 3167.118896
1344.431152 5219.033203
1345.014526 3249.898438
1345.676758 3601.198242
1345.840576 4052.981934
1350.840088 3555.289551
1351.418457 2909.717773
1351.911743 3382.77124
1352.734497 3168.832031
1355.207397 4219.171875
1358.122314 3662.640625
1364.757446 4347.203125
1366.549805 3722.484131
1367.494385 3203.155518
1368.628784 5188.310547
1371.009888 3604.113281
1372.104004 3311.768311
1375.926025 3656.242432
1378.335571 3266.221436
1378.412598 4185.316895
1385.059692 4463.285156
1388.622803 4074.187744
1391.940674 3046.799561
1392.073975 4448.396973
1393.454834 3303.623779
1393.591309 3453.775879
1394.672363 4500.933594
1395.927246 3811.034912
1396.41394 3755.29248
1396.697144 4456.025391
1397.254395 4574.119629
1397.313843 3133.886719
1398.522705 3951.19751
1402.974365 3894.479248
1404.028442 3247.077881
1407.839478 3692.175537
1408.69812 4766.451172
1409.703369 3931.983887
1409.779663 4298.460938
1411.659424 3235.473877
1412.246216 5475.196289
1412.335693 7098.5
1412.37439 13069.396484
1412.704224 3642.035889
1413.276855 3252.760742
1413.644043 3075.626709
1415.652466 4434.265625
1416.338013 3636.209717
1419.680908 3975.425781
1420.744141 3243.066895
1421.085815 3689.2771
1423.557983 3195.762939
1428.532837 3056.22583
1430.949097 3789.015137
1438.479492 3667.653564
1439.09668 4132.013672
1442.688354 5478.27002
1446.739136 3136.25
1448.713257 3610.411133
1448.782349 3038.141113
1451.096558 10675.47168
1451.616333 4004.240723
1452.184692 4730.711914
1452.309082 6362.487793
1452.665161 4253.807129
1456.41272 4021.241211
1457.880493 4975.164062
1461.205078 3675.02002
1464.449097 3670.075928
1467.643433 3913.990723
1468.572144 4854.291504
1470.331299 3614.846436
1471.275513 4099.65625
1472.302856 4078.411621
1472.523193 3251.929932
1474.560791 4570.687012
1477.171509 13662.77832
1480.463989 3265.696289
1482.967529 4250.291016
1483.281616 3846.668945
1484.164673 2980.895996
1487.212402 3279.42334
1490.47583 3937.076416
1493.735229 3423.407715
1494.45874 3482.814209
1495.367188 3493.733154
1496.302002 5962.856445
1500.525757 3768.7229
1503.610596 3538.662598
1503.888062 4152.046387
1506.461914 3809.328613
1509.312866 4517.968262
1509.507324 3201.50415
1511.417236 3997.320068
1514.19397 3599.926025
1515.616089 3932.351807
1516.802368 3157.999756
1517.996704 3460.452637
1518.36377 4129.089844
1519.735596 3397.043213
1526.873657 3611.14917
1531.890015 2932.20874
1532.106934 4098.29541
1532.422607 4951.888672
1533.795288 3509.035156
1534.746704 3154.557861
1534.909302 4070.441406
1536.481934 3126.016113
1537.189819 3424.266602
1537.229614 3668.600586
1537.978149 4689.632812
1538.105835 4650.285645
1540.987061 3726.602295
1541.710205 4564.419434
1542.33667 4182.394531
1542.544189 3927.023926
1543.220947 3526.776123
1545.134399 4125.258301
1547.037598 4293.734863
1547.362671 3380.361572
1548.885254 4578.396973
1549.190186 3819.943604
1549.288086 4684.894043
1550.997803 3982.85083
1551.81958 3587.550049
1552.775024 5122.311523
1557.942139 3651.029785
1560.304565 3665.648682
1562.787964 3349.316895
1566.134644 3015.918945
1566.503052 5167.235352
1568.500244 3293.649902
1569.03479 4955.591797
1569.64563 4006.481689
1572.323242 3747.576416
1573.79541 4104.176758
1574.837646 3390.656006
1575.719849 4186.676758
1579.495605 4115.794922
1579.598633 3726.647705
1581.342407 3467.914551
1582.056274 3137.629395
1583.6875 3293.365234
1587.730957 4696.144043
1588.322876 3686.324707
1588.526367 4132.811523
1588.796631 5445.00293
1591.159424 4509.765625
1591.431885 3834.202148
1592.463745 26511.371094
1592.640625 3834.995361
1595.862915 3627.033203
1596.719604 3290.419434
1597.704102 4060.357666
1600.653809 3747.718262
1604.594849 10611.708008
1604.859497 4748.436523
1605.729248 3625.827393
1606.384399 4550.02002
1608.713867 3111.394775
1612.353149 4479.025391
1613.544922 3781.359131
1614.224854 3189.165771
1614.364258 3445.709961
1616.143677 3247.509277
1616.384399 4554.315918
1618.803345 4333.20459
1620.870117 4001.691895
1623.359131 3078.433594
1625.213989 3478.428711
1626.669067 3489.299072
1629.770264 3399.933105
1630.511597 4174.411133
1632.520508 4525.958984
1632.890259 3406.418213
1639.874512 4512.900391
1640.492432 3205.304443
1645.767456 3827.850098
1653.096802 3776.538086
1654.143433 3005.449463
1655.12207 4294.147949
1657.612183 3027.013916
1657.709106 3453.442383
1658.870605 3364.261719
1661.476807 4148.32666
1664.407104 4308.464355
1666.073242 3869.213867
1666.960815 3675.932129
1668.111328 3198.601562
1670.097168 3413.82373
1670.650513 3108.131348
1671.516235 3919.176025
1678.046875 3989.948242
1678.697754 4883.681152
1681.29834 4795.46582
1688.580688 4004.763184
1691.790161 3790.87207
1691.842773 3879.360352
1692.41333 4346.655273
1693.081055 3100.779297
1693.200195 3386.452881
1693.872925 4907.552734
1696.373901 3007.59082
1698.018188 7900.398438
1698.199097 10336.438477
1700.721069 3510.734863
1701.341675 3635.734375
1702.213623 4767.939453
1702.552002 3979.034668
1703.214844 2996.760254
1704.700317 3929.626221
1705.099854 3192.974365
1705.645508 4637.694336
1706.524658 3955.680176
1707.687988 3536.703125
1713.773315 4577.402832
1715.167725 3665.223145
1717.695923 3205.099365
1717.772217 3734.17334
1721.127319 4283.456543
1722.708252 4883.284668
1725.391602 3437.34668
1726.465576 3940.315186
1727.710449 5974.887207
1727.907349 5363.308594
1730.334717 3979.054199
1730.9198 3689.822998
1737.054443 3653.548584
1739.787842 3535.169922
1741.672485 3284.833496
1741.772583 3697.68335
1744.237671 3276.895508
1747.818481 4789.646484
1751.713867 4458.51709
1754.075073 6011.161621
1754.691284 3824.956543
1756.06189 3654.039795
1758.51001 10524.370117
1758.668335 14926.263672
1760.329956 4968.893066
1762.969971 5565.557129
1766.370239 3491.927734
1768.465698 4335.903809
1770.265137 3699.125977
1770.580322 4972.358887
1772.843872 5043.587402
1773.32666 3615.54126
1774.503052 3592.054443
1778.106567 4076.902832
1778.204712 4647.162109
1779.894287 4488.818848
1784.601196 3600.236816
1785.76416 3286.626953
1786.155762 4997.913574
1788.331543 3689.326904
1789.09436 5248.757324
1790.915771 3697.624512
1792.250122 4733.39209
1792.664062 3426.43042
1795.254639 3943.796875
1795.863403 3675.080811
1797.157227 4530.463867
1797.837158 3543.912842
1799.546021 9046.865234
1803.454834 3576.020996
1809.978394 3313.558838
1810.629517 3086.021729
1812.74353 3433.866211
1815.981934 3481.2771
1818.657349 4770.660156
1819.014404 3412.641602
1819.380737 10858.323242
1820.906006 3002.537842
1821.098389 3594.130371
1822.239136 3857.829834
1824.500854 3940.233154
1825.254395 3535.781982
1827.469116 15018.141602
1828.175903 4033.254639
1829.271606 3782.093018
1831.067627 3301.401611
1834.312378 3218.292236
1834.884766 2977.206055
1834.914917 3044.41626
1839.174438 4578.007812
1843.300049 3581.884277
1843.526001 3267.360352
1849.252808 4988.716797
1851.64856 5016.947754
1852.999878 3939.060059
1859.497925 3602.301758
1861.361328 3373.678223
1862.347534 4418.927734
1862.462769 4159.945312
1864.004395 4245.288086
1864.787842 3193.029297
1864.849731 3002.987549
1866.990723 3120.096924
1867.122681 3181.886963
1867.192139 3670.524658
1867.395142 3336.80957
1868.275269 3123.777832
1870.480347 4431.132324
1872.993408 4559.00293
1873.617554 3361.006592
1874.866943 3620.561768
1880.047485 3874.922607
1880.682495 3205.093262
1881.357666 3785.505371
1883.817383 3933.815674
1885.984497 4345.85498
1886.501587 4820.785156
1886.925537 3822.712646
1887.756714 4044.719971
1890.309937 3747.190674
1894.042847 4715.297852
1894.879883 6231.446289
1895.57605 4743.029785
1902.240723 3697.03833
1905.447021 3207.322998
1905.531982 4522.093262
1910.375 4921.259766
1914.821533 3647.5979
1920.784302 5452.17627
1928.438354 4411.63623
1929.341919 4533.126953
1931.651978 4238.654297
1931.86853 4028.298828
1932.019165 3759.025391
1935.667969 5312.776855
1944.122803 3514.849365
1950.640137 4012.006836
1952.089722 3907.476562
1952.30127 3775.739502
1958.629517 4595.277832
1961.852661 5129.288086
1963.018066 4327.550293
1963.78479 4519.472168
1964.068237 3970.065674
1966.496216 3866.124268
1972.83374 3700.915039
1975.181519 4159.841309
1982.782349 4122.403809
1989.960449 5491.701172
1990.181641 3790.000977
1990.730591 3185.206299
1990.827759 3584.806641
1993.094849 4168.820312
1995.488525 3933.64917
1999.129639 4081.222168
END IONS
