BEGIN IONS
PEPMASS=765.0
CHARGE=1
MSLEVEL=2
SOURCE_INSTRUMENT=LC-ESI-qTof
FILENAME=f.chenliangyu/B2-2separate/2/SH11/B2-2LEA-H8.mzXML;
SEQ=*..*
IONMODE=Positive
ORGANISM=GNPS-LIBRARY
NAME=Dinactin M+Na
PI=Dorrestein
DATACOLLECTOR=Liangyu Chen
SMILES=O=C(OC(CC)CC2CCC5O2)C(C)C1CCC(CC(C)OC(C(C3OC(CC(OC(C(C)C4OC(CC(CC)OC(C5C)=O)CC4)=O)C)CC3)C)=O)O1
INCHI=
INCHIAUX=
PUBMED=
SUBMITUSER=chenliangyu
TAGS=
LIBRARYQUALITY=3
SPECTRUMID=CCMSLIB00000839971
SCANS=1408
125.090019 1024.0
139.104401 700.0
143.067764 1744.0
149.091064 648.0
163.108856 564.0
167.106216 11616.0
168.10878 2488.0
181.122757 16524.0
182.126221 3280.0
183.120697 928.0
185.117722 20272.0
186.121552 3272.0
187.121262 452.0
199.135605 22852.0
200.139587 6728.0
201.145981 520.0
203.130981 744.0
204.133652 452.0
207.102386 9564.0
208.107666 1280.0
213.157104 392.0
221.119705 12820.0
222.124344 1640.0
327.189972 556.0
328.186951 440.0
341.200256 460.0
342.212463 776.0
347.229462 1064.0
349.174774 872.0
350.187195 364.0
351.223145 2032.0
352.222473 1448.0
361.244019 4740.0
362.253632 932.0
363.190308 516.0
365.241821 8712.0
366.246002 3468.0
367.248383 604.0
369.238739 11804.0
370.240204 7228.0
371.24469 1052.0
375.25766 504.0
383.254059 42464.0
384.256439 20340.0
385.258026 3756.0
386.259155 476.0
387.247528 528.0
391.219147 25884.0
392.221863 5972.0
393.232117 1008.0
397.267487 824.0
398.276428 700.0
401.270203 516.0
404.993408 564.0
405.237579 354424.0
405.685608 444.0
405.838409 484.0
406.237427 67972.0
407.239746 8644.0
408.242828 1228.0
419.24942 23520.0
420.253204 6272.0
421.258484 948.0
423.243256 448.0
495.301117 464.0
507.323242 408.0
545.358154 2248.0
546.355713 824.0
547.307861 568.0
548.303589 508.0
549.357483 764.0
550.358765 560.0
551.363098 400.0
559.374023 1576.0
560.373657 600.0
563.365662 500.0
564.374451 676.0
567.367554 1692.0
568.372559 2068.0
569.377686 692.0
575.332947 2416.0
576.336121 628.0
581.38269 1004.0
582.385254 952.0
583.390991 692.0
589.350281 141132.0
590.352539 50272.0
591.352417 7556.0
592.367554 612.0
602.942078 352.0
603.366699 109116.0
604.211914 332.0
604.368469 36404.0
605.371704 6244.0
606.363342 704.0
607.370728 540.0
621.377625 456.0
731.412842 1392.0
732.414795 480.0
743.489075 6388.0
744.494751 3128.0
745.464722 1076.0
746.447998 356.0
748.502991 340.0
766.492859 428.0
780.718933 332.0
782.535706 520.0
783.252563 1908.0
783.526245 4032.0
783.727539 1828.0
784.141724 1460.0
784.301331 1512.0
784.5177 2816.0
785.004761 1076.0
785.247192 960.0
785.525024 1208.0
786.027466 820.0
786.619507 2748.0
786.815186 3632.0
787.071899 3968.0
787.474854 1020388.0
787.878967 7944.0
788.169678 6564.0
788.487915 1246536.0
788.828003 6404.0
789.154297 2624.0
789.487427 450860.0
789.786011 1232.0
790.115295 1084.0
790.485107 46304.0
791.06488 612.0
791.486023 2632.0
791.775269 504.0
792.504578 436.0
796.964844 352.0
797.117371 388.0
798.065125 444.0
810.552124 376.0
END IONS
