BEGIN IONS
PEPMASS=1161.76
CHARGE=1
MSLEVEL=2
SOURCE_INSTRUMENT=LC-ESI-qTof
FILENAME=f.amcaraballor/DorresteinLab_AMCR_2018/2018_02_12_NSF_FGA_Plates1_2_mzXML/PD-FGA-60_BG11_01_8461.mzXML;
SEQ=*..*
IONMODE=Positive
ORGANISM=GNPS-LIBRARY
NAME=Putative Peptaibol Trichodermide D analogue M+H
PI=DORRESTEIN
DATACOLLECTOR=amcaraballor
SMILES=CC(C(CO)NC(C1CCCN1C(C(C)(C)NC(C(CC(C)C)NC(C(C(C)CC)NC(C2CCCN2C(C(C)(C)NC(C(NC(C(C(C)CC)NC(C(CCC(N)=O)NC(C(C)(C)NC(C)=O)=O)=O)=O)C(C)C)=O)=O)=O)=O)=O)=O)=O)C
INCHI=InChI=1S/C57H100N12O13/c1-18-33(9)43(49(77)59-37(28-30(3)4)46(74)66-56(14,15)53(81)68-26-20-22-39(68)47(75)60-38(29-70)31(5)6)64-48(76)40-23-21-27-69(40)54(82)57(16,17)67-51(79)42(32(7)8)62-50(78)44(34(10)19-2)63-45(73)36(24-25-41(58)72)61-52(80)55(12,13)65-35(11)71/h30-34,36-40,42-44,70H,18-29H2,1-17H3,(H2,58,72)(H,59,77)(H,60,75)(H,61,80)(H,62,78)(H,63,73)(H,64,76)(H,65,71)(H,66,74)(H,67,79)
INCHIAUX=
PUBMED=
SUBMITUSER=amcaraballor
TAGS=
LIBRARYQUALITY=3
SPECTRUMID=CCMSLIB00004679270
SCANS=2269
97.782051 71.0
98.591415 53.0
99.295097 62.0
100.070541 238.0
100.200218 39.0
100.973816 91.0
101.067352 1828.0
101.994644 65.0
102.049545 71.0
102.066513 146.0
102.400902 53.0
102.482681 80.0
102.856522 82.0
103.930008 71.0
103.954697 67.0
104.100739 90.0
104.808655 58.0
104.985153 46.0
105.502251 85.0
106.133568 88.0
107.53598 102.0
107.683479 55.0
107.792328 72.0
107.878044 42.0
108.120789 29.0
108.930069 49.0
109.099312 79.0
109.761536 40.0
109.807251 90.0
109.949387 39.0
110.089607 34.0
110.222137 66.0
111.258377 61.0
111.60022 51.0
111.748199 85.0
112.189117 58.0
112.276466 35.0
112.382309 57.0
113.689133 54.0
114.083618 92.0
114.107735 101.0
114.555336 61.0
114.74543 26.0
116.32856 64.0
116.651634 40.0
116.710815 54.0
117.395744 89.0
117.791206 60.0
117.889397 102.0
118.113571 78.0
119.683464 63.0
122.128662 64.0
122.46656 71.0
123.454559 56.0
124.759628 112.0
125.04966 34.0
125.995621 43.0
126.337364 67.0
126.410919 51.0
126.564064 70.0
128.068268 1984.0
129.07045 145.0
129.091171 55.0
129.1082 85.0
129.635406 33.0
129.977936 80.0
130.065887 82.0
131.333786 88.0
132.637833 45.0
133.941208 48.0
134.404572 53.0
135.598831 64.0
135.901306 61.0
136.241211 34.0
136.447403 28.0
136.697205 96.0
138.525101 87.0
140.154343 31.0
140.59848 51.0
142.075592 70.0
142.383804 49.0
143.065948 29.0
144.16011 69.0
144.581787 29.0
144.655716 55.0
144.745392 54.0
145.045624 26.0
145.087585 156.0
145.764175 51.0
146.096344 59.0
146.492111 61.0
148.255753 36.0
148.470673 41.0
149.065628 83.0
149.128342 56.0
150.081619 50.0
151.461487 83.0
151.682861 98.0
152.924561 39.0
153.199234 36.0
154.742035 58.0
155.506546 43.0
155.694992 32.0
156.788101 46.0
157.007385 55.0
157.759476 86.0
158.520111 34.0
158.646301 69.0
159.097061 67.0
159.317917 68.0
159.984711 66.0
160.345627 42.0
160.936646 50.0
161.560425 78.0
162.140594 67.0
162.315155 46.0
162.727386 85.0
162.930267 90.0
163.756805 43.0
164.676697 38.0
164.778748 32.0
164.909164 45.0
166.733444 100.0
166.862381 104.0
167.049454 67.0
167.469498 27.0
167.73819 68.0
168.091171 67.0
168.14711 71.0
168.807922 40.0
169.16304 50.0
169.506531 66.0
170.064011 44.0
170.56839 68.0
171.84845 63.0
173.028717 55.0
173.102905 43.0
173.381165 96.0
173.503479 87.0
175.544815 83.0
175.595581 56.0
178.311493 98.0
178.4758 40.0
178.818375 109.0
179.06604 45.0
180.80687 66.0
181.053925 49.0
181.868332 58.0
182.284683 32.0
182.494705 72.0
182.777176 42.0
182.987991 67.0
183.101898 154.0
183.150391 396.0
184.040512 82.0
184.056244 90.0
184.14592 63.0
184.217514 57.0
184.344604 92.0
185.141922 96.0
186.176605 45.0
186.920212 70.0
187.073029 28.0
187.934433 59.0
189.131363 27.0
189.901962 32.0
190.376984 38.0
191.180344 51.0
191.871857 73.0
192.436325 71.0
193.969574 52.0
194.172516 33.0
194.697693 55.0
195.276321 59.0
196.087967 86.0
196.180298 77.0
196.470032 55.0
197.092712 166.0
197.131851 208.0
197.365356 52.0
197.536591 49.0
197.635025 34.0
197.824127 85.0
198.142487 73.0
199.073395 88.0
199.142014 67.0
199.788788 40.0
200.138443 131.0
200.765594 34.0
200.865677 62.0
201.047531 47.0
201.158524 912.0
201.456375 48.0
202.152344 140.0
202.222748 78.0
202.447815 56.0
202.70076 44.0
203.91925 47.0
204.477615 62.0
205.0849 33.0
205.111755 100.0
205.373856 100.0
205.756393 65.0
205.841721 42.0
205.878647 81.0
206.784561 37.0
207.574814 103.0
207.906281 69.0
208.244919 59.0
208.477173 66.0
208.790558 54.0
211.018005 26.0
211.143097 1473.0
211.228775 44.0
211.259689 37.0
211.299744 64.0
212.144409 183.0
212.34668 98.0
212.979874 33.0
213.143555 310.0
213.25798 35.0
213.876312 96.0
214.097412 76.0
214.1492 399.0
214.184067 35.0
214.594757 66.0
214.762894 37.0
215.148834 74.0
215.206207 81.0
215.786438 48.0
216.148102 46.0
216.191605 69.0
216.237625 56.0
216.502777 29.0
216.641083 31.0
217.554535 69.0
218.751663 66.0
219.352859 62.0
219.513351 56.0
219.564026 57.0
220.42749 49.0
220.751389 36.0
220.916779 45.0
221.188141 52.0
222.60965 41.0
223.032211 47.0
223.273041 43.0
225.123428 77.0
225.791 60.0
226.145096 41.0
226.409897 52.0
226.931015 79.0
227.234619 33.0
227.990082 76.0
228.127808 1155.0
228.187561 80.0
228.508026 65.0
228.980698 55.0
229.200912 67.0
229.284866 42.0
229.907501 30.0
230.730667 57.0
230.846176 44.0
231.100388 26.0
231.12291 70.0
231.219986 87.0
231.863708 44.0
232.38652 50.0
232.586288 38.0
232.719208 64.0
232.934372 35.0
233.493729 66.0
234.056274 53.0
234.202179 40.0
234.33522 79.0
234.392899 37.0
234.594971 57.0
235.385498 88.0
235.582443 34.0
235.704468 64.0
235.781815 32.0
236.115036 79.0
236.185394 75.0
238.105011 67.0
238.133224 34.0
239.702057 58.0
239.833817 38.0
241.782394 105.0
242.153412 335.0
242.191086 201.0
242.235916 40.0
242.310669 57.0
242.400467 105.0
242.511429 30.0
243.135895 84.0
243.180008 57.0
243.755783 69.0
244.202652 29.0
244.371887 86.0
244.462677 49.0
244.601624 64.0
245.557526 72.0
245.688538 30.0
245.836594 27.0
246.210709 99.0
246.296524 62.0
247.366501 66.0
248.85939 84.0
249.08696 68.0
249.265945 46.0
250.979584 70.0
252.033325 62.0
252.072556 85.0
252.476151 56.0
253.219727 60.0
254.047226 35.0
254.682083 47.0
254.723129 67.0
254.807098 33.0
254.837692 48.0
254.931396 61.0
255.1707 111.0
255.220779 135.0
255.314056 48.0
255.40033 78.0
255.493851 42.0
255.644287 54.0
255.742126 64.0
255.770065 66.0
255.874878 75.0
255.909378 53.0
255.99588 62.0
256.031769 70.0
256.122467 37737.0
256.228699 142.0
256.248444 131.0
256.297363 89.0
256.336517 34.0
256.371216 27.0
256.414001 80.0
256.463257 72.0
256.513855 42.0
256.574158 28.0
256.589111 39.0
256.614288 56.0
256.639038 49.0
256.701813 108.0
256.7453 92.0
256.772186 48.0
257.055084 204.0
257.12088 4319.0
257.351227 36.0
257.405518 30.0
257.51004 35.0
257.56369 42.0
257.666779 29.0
257.712067 37.0
257.742645 26.0
257.802765 28.0
257.897339 51.0
258.052704 29.0
258.129181 645.0
258.181122 161.0
258.34375 56.0
258.443817 45.0
258.530151 42.0
258.642548 37.0
258.802155 78.0
258.965454 131.0
259.005859 117.0
259.098633 173.0
259.155334 135.0
259.2276 28.0
259.839478 58.0
259.904297 34.0
260.579773 62.0
260.6315 40.0
260.842072 38.0
261.129669 33.0
261.431519 62.0
261.877167 59.0
262.145966 38.0
262.300018 77.0
262.41098 40.0
262.455566 131.0
262.649841 28.0
262.942322 69.0
263.200348 90.0
264.175201 66.0
264.697906 36.0
265.002441 43.0
265.362549 37.0
265.773712 34.0
265.908844 53.0
266.0159 53.0
266.441559 43.0
266.639923 70.0
267.042114 49.0
267.106873 80.0
267.919922 35.0
268.39505 45.0
268.702698 41.0
268.725616 83.0
268.867493 30.0
269.103607 61.0
269.138458 62.0
269.289948 54.0
270.054291 113.0
270.10788 218.0
270.136047 251.0
270.182587 180.0
270.236603 80.0
270.480072 30.0
270.575623 68.0
270.83783 34.0
271.101868 607.0
271.11853 641.0
271.147491 509.0
271.330597 29.0
271.357208 27.0
272.111755 124.0
272.146606 73.0
272.523102 55.0
273.129944 65.0
273.191071 26.0
273.305023 89.0
273.44455 46.0
273.55954 27.0
274.285431 58.0
274.429138 28.0
274.90094 40.0
275.751831 44.0
276.841919 100.0
276.990295 41.0
278.433258 70.0
278.562347 60.0
279.222382 78.0
279.246368 123.0
280.585297 56.0
281.153992 55.0
281.194305 77.0
281.23764 42.0
281.896576 82.0
283.983887 50.0
284.17395 96.0
284.204895 113.0
284.277863 26.0
285.066833 38.0
285.145782 43.0
285.450378 48.0
285.792664 72.0
286.055542 30.0
286.20285 73.0
286.307251 81.0
287.665131 52.0
287.789307 52.0
288.521423 39.0
289.399536 34.0
289.652344 38.0
289.866547 36.0
289.944824 43.0
290.931396 38.0
291.55011 52.0
291.719818 39.0
293.793121 33.0
294.459778 58.0
294.783783 52.0
296.208771 89.0
296.231323 137.0
296.279266 117.0
296.321808 53.0
296.962036 60.0
297.041504 55.0
297.21814 111.0
297.249023 43.0
297.46463 59.0
297.891693 64.0
298.082794 69.0
298.152405 406.0
298.204285 2456.0
298.476715 28.0
298.644653 44.0
298.726776 37.0
298.988007 29.0
299.208771 363.0
299.254059 148.0
299.377472 50.0
299.840179 100.0
300.17868 90.0
300.284454 69.0
300.75647 35.0
301.165497 50.0
301.557404 45.0
302.161224 33.0
302.224121 61.0
302.427032 58.0
303.832611 52.0
304.214935 66.0
304.90213 39.0
305.914978 44.0
307.744263 85.0
308.245636 38.0
308.38089 65.0
308.743744 64.0
309.191101 75.0
309.987183 36.0
310.172607 217.0
310.213623 545.0
310.681427 27.0
310.902527 62.0
311.186615 48.0
311.230957 81.0
311.259979 72.0
311.725464 33.0
312.218811 75.0
312.276306 111.0
313.198395 53.0
313.232117 51.0
313.410889 57.0
313.697845 48.0
314.290802 108.0
314.341248 42.0
315.103638 35.0
315.257477 61.0
315.369171 74.0
315.40799 101.0
315.904114 26.0
316.308289 43.0
316.46817 71.0
318.374481 42.0
319.192902 92.0
319.414642 62.0
319.487488 62.0
319.532776 111.0
319.874847 64.0
320.041962 45.0
320.180267 51.0
320.812195 72.0
321.293976 34.0
321.694 70.0
321.843964 42.0
322.271912 79.0
322.344604 46.0
322.834106 65.0
323.009705 56.0
323.061218 102.0
323.197723 201.0
323.270935 176.0
323.805664 42.0
323.989319 46.0
324.12088 63.0
324.223389 7578.0
324.267059 1608.0
324.467499 56.0
324.644623 55.0
324.681274 31.0
324.900665 72.0
324.93399 34.0
325.03067 34.0
325.091919 56.0
325.126984 108.0
325.227448 1795.0
325.274414 619.0
325.4758 80.0
325.559814 34.0
325.810089 55.0
325.912384 34.0
326.193512 102.0
326.230469 186.0
326.281708 65.0
326.567627 30.0
327.180847 274.0
327.252197 81.0
327.471924 48.0
327.490173 54.0
327.630737 34.0
327.871002 71.0
327.993256 60.0
328.101227 72.0
328.253204 29.0
328.821899 58.0
329.128052 34.0
329.201691 89.0
329.337341 94.0
329.384766 44.0
329.68335 56.0
330.558289 37.0
330.874603 59.0
331.561005 65.0
331.60437 30.0
331.818207 66.0
333.022278 55.0
333.401459 41.0
333.756989 49.0
334.118896 142.0
335.015839 28.0
335.410431 36.0
335.567261 30.0
335.642975 83.0
336.155396 33.0
337.097626 93.0
337.285217 59.0
337.741882 58.0
338.167572 75.0
339.271149 54.0
339.394287 68.0
339.642609 55.0
339.996307 86.0
340.045227 60.0
340.178101 71.0
340.267334 75.0
341.205719 3992.0
341.273865 686.0
341.720184 96.0
341.789551 74.0
342.209015 836.0
342.241913 326.0
342.313293 212.0
343.223816 166.0
343.256805 94.0
343.636688 43.0
343.844025 99.0
344.100708 48.0
344.299255 94.0
344.770294 67.0
345.147156 37.0
345.338257 65.0
345.370819 49.0
345.596191 33.0
346.340546 80.0
346.384399 68.0
347.782166 69.0
348.096771 39.0
348.806946 88.0
349.027557 36.0
349.064941 101.0
349.589508 47.0
349.971436 56.0
350.185822 47.0
350.338043 60.0
350.467407 43.0
350.902832 42.0
351.195496 164.0
351.468353 67.0
352.068573 67.0
352.190369 396.0
352.280029 63.0
352.305237 35.0
352.336609 29.0
352.41452 92.0
352.493622 83.0
353.22821 67.0
353.513763 26.0
354.203003 52.0
355.026794 50.0
355.191406 1485.0
355.280212 102.0
355.353851 68.0
355.408569 66.0
356.0755 32.0
356.195557 340.0
356.311798 103.0
356.726471 52.0
357.128662 48.0
357.169128 56.0
357.198059 75.0
357.233063 54.0
357.263031 90.0
357.489105 63.0
357.790741 36.0
358.247589 106.0
358.360504 58.0
358.449432 63.0
358.490631 53.0
358.580811 37.0
358.803253 39.0
358.878845 43.0
359.159454 38.0
360.736572 58.0
361.051514 49.0
361.460541 38.0
361.588989 47.0
361.907227 52.0
361.96756 37.0
362.067261 44.0
362.237366 40.0
362.875244 27.0
363.151672 35.0
363.453949 90.0
363.68219 49.0
363.885132 45.0
364.207397 77.0
364.223816 92.0
364.542603 33.0
365.097046 135.0
365.151642 46.0
365.364166 56.0
365.562317 82.0
365.749969 53.0
365.8638 35.0
366.054932 43.0
366.096954 29.0
366.167236 50.0
366.567688 50.0
366.606079 39.0
366.775604 57.0
366.819794 79.0
366.874451 43.0
366.939331 58.0
367.001129 82.0
367.161346 56.0
367.303833 106.0
367.501556 38.0
367.527069 27.0
367.702698 57.0
367.805176 64.0
367.954895 78.0
368.005341 60.0
368.180237 71.0
368.271606 82.0
368.307587 166.0
368.361237 49.0
368.402985 74.0
368.45993 116.0
368.544556 46.0
368.568298 92.0
368.650574 83.0
368.726654 46.0
368.787567 92.0
368.836945 62.0
368.893494 75.0
368.938873 131.0
369.008606 37.0
369.204041 68424.0
369.363556 207.0
369.442932 36.0
369.518372 43.0
369.557037 107.0
369.587463 100.0
369.630615 72.0
369.739746 68.0
369.775024 73.0
369.869598 87.0
369.918518 73.0
369.982178 117.0
370.024536 30.0
370.063812 66.0
370.205688 13469.0
370.383362 103.0
370.457275 182.0
370.481842 155.0
370.532135 40.0
370.597687 54.0
370.641144 103.0
370.684204 26.0
370.839355 66.0
370.887878 75.0
370.955383 26.0
371.029541 52.0
371.055542 96.0
371.117371 144.0
371.20813 2263.0
371.280243 306.0
371.349121 64.0
371.379333 51.0
371.532013 44.0
371.725372 40.0
371.881409 30.0
371.929413 36.0
371.980438 56.0
372.02002 39.0
372.052307 56.0
372.170197 148.0
372.204865 244.0
372.279449 50.0
372.362 72.0
372.477539 63.0
372.513489 29.0
372.554047 48.0
372.584686 59.0
372.628326 81.0
372.668732 106.0
372.738403 114.0
372.775696 60.0
372.828217 33.0
372.860199 64.0
372.918091 38.0
373.001678 81.0
373.080383 32.0
373.202057 103.0
373.330048 41.0
373.391113 35.0
373.449249 40.0
373.504547 47.0
373.536621 121.0
373.648712 48.0
373.705139 37.0
373.747009 170.0
373.912109 40.0
374.026581 38.0
374.25647 67.0
374.512115 85.0
374.704712 75.0
375.025635 30.0
375.044678 37.0
375.183624 56.0
375.445374 83.0
375.681152 33.0
375.888 35.0
375.949219 99.0
376.369446 38.0
376.73642 35.0
376.973419 38.0
377.242371 52.0
378.194489 35.0
378.498077 40.0
378.729401 65.0
378.991394 29.0
379.064331 27.0
379.180786 58.0
379.260498 35.0
379.465393 102.0
379.891571 36.0
380.194702 81.0
381.275696 1725.0
381.38092 72.0
381.478119 42.0
382.281738 666.0
382.343109 107.0
382.369476 128.0
382.563873 75.0
382.616882 49.0
382.664459 37.0
382.91803 32.0
383.234589 138.0
383.28067 173.0
383.478149 28.0
383.961914 104.0
384.069733 112.0
384.141846 156.0
384.196411 778.0
384.28299 179.0
384.399567 50.0
384.550568 49.0
384.654419 75.0
385.153107 66.0
385.204803 177.0
385.246094 114.0
386.185364 85.0
386.295441 86.0
386.344482 96.0
386.602936 66.0
386.695068 86.0
386.869965 38.0
387.274689 76.0
387.785553 34.0
388.212158 36.0
388.307983 73.0
388.843933 69.0
389.574829 55.0
390.197968 50.0
390.411163 40.0
390.431122 69.0
390.756592 77.0
390.821442 52.0
390.983246 30.0
391.26828 158.0
391.544128 60.0
391.689178 50.0
391.751526 91.0
391.972382 51.0
392.745239 32.0
393.055115 28.0
393.105804 52.0
394.231812 59.0
394.412354 106.0
394.47757 56.0
394.806335 50.0
395.263367 1486.0
395.324097 200.0
395.365143 57.0
395.431061 41.0
395.602722 38.0
396.040497 37.0
396.220001 46.0
396.273285 379.0
396.673492 87.0
396.966339 65.0
397.259247 50.0
397.305206 63.0
397.452606 88.0
397.518036 91.0
397.918365 33.0
398.056366 35.0
398.264435 102.0
398.291718 142.0
398.566559 34.0
398.647675 32.0
398.777649 50.0
398.825256 87.0
398.864197 48.0
399.208466 38.0
399.392029 29.0
399.728516 74.0
400.137299 37.0
400.341858 35.0
400.529419 71.0
401.898621 110.0
402.065338 53.0
402.172241 34.0
402.442596 57.0
402.606262 81.0
403.51712 30.0
403.632965 55.0
403.927856 36.0
405.117188 44.0
405.289673 37.0
405.369293 38.0
405.502441 54.0
405.71875 52.0
405.792786 57.0
405.972015 53.0
406.04953 83.0
406.497681 49.0
406.883575 99.0
407.06012 89.0
407.203796 46.0
407.257355 33.0
407.389313 28.0
407.642334 46.0
407.708527 45.0
408.012085 39.0
408.128052 53.0
408.191742 132.0
408.234589 281.0
408.322998 121.0
408.395996 62.0
408.452057 53.0
408.622559 123.0
408.800385 40.0
408.900452 85.0
409.06662 47.0
409.145844 148.0
409.274963 32456.0
409.56662 86.0
409.625854 44.0
409.673553 38.0
409.716766 137.0
409.824005 92.0
409.882507 114.0
409.94458 43.0
410.043884 40.0
410.130127 51.0
410.277588 7641.0
410.434082 60.0
410.471771 110.0
410.58194 101.0
410.671112 68.0
410.724731 30.0
410.828217 107.0
410.933136 31.0
411.021881 35.0
411.126678 89.0
411.162079 62.0
411.279419 1248.0
411.348236 274.0
411.458374 72.0
411.504333 32.0
411.549591 66.0
411.617859 42.0
412.117493 34.0
412.226044 180.0
412.29422 86.0
412.34079 41.0
412.427399 84.0
412.496399 32.0
412.757294 107.0
412.896118 51.0
412.959198 36.0
412.993317 51.0
413.033051 26.0
413.199219 91.0
413.2341 65.0
413.473083 44.0
413.548004 27.0
413.583588 39.0
413.695679 37.0
413.718384 35.0
413.82486 54.0
413.886841 47.0
413.919647 40.0
413.980835 54.0
414.076965 74.0
414.718781 36.0
414.878235 48.0
415.092651 32.0
415.813293 96.0
416.744476 29.0
417.010803 30.0
417.563599 55.0
417.69574 40.0
418.130524 29.0
418.534546 37.0
418.872681 28.0
418.963623 44.0
419.534729 37.0
420.145935 38.0
420.212341 88.0
420.887115 75.0
420.932373 58.0
422.408081 33.0
422.445984 31.0
422.478729 27.0
422.690735 47.0
422.814819 73.0
423.27121 86.0
423.337311 54.0
423.441559 57.0
423.609283 100.0
423.852478 33.0
424.225983 54.0
424.397675 74.0
424.537323 39.0
425.058624 26.0
425.108459 106.0
425.286011 33.0
425.331818 69.0
425.633911 49.0
425.881958 60.0
426.017303 82.0
426.089325 40.0
426.145538 62.0
426.264069 3266.0
426.405701 101.0
426.527588 52.0
426.607819 41.0
426.731873 49.0
427.231934 654.0
427.268097 1006.0
427.363525 116.0
427.458374 69.0
427.911713 48.0
427.959229 33.0
428.219604 110.0
428.26059 174.0
428.281677 168.0
428.328796 123.0
428.615692 35.0
428.677155 40.0
428.951691 45.0
429.160675 50.0
429.94043 64.0
431.33316 33.0
431.539093 49.0
431.708374 54.0
431.7742 112.0
431.856476 72.0
431.982544 38.0
432.623383 76.0
432.734314 57.0
432.953491 32.0
433.066193 85.0
433.795563 29.0
433.879852 26.0
435.168701 36.0
435.268616 55.0
435.631317 53.0
435.961151 71.0
436.328766 83.0
436.867676 74.0
437.240631 78.0
437.488434 39.0
437.93161 77.0
438.107941 31.0
438.373566 67.0
438.879608 49.0
438.947693 49.0
439.264404 37.0
439.665314 35.0
440.021454 54.0
440.272003 1645.0
440.354584 239.0
440.528534 77.0
440.661224 32.0
440.723145 39.0
440.937531 42.0
441.229553 183.0
441.281494 346.0
441.347107 124.0
441.395203 74.0
441.43692 101.0
442.108521 54.0
442.202911 57.0
442.263031 141.0
442.393738 46.0
442.512207 30.0
443.163452 83.0
443.222321 43.0
443.486877 68.0
443.526886 68.0
443.653259 83.0
444.149231 47.0
444.505432 47.0
444.777069 42.0
444.997864 40.0
445.351501 85.0
445.544128 43.0
445.76474 45.0
446.794403 32.0
447.095184 38.0
448.547729 60.0
448.668213 28.0
449.053528 29.0
449.137115 67.0
449.47467 36.0
449.545563 68.0
449.684784 68.0
449.941559 32.0
450.209869 94.0
450.328033 63.0
450.377991 53.0
450.683105 86.0
450.826172 72.0
451.139282 79.0
451.25647 700.0
451.357422 85.0
451.533478 32.0
451.716431 143.0
451.810272 104.0
452.18335 54.0
452.225342 120.0
452.299011 83.0
452.331696 35.0
452.737305 58.0
452.939362 66.0
453.236572 84.0
453.386505 46.0
453.577454 45.0
453.877075 73.0
454.033936 76.0
454.110382 34.0
454.250854 3520.0
454.390167 216.0
454.443634 50.0
454.78598 120.0
455.038757 65.0
455.251831 949.0
455.290131 514.0
455.340881 273.0
455.529907 52.0
455.950562 44.0
456.014099 72.0
456.270691 258.0
456.330658 97.0
456.357819 88.0
456.440796 46.0
456.491302 34.0
456.646637 49.0
456.919434 47.0
457.125122 46.0
457.454071 50.0
457.690674 34.0
458.153229 70.0
458.414093 36.0
458.609344 54.0
459.888245 87.0
460.585236 39.0
460.618927 38.0
460.708191 39.0
460.77301 65.0
460.836273 58.0
460.99942 26.0
461.237274 66.0
461.389465 70.0
462.329559 77.0
462.697784 52.0
462.877594 106.0
463.012177 77.0
463.299011 73.0
463.388458 70.0
463.586823 59.0
463.684875 28.0
463.806854 33.0
463.880585 77.0
464.041931 99.0
464.137482 62.0
464.417206 47.0
464.466278 55.0
464.521637 42.0
464.572601 37.0
464.593842 46.0
464.675934 36.0
464.84024 53.0
464.916779 58.0
465.030731 80.0
465.131775 61.0
465.389954 60.0
465.526062 30.0
465.610809 53.0
465.643158 94.0
465.711548 49.0
465.773102 55.0
465.826599 99.0
465.932922 36.0
465.979126 28.0
466.025696 28.0
466.060364 66.0
466.200348 42.0
466.305145 31.0
466.353058 78.0
466.468658 113.0
466.52243 58.0
466.771179 31.0
466.802551 93.0
466.90564 34.0
466.94104 53.0
466.97113 62.0
467.079987 135.0
467.15802 73.0
467.26239 239.0
467.306183 95.0
467.340546 135.0
467.380859 124.0
467.448639 87.0
467.491455 198.0
467.541534 40.0
467.595123 107.0
467.634857 119.0
467.693542 100.0
467.742218 169.0
467.817139 115.0
467.850311 123.0
467.951294 240.0
468.059937 323.0
468.273682 169884.0
468.526306 289.0
468.643127 311.0
468.707672 322.0
468.736176 227.0
468.763794 280.0
468.818878 279.0
468.851654 129.0
468.958069 216.0
468.982361 245.0
469.037231 273.0
469.087341 232.0
469.276886 46115.0
469.481995 53.0
469.517609 68.0
469.581879 64.0
469.631927 104.0
469.733795 129.0
469.801392 51.0
469.846375 117.0
469.891968 106.0
469.924011 54.0
469.978058 92.0
470.036011 69.0
470.096283 65.0
470.125427 119.0
470.152771 92.0
470.277222 7278.0
470.353271 1368.0
470.452972 167.0
470.553986 56.0
470.588165 152.0
470.642303 103.0
470.723938 57.0
470.772583 68.0
470.819489 51.0
470.87146 37.0
470.917786 37.0
470.978638 61.0
471.036316 87.0
471.092194 69.0
471.141998 72.0
471.254425 625.0
471.293457 538.0
471.343353 220.0
471.413574 91.0
471.447998 79.0
471.500793 126.0
471.551086 45.0
471.600098 90.0
471.705811 112.0
471.764587 137.0
471.840881 119.0
471.873169 80.0
471.947815 70.0
472.014252 134.0
472.081665 134.0
472.156342 130.0
472.198547 98.0
472.239349 194.0
472.27771 150.0
472.307037 127.0
472.361359 51.0
472.402008 38.0
472.459656 81.0
472.508575 93.0
472.55423 52.0
472.606506 57.0
472.650116 77.0
472.801025 27.0
472.869446 40.0
472.944489 33.0
473.068481 68.0
473.111755 41.0
473.183411 55.0
473.255432 53.0
473.290344 84.0
473.330444 82.0
473.473969 51.0
473.524658 53.0
473.623352 53.0
473.659088 41.0
473.701172 28.0
473.80835 33.0
473.893616 36.0
473.923279 61.0
473.966583 32.0
474.075653 37.0
474.176117 60.0
474.275177 26.0
474.361847 27.0
474.422943 56.0
474.50061 67.0
474.744232 97.0
475.072113 33.0
475.221161 121.0
475.306549 110.0
475.440887 28.0
475.471069 43.0
475.631165 28.0
475.870117 26.0
475.92514 28.0
475.968231 37.0
476.008636 57.0
476.804077 34.0
477.053223 48.0
477.147308 36.0
477.181732 69.0
477.42392 62.0
477.50116 51.0
477.684631 33.0
477.727509 100.0
478.040436 28.0
478.195282 26.0
478.525879 34.0
478.696381 26.0
479.536499 39.0
479.816284 31.0
480.049255 28.0
480.193085 35.0
480.312836 51.0
480.61026 34.0
480.74472 96.0
481.028534 67.0
481.366608 34.0
482.007507 46.0
482.161682 71.0
482.290588 411.0
482.362671 54.0
482.396301 68.0
482.50827 27.0
482.640472 30.0
482.747101 56.0
482.846039 47.0
482.910736 56.0
483.050171 149.0
483.217377 668.0
483.281342 1810.0
483.413239 182.0
483.712341 87.0
483.787872 27.0
483.885132 61.0
483.934021 38.0
484.191742 142.0
484.259888 412.0
484.287628 497.0
484.33783 188.0
484.546021 40.0
484.662415 43.0
485.002045 40.0
485.228088 133.0
485.302643 70.0
485.965363 34.0
486.151733 50.0
486.244843 67.0
486.32132 48.0
486.670715 56.0
486.784698 27.0
487.348145 57.0
487.425293 30.0
487.856873 46.0
488.007294 41.0
488.183014 72.0
488.286255 46.0
488.91626 69.0
489.304993 40.0
489.36972 120.0
489.581268 39.0
490.205688 50.0
490.239105 70.0
491.173431 29.0
491.252655 73.0
491.359253 65.0
491.422791 70.0
491.644836 35.0
491.822723 77.0
492.307037 67.0
493.189545 62.0
493.252991 65.0
493.310608 47.0
493.901794 34.0
494.186127 47.0
494.270355 363.0
494.32016 686.0
494.423035 69.0
494.582581 58.0
494.677063 49.0
495.316315 257.0
495.412964 78.0
495.468628 54.0
495.511353 52.0
495.656342 130.0
496.270508 103.0
496.383331 77.0
497.593536 36.0
497.899933 32.0
497.972382 48.0
498.142944 31.0
498.735718 36.0
498.953217 47.0
499.065277 26.0
499.518036 43.0
500.204987 32.0
500.327484 61.0
500.381592 101.0
501.115479 70.0
502.12207 77.0
502.237335 63.0
502.473328 38.0
502.53006 68.0
502.591125 70.0
503.01947 67.0
503.665253 54.0
505.308136 51.0
505.951569 47.0
506.107971 48.0
506.30838 41.0
506.357056 42.0
506.662537 48.0
506.879181 43.0
506.912018 52.0
507.265381 50.0
508.244202 56.0
508.328461 177.0
508.364044 313.0
508.450287 104.0
509.111755 39.0
509.19635 26.0
509.308075 137.0
509.352997 210.0
509.476074 35.0
509.587433 44.0
509.644623 35.0
510.017578 31.0
510.644714 114.0
511.083038 53.0
511.302734 48.0
511.346771 35.0
511.380615 58.0
511.586029 82.0
511.943573 58.0
512.275696 55.0
512.310486 80.0
512.376221 32.0
512.584045 62.0
512.721069 53.0
512.770752 26.0
513.318542 43.0
513.689758 55.0
513.7146 57.0
513.957947 70.0
514.34967 37.0
514.718018 54.0
514.798706 75.0
515.171021 39.0
515.961304 84.0
516.418823 68.0
516.455505 46.0
516.543579 34.0
517.327148 65.0
517.450134 55.0
517.7854 52.0
517.866333 41.0
519.145935 39.0
519.737671 111.0
520.187866 100.0
520.640747 38.0
521.307434 37.0
521.524841 40.0
521.695374 108.0
522.204651 104.0
522.261353 57.0
522.302673 111.0
522.34613 67.0
522.394836 54.0
522.555908 79.0
522.815063 56.0
522.904785 52.0
522.999146 67.0
523.171814 66.0
523.992126 28.0
524.039551 60.0
524.522522 81.0
525.18512 75.0
525.291809 144.0
525.339905 200.0
525.389832 69.0
525.676636 33.0
526.001465 37.0
526.318115 147.0
526.374634 29.0
526.862244 56.0
526.969055 55.0
527.175293 68.0
527.61377 54.0
527.654419 51.0
527.922913 44.0
528.252258 50.0
528.404175 28.0
528.501038 72.0
528.651001 42.0
528.99353 33.0
529.142151 36.0
529.795166 54.0
530.69165 64.0
530.763428 43.0
530.82605 40.0
531.672119 46.0
532.041504 82.0
532.088806 32.0
532.423889 93.0
532.554199 43.0
533.319641 73.0
533.404297 29.0
533.482788 35.0
533.729675 99.0
534.65448 61.0
535.132263 49.0
535.224426 193.0
535.319397 660.0
535.387756 165.0
535.442566 68.0
536.185547 97.0
536.301697 537.0
536.400574 141.0
536.486694 52.0
536.540039 30.0
536.706909 37.0
536.769348 40.0
537.176453 33.0
537.210144 98.0
537.266663 126.0
537.322632 117.0
537.401794 49.0
537.664001 65.0
537.805115 30.0
537.935303 34.0
538.029297 63.0
538.22467 75.0
538.37384 83.0
538.479248 27.0
538.848206 38.0
539.130188 39.0
539.310303 11237.0
539.42218 634.0
539.459412 439.0
539.585938 46.0
539.893372 122.0
540.318237 3471.0
540.441284 100.0
540.504944 52.0
540.817383 37.0
540.870789 30.0
540.947876 46.0
541.21344 97.0
541.258667 277.0
541.32373 587.0
541.432495 63.0
541.715454 46.0
541.930298 32.0
542.134338 30.0
542.331787 167.0
542.385803 29.0
542.63385 78.0
542.668945 64.0
542.707214 79.0
542.976746 48.0
543.039551 41.0
543.126465 45.0
543.349548 35.0
543.391357 97.0
543.442566 84.0
543.948914 47.0
544.324951 123.0
544.41095 34.0
544.574158 35.0
544.666138 66.0
544.819946 60.0
545.365784 38.0
545.468018 27.0
545.891663 38.0
546.056458 48.0
546.304565 43.0
546.371765 46.0
546.484131 57.0
546.522095 38.0
546.599548 36.0
546.69873 30.0
546.859009 73.0
546.940674 61.0
547.211548 92.0
547.278076 37.0
547.309998 56.0
547.440918 32.0
547.507751 40.0
547.846252 31.0
548.006653 96.0
548.061768 34.0
548.31311 60.0
548.355225 103.0
548.432556 45.0
548.494141 36.0
548.59198 74.0
548.669312 38.0
548.851807 39.0
548.913757 33.0
548.948669 42.0
549.024597 67.0
549.169922 60.0
549.266907 59.0
549.313721 75.0
549.366089 76.0
549.423828 68.0
549.471802 49.0
549.530273 95.0
549.647705 56.0
549.697449 34.0
549.744507 186.0
549.792725 33.0
549.828247 88.0
549.886963 82.0
549.930908 150.0
549.974182 163.0
550.047363 52.0
550.116211 75.0
550.203247 69.0
550.237549 108.0
550.300659 129.0
550.347412 119.0
550.426453 42.0
550.463379 44.0
550.506226 57.0
550.64093 152.0
550.682922 132.0
550.748962 149.0
550.801514 123.0
550.871155 100.0
550.957031 131.0
551.09137 54.0
551.138367 28.0
551.178955 117.0
551.224792 178.0
551.331421 66.0
551.372192 161.0
551.41156 171.0
551.499695 130.0
551.579224 69.0
551.674133 169.0
551.703003 147.0
551.736023 152.0
551.782532 157.0
551.809631 148.0
551.875183 89.0
551.961121 109.0
552.035767 319.0
552.128357 142.0
552.153137 151.0
552.207214 194.0
552.319641 121.0
552.415771 278.0
552.473511 226.0
552.52478 127.0
552.574463 189.0
552.618408 155.0
552.657288 215.0
552.731567 363.0
552.769287 229.0
552.822998 197.0
552.881592 208.0
552.941284 431.0
552.997803 400.0
553.071899 527.0
553.329773 404537.0
553.55957 174.0
553.61554 322.0
553.665344 276.0
553.764404 1849.0
553.839905 433.0
553.912659 398.0
553.984741 224.0
554.074829 1236.0
554.08905 1162.0
554.096558 1100.0
554.161011 1731.0
554.330811 156941.0
554.563782 233.0
554.603577 302.0
554.640808 428.0
554.701843 143.0
554.786438 212.0
554.831177 291.0
554.883545 146.0
554.952515 304.0
554.997009 183.0
555.025513 225.0
555.063721 188.0
555.126099 137.0
555.182434 604.0
555.333557 28953.0
555.498047 324.0
555.579102 167.0
555.707336 133.0
555.770569 111.0
555.818481 99.0
555.85022 89.0
555.897095 148.0
555.983398 149.0
556.016052 245.0
556.092407 146.0
556.14679 98.0
556.334595 3520.0
556.4729 176.0
556.547852 78.0
556.605164 35.0
556.64856 71.0
556.700073 94.0
556.753906 121.0
556.798157 86.0
556.843079 160.0
556.915649 87.0
556.95752 112.0
557.041809 158.0
557.072083 118.0
557.138489 148.0
557.224731 197.0
557.252258 224.0
557.309265 312.0
557.355164 460.0
557.402527 241.0
557.439819 352.0
557.50061 241.0
557.550415 215.0
557.585449 168.0
557.682434 209.0
557.730103 173.0
557.779724 136.0
557.892334 150.0
557.957153 142.0
557.987366 113.0
558.028503 81.0
558.064453 80.0
558.095093 161.0
558.17572 123.0
558.215759 81.0
558.259644 68.0
558.311584 115.0
558.350159 116.0
558.413818 139.0
558.476196 81.0
558.546326 181.0
558.656799 104.0
558.694946 127.0
558.746765 114.0
558.845093 150.0
558.937012 70.0
558.958191 80.0
559.010315 120.0
559.049561 39.0
559.130554 79.0
559.199463 68.0
559.235474 37.0
559.286438 67.0
559.457642 82.0
559.574829 50.0
559.630981 67.0
559.705505 60.0
559.810669 47.0
559.89093 50.0
559.95459 88.0
560.032349 31.0
560.109314 71.0
560.197021 36.0
560.230957 68.0
560.33136 38.0
560.425476 42.0
560.521973 117.0
560.591431 46.0
560.627441 84.0
560.658142 87.0
560.709351 32.0
560.841919 33.0
560.88385 38.0
560.960022 82.0
561.038025 38.0
561.25769 34.0
561.314575 50.0
561.468994 53.0
561.500061 33.0
561.53717 47.0
561.579224 37.0
561.725342 46.0
561.805847 57.0
561.844971 31.0
561.914246 58.0
561.979492 75.0
562.049438 52.0
562.241455 46.0
562.303101 29.0
562.335266 64.0
562.424683 31.0
562.499573 33.0
562.534729 26.0
562.565308 38.0
562.767273 52.0
562.858154 34.0
563.171692 66.0
563.218933 58.0
563.43219 49.0
563.604736 46.0
563.738098 41.0
563.874329 57.0
563.941284 37.0
564.044312 80.0
564.127014 31.0
564.437744 29.0
564.581482 52.0
564.749084 29.0
564.804016 44.0
565.212524 26.0
565.323425 39.0
565.436523 39.0
565.871582 48.0
565.922546 65.0
566.347656 94.0
566.399902 62.0
566.476318 28.0
566.596985 40.0
566.704529 36.0
566.903198 51.0
566.975525 40.0
567.075134 64.0
567.346802 1247.0
567.485901 67.0
567.635498 37.0
567.82782 32.0
567.938293 59.0
568.177856 84.0
568.330627 5804.0
568.475098 166.0
568.740112 33.0
568.973083 34.0
569.019043 30.0
569.22113 56.0
569.328552 1771.0
569.467896 78.0
569.622253 48.0
569.654724 56.0
569.946228 27.0
570.271057 183.0
570.327637 232.0
570.388855 26.0
570.451904 30.0
570.500916 30.0
570.539185 26.0
570.976074 27.0
571.034546 37.0
571.329956 54.0
571.401978 71.0
571.770691 56.0
571.825134 54.0
571.886902 30.0
571.953308 49.0
572.273132 26.0
572.349487 56.0
572.620972 76.0
572.714172 27.0
573.363953 40.0
573.401794 46.0
573.527466 54.0
573.859009 45.0
574.050049 33.0
574.134338 63.0
574.180603 34.0
574.311157 28.0
574.392212 30.0
574.540527 33.0
574.614685 30.0
575.20343 34.0
575.39624 27.0
575.69342 26.0
576.875 44.0
577.426758 59.0
577.927734 47.0
578.361084 42.0
578.859192 59.0
579.272034 27.0
579.354492 53.0
579.394226 71.0
580.55481 50.0
580.641968 33.0
581.367432 77.0
582.215393 58.0
582.534912 35.0
584.330811 26.0
584.646484 28.0
584.944336 37.0
585.34845 54.0
585.568726 97.0
585.684753 44.0
586.058472 39.0
586.177856 26.0
587.34729 28.0
590.274292 50.0
591.514709 64.0
591.594055 27.0
591.773621 34.0
592.201904 52.0
592.870056 36.0
593.025879 44.0
593.398376 893.0
593.494446 150.0
593.786621 45.0
593.869934 26.0
593.95636 26.0
594.115479 69.0
594.381897 401.0
594.49939 37.0
594.562622 61.0
594.729248 57.0
595.294128 103.0
595.395508 65.0
596.963806 34.0
597.165344 63.0
597.557129 31.0
600.235229 58.0
600.352966 79.0
600.399353 139.0
600.478943 36.0
600.862915 97.0
600.907715 44.0
601.000183 26.0
601.056641 57.0
601.334045 54.0
601.952454 34.0
603.553589 59.0
604.197937 33.0
604.68042 46.0
605.14447 52.0
605.372925 30.0
605.566284 40.0
605.824524 47.0
606.181702 46.0
606.356201 41.0
607.069214 32.0
607.396667 64.0
607.750183 55.0
609.412109 117.0
609.440125 166.0
609.741699 40.0
610.362732 50.0
610.413879 137.0
610.582214 40.0
610.676819 38.0
611.730774 48.0
612.600525 44.0
612.857666 49.0
613.716675 47.0
614.567993 50.0
614.604919 42.0
615.743469 34.0
617.244019 33.0
617.297729 50.0
618.465393 76.0
618.776794 37.0
619.095459 50.0
620.066528 28.0
621.004639 26.0
621.357178 28.0
621.39978 128.0
622.421326 58.0
622.455444 39.0
623.835205 35.0
624.221619 36.0
624.502502 53.0
624.781006 84.0
624.945618 49.0
625.420898 40.0
625.711975 33.0
626.975525 35.0
627.245667 91.0
628.287231 84.0
628.981506 33.0
629.015137 58.0
629.764893 44.0
630.076477 26.0
631.323608 51.0
634.285706 36.0
634.85083 68.0
635.129456 53.0
635.33313 27.0
635.412415 37.0
636.370361 126.0
637.854248 26.0
637.908569 41.0
638.322693 42.0
638.364075 57.0
638.970825 42.0
639.80365 52.0
640.299072 49.0
640.540344 34.0
642.325378 57.0
642.401733 40.0
643.508606 50.0
644.234009 49.0
644.349426 40.0
644.816895 28.0
645.359741 34.0
646.25647 29.0
648.210938 67.0
649.370972 108.0
649.703369 26.0
649.760437 48.0
649.970886 64.0
650.170532 69.0
650.250122 273.0
650.383606 2921.0
650.468994 295.0
650.562073 77.0
650.745361 32.0
650.859619 27.0
650.906311 50.0
651.383545 1015.0
651.474976 221.0
651.675354 28.0
652.385132 346.0
652.439941 70.0
652.488586 55.0
652.744751 71.0
652.844604 37.0
653.132202 86.0
653.384583 112.0
653.949707 36.0
654.569702 39.0
654.93335 37.0
655.528503 49.0
655.945618 42.0
657.873352 37.0
658.799988 33.0
659.313721 46.0
660.372009 34.0
660.474487 37.0
660.814331 27.0
660.854065 32.0
661.86792 36.0
662.084473 30.0
662.592041 36.0
663.458557 52.0
663.572021 33.0
664.006348 34.0
664.064087 44.0
664.187805 35.0
664.242126 48.0
664.355896 110.0
665.172546 53.0
665.408386 66.0
665.767761 35.0
666.391418 33.0
666.673218 34.0
667.131287 27.0
667.517334 38.0
668.545715 52.0
669.04895 26.0
669.078247 30.0
669.638 38.0
670.526306 27.0
671.046082 57.0
671.300964 32.0
671.701843 44.0
673.04895 33.0
674.435364 28.0
675.438354 52.0
676.428406 32.0
677.124695 26.0
677.797363 49.0
677.928467 52.0
678.653687 37.0
678.851807 33.0
678.897278 26.0
679.574768 55.0
680.179565 45.0
680.304504 48.0
680.602417 29.0
682.009155 68.0
683.854187 57.0
683.911621 31.0
684.511963 44.0
686.86908 47.0
686.954895 33.0
688.087524 48.0
688.756226 49.0
688.874756 27.0
688.940552 33.0
689.570435 45.0
690.499817 39.0
690.758728 37.0
691.181702 57.0
691.861633 71.0
693.082275 71.0
693.381287 63.0
693.480896 27.0
693.867493 32.0
694.918579 32.0
695.204407 35.0
696.101013 42.0
696.379761 29.0
696.773438 35.0
697.353638 28.0
697.565063 28.0
699.970825 30.0
700.391785 47.0
700.899658 50.0
702.282654 32.0
702.501526 53.0
702.66449 38.0
704.460632 32.0
704.873535 31.0
705.298523 41.0
705.758301 36.0
706.393555 48.0
706.468994 58.0
706.519348 57.0
707.330139 39.0
707.402954 44.0
707.499573 28.0
708.061829 51.0
708.116516 45.0
708.200623 45.0
708.262329 72.0
709.214722 41.0
709.697327 64.0
709.938477 48.0
710.342712 49.0
710.402893 39.0
712.208313 41.0
712.509094 52.0
713.068848 33.0
713.288879 26.0
713.801392 30.0
714.653381 26.0
714.769226 38.0
714.851807 34.0
715.084351 36.0
715.315979 33.0
715.532349 46.0
715.916382 27.0
716.171814 63.0
716.869873 27.0
716.99823 38.0
717.054138 47.0
717.856934 65.0
718.731018 27.0
719.244141 35.0
719.367798 49.0
720.101868 39.0
720.558655 47.0
721.265198 40.0
721.451721 35.0
721.888672 51.0
722.462036 30.0
724.360229 32.0
724.53949 34.0
724.764648 39.0
725.47876 28.0
726.163147 27.0
727.331299 30.0
727.391602 29.0
727.536682 27.0
728.039856 41.0
728.227478 34.0
728.359436 40.0
730.313293 36.0
730.666382 33.0
731.244446 58.0
732.034119 28.0
732.181824 38.0
733.060913 47.0
733.290344 38.0
735.12439 46.0
735.47937 33.0
736.340576 75.0
736.919922 28.0
737.649048 31.0
737.931885 49.0
738.477051 96.0
739.970886 35.0
740.069214 33.0
741.405334 34.0
741.816284 41.0
742.392578 60.0
742.913574 85.0
743.162781 33.0
743.866516 35.0
745.610291 47.0
745.963623 32.0
747.044434 36.0
747.230713 36.0
747.438232 31.0
748.352905 35.0
748.471436 53.0
748.950073 62.0
749.287903 78.0
749.460938 208.0
749.608337 36.0
749.851624 26.0
750.350708 62.0
750.427246 64.0
750.472351 116.0
750.596741 52.0
750.904663 63.0
751.310486 52.0
751.477417 48.0
752.122803 39.0
753.40509 55.0
753.705017 34.0
753.915833 174.0
754.509644 40.0
754.772583 47.0
756.311096 82.0
756.456299 40.0
756.761108 38.0
758.595886 44.0
760.306335 47.0
761.404297 26.0
761.529602 36.0
761.844543 35.0
762.226318 38.0
762.591125 35.0
762.627869 79.0
762.945984 28.0
763.231079 79.0
763.328735 266.0
763.464294 3974.0
763.584534 385.0
764.010071 50.0
764.327087 97.0
764.466064 1954.0
764.57428 189.0
764.708313 46.0
764.936951 29.0
765.130005 26.0
765.197205 60.0
765.310486 74.0
765.461182 718.0
765.647522 37.0
765.901184 57.0
765.943726 27.0
766.410278 91.0
767.052063 30.0
767.34613 32.0
767.437012 51.0
767.555054 43.0
768.317261 39.0
768.480896 31.0
768.927246 28.0
769.573364 33.0
770.292847 28.0
771.133911 26.0
771.588684 36.0
773.19342 33.0
774.050293 52.0
774.936096 31.0
775.621521 29.0
776.613098 75.0
776.773743 29.0
776.930115 30.0
777.434753 37.0
777.524719 56.0
778.487915 45.0
780.548767 52.0
780.653442 67.0
781.134888 28.0
781.921082 44.0
783.287109 34.0
783.378052 49.0
783.867065 44.0
784.270752 37.0
784.552612 58.0
784.617371 76.0
785.506348 35.0
786.260193 29.0
787.948364 61.0
788.060425 37.0
788.787842 37.0
788.837036 48.0
788.9422 38.0
790.171448 40.0
790.612915 59.0
791.351257 33.0
791.743713 43.0
792.101318 30.0
792.411987 28.0
792.442871 31.0
792.511414 36.0
793.400146 35.0
793.520386 36.0
794.822571 54.0
794.989136 35.0
795.229736 44.0
796.239746 36.0
797.247559 56.0
797.69281 36.0
799.514526 48.0
799.834534 43.0
800.378235 49.0
800.839905 26.0
801.282227 66.0
802.432678 28.0
802.906433 31.0
804.993286 34.0
805.434204 52.0
805.801697 26.0
806.256531 34.0
806.95166 36.0
808.143494 52.0
808.500916 35.0
808.883667 30.0
808.933105 29.0
809.483276 33.0
809.962708 33.0
810.62677 44.0
811.775696 26.0
812.671448 31.0
812.746033 50.0
812.900818 27.0
813.8927 28.0
814.535217 31.0
816.962463 32.0
817.309448 52.0
817.576599 38.0
817.706177 31.0
817.908142 63.0
818.027893 32.0
818.533569 54.0
818.596619 33.0
819.319092 31.0
820.432678 37.0
820.591309 50.0
823.398254 39.0
823.603699 36.0
828.220886 46.0
829.52948 85.0
829.651489 28.0
830.764648 44.0
830.963562 54.0
831.478821 38.0
831.741028 57.0
832.008179 35.0
832.244019 54.0
832.858521 51.0
833.973267 37.0
834.524963 165.0
835.516907 35.0
835.589722 76.0
836.330627 26.0
837.495911 38.0
837.677917 30.0
837.881287 32.0
840.61261 39.0
841.810364 60.0
842.947205 86.0
844.312683 33.0
844.659119 56.0
845.010254 50.0
845.157349 53.0
845.95874 33.0
846.38385 27.0
846.641235 31.0
846.818848 34.0
846.982117 45.0
847.829712 37.0
849.474609 33.0
849.536133 43.0
851.123718 36.0
851.201416 35.0
855.298157 32.0
855.448547 34.0
856.231567 56.0
858.763184 44.0
859.054932 42.0
860.73999 42.0
861.001221 34.0
862.373901 33.0
862.518555 255.0
862.550476 267.0
862.664734 43.0
862.94635 33.0
863.041016 28.0
863.223694 27.0
863.486389 289.0
863.626587 56.0
864.389648 52.0
864.464478 41.0
864.762451 35.0
864.819885 59.0
865.680969 56.0
865.739929 35.0
867.111694 32.0
867.172241 43.0
867.539124 27.0
868.201111 41.0
868.84668 26.0
870.937256 33.0
871.336731 42.0
871.924805 30.0
872.040161 29.0
872.181274 51.0
873.636108 34.0
874.26947 57.0
874.437927 49.0
874.517212 30.0
874.592224 30.0
875.223511 70.0
875.550537 82.0
875.955566 37.0
876.198486 92.0
876.389832 554.0
876.549133 8539.0
876.733215 183.0
876.879456 111.0
876.96521 53.0
877.089172 44.0
877.232422 49.0
877.301208 26.0
877.554749 5368.0
877.740479 40.0
877.772217 45.0
877.858459 53.0
878.028076 58.0
878.211609 33.0
878.417236 258.0
878.549866 1794.0
878.724976 69.0
878.795776 40.0
878.898193 37.0
878.953369 32.0
879.42041 100.0
879.542236 355.0
879.623108 120.0
880.059875 48.0
880.561218 83.0
881.557922 37.0
881.689636 36.0
881.94342 38.0
882.705688 81.0
883.425354 46.0
883.617065 26.0
884.776062 47.0
885.447571 53.0
885.545959 34.0
885.618225 34.0
885.742981 33.0
888.874329 68.0
889.926208 26.0
890.505249 52.0
891.437927 30.0
892.335693 43.0
892.518188 38.0
892.739014 39.0
893.002197 34.0
894.573975 46.0
894.756531 56.0
896.315552 32.0
896.491028 48.0
897.345642 28.0
897.392639 49.0
897.744812 31.0
899.163635 44.0
899.435181 28.0
903.496033 38.0
904.045654 28.0
904.129333 48.0
905.800049 43.0
905.886353 54.0
905.9422 50.0
906.178528 37.0
906.821655 41.0
907.45929 39.0
907.762146 27.0
908.265442 50.0
908.380859 49.0
909.379822 28.0
911.142883 28.0
913.099976 33.0
913.209106 32.0
914.471191 48.0
914.74823 32.0
915.685608 38.0
916.303345 27.0
917.893066 39.0
919.272339 52.0
922.296509 40.0
922.893921 85.0
924.031982 34.0
925.703308 28.0
926.334656 42.0
926.777771 31.0
926.825928 60.0
929.144775 39.0
930.282532 33.0
930.483154 61.0
930.761719 45.0
931.116211 47.0
931.887024 84.0
932.448669 27.0
932.587708 32.0
933.234253 57.0
934.272217 39.0
934.48761 40.0
934.535767 38.0
935.185791 27.0
936.881775 37.0
937.210449 55.0
937.830505 39.0
939.415283 39.0
940.052734 38.0
940.949036 64.0
941.444641 36.0
943.427124 40.0
943.496155 44.0
943.64032 30.0
943.735779 31.0
944.668945 77.0
945.273315 39.0
945.386353 65.0
945.42804 45.0
945.570862 38.0
946.744568 57.0
946.79834 27.0
947.403381 371.0
947.577759 2546.0
947.837463 45.0
948.280884 47.0
948.416565 230.0
948.470825 199.0
948.601074 1579.0
948.908813 60.0
949.218262 69.0
949.356567 51.0
949.411804 48.0
949.503723 158.0
949.58551 411.0
949.616089 424.0
949.816284 41.0
950.565491 123.0
950.644104 139.0
950.82428 34.0
951.020508 58.0
951.065979 36.0
951.364014 49.0
951.555481 34.0
951.684082 31.0
951.966187 61.0
952.698792 37.0
952.888062 26.0
953.11261 64.0
953.253967 49.0
953.439453 43.0
954.218445 51.0
954.317871 43.0
954.407593 37.0
954.542114 51.0
954.604065 57.0
954.685547 40.0
954.799316 33.0
954.980591 68.0
955.145569 32.0
955.187439 36.0
955.333496 34.0
955.641479 55.0
956.200012 42.0
956.243164 39.0
956.731323 38.0
956.913208 26.0
957.147888 51.0
957.259705 51.0
957.933411 40.0
958.129456 63.0
958.358765 47.0
958.809021 80.0
959.009827 64.0
959.331787 49.0
959.577454 106.0
959.714172 58.0
959.785034 29.0
959.983887 76.0
960.101196 57.0
960.23877 44.0
960.295227 87.0
960.385437 34.0
960.479492 59.0
960.560486 176.0
960.683044 33.0
960.763733 32.0
960.822205 57.0
960.878967 64.0
961.012329 67.0
961.090027 155.0
961.21051 54.0
961.424988 9199.0
961.605347 57018.0
961.968994 109.0
962.005432 123.0
962.110596 230.0
962.193237 172.0
962.28302 82.0
962.422119 5831.0
962.608948 36826.0
962.814514 131.0
962.865173 115.0
962.974976 50.0
963.048157 151.0
963.118408 154.0
963.201965 61.0
963.442383 1759.0
963.615112 11821.0
963.824646 105.0
963.859741 104.0
963.91449 43.0
963.967834 125.0
964.075378 70.0
964.222229 124.0
964.298401 84.0
964.45575 270.0
964.618835 2506.0
964.835754 77.0
964.980164 65.0
965.165894 44.0
965.288696 26.0
965.36615 69.0
965.405884 109.0
965.452576 79.0
965.533203 275.0
965.578003 235.0
965.637268 390.0
965.785278 73.0
965.875793 35.0
965.955627 40.0
966.066284 59.0
966.18158 55.0
966.318665 65.0
966.407288 44.0
966.480713 46.0
966.605713 72.0
966.6651 132.0
966.822327 94.0
966.88678 39.0
966.969727 59.0
967.032837 88.0
967.119446 102.0
967.168884 46.0
967.261169 84.0
967.309875 43.0
967.372559 44.0
967.422119 82.0
967.66864 93.0
967.710938 61.0
967.842957 40.0
967.910583 54.0
967.966675 78.0
968.057556 42.0
968.352051 95.0
968.447266 41.0
968.53479 65.0
968.630432 64.0
968.831787 41.0
968.863953 51.0
969.578918 39.0
970.013367 39.0
970.159851 58.0
970.478394 43.0
970.666504 55.0
971.37085 35.0
971.64917 35.0
972.092712 36.0
972.711853 36.0
973.303101 35.0
973.346985 59.0
973.450928 47.0
973.77771 27.0
974.422974 48.0
974.616089 69.0
975.515869 39.0
975.933228 33.0
977.217773 30.0
977.575073 64.0
977.733154 30.0
978.532227 45.0
978.567444 45.0
979.183777 35.0
979.874878 48.0
980.222656 27.0
982.234009 39.0
982.685852 26.0
982.848511 49.0
983.471191 33.0
983.757812 72.0
983.840759 51.0
985.435059 26.0
985.885681 58.0
986.120483 70.0
986.534851 38.0
987.580627 43.0
988.105774 36.0
989.299072 38.0
990.489685 54.0
990.713379 39.0
990.82251 53.0
993.343384 72.0
994.237732 48.0
994.528381 53.0
997.026672 48.0
997.54541 55.0
997.644653 34.0
999.955505 32.0
1001.669556 82.0
1002.483337 29.0
1002.647705 69.0
1002.802368 40.0
1003.946411 29.0
1005.727661 33.0
1008.492432 45.0
1010.110046 54.0
1011.256653 33.0
1012.13385 70.0
1012.367188 37.0
1013.227539 47.0
1013.326477 26.0
1013.744507 39.0
1016.39978 40.0
1016.505554 41.0
1016.841125 36.0
1019.24762 42.0
1020.042603 41.0
1021.892029 100.0
1024.006714 50.0
1029.917725 34.0
1030.027832 44.0
1033.918823 44.0
1037.94397 27.0
1039.313232 41.0
1043.121216 71.0
1046.10498 31.0
1050.484741 42.0
1050.647583 51.0
1051.384033 62.0
1051.802002 34.0
1056.214966 50.0
1056.953735 39.0
1057.44104 34.0
1058.618896 35.0
1058.716675 62.0
1059.561157 40.0
1059.672485 128.0
1062.3396 46.0
1063.946777 67.0
1066.564209 87.0
1067.700806 26.0
1068.606323 60.0
1068.68811 39.0
1069.030884 28.0
1069.107178 33.0
1071.146973 30.0
1072.2771 61.0
1072.317993 42.0
1072.671509 58.0
1074.14209 38.0
1078.059326 51.0
1078.099976 45.0
1080.894287 34.0
1081.428467 45.0
1082.938721 41.0
1083.908325 28.0
1084.365356 52.0
1084.481812 29.0
1084.557983 39.0
1084.862427 27.0
1089.314453 29.0
1091.438599 50.0
1091.622437 48.0
1092.406494 26.0
1095.377197 60.0
1100.483398 50.0
1100.719238 32.0
1104.164673 44.0
1107.010254 36.0
1107.401611 61.0
1108.152954 42.0
1109.934814 59.0
1110.758301 33.0
1112.921753 60.0
1115.161011 31.0
1116.555542 26.0
1118.458984 48.0
1118.630615 48.0
1123.890503 39.0
1126.537598 41.0
1127.868164 28.0
1128.016235 50.0
1128.112305 49.0
1128.516113 42.0
1128.624878 57.0
1130.691772 29.0
1132.688721 29.0
1135.052979 32.0
1135.985352 28.0
1140.292969 41.0
1142.479248 41.0
1143.583008 65.0
1143.687744 62.0
1143.761963 146.0
1143.921631 26.0
1144.697266 89.0
1144.756836 143.0
1145.126831 46.0
1146.671387 60.0
1153.873047 41.0
1153.959961 26.0
1157.149658 36.0
1157.493042 42.0
1158.550049 48.0
1158.920044 37.0
1159.581787 60.0
1160.336548 58.0
1161.584717 83.0
1161.655273 45.0
1161.738037 177.0
1162.056763 72.0
1162.55896 55.0
1162.64917 49.0
1162.711426 61.0
1162.832397 28.0
1163.194214 30.0
1163.591553 33.0
1163.70874 48.0
1163.807983 120.0
1164.304443 44.0
1164.517456 30.0
1165.709717 70.0
1166.957031 28.0
1167.739868 64.0
1168.560913 32.0
1173.046631 49.0
1174.004883 27.0
1176.46936 36.0
1177.554077 45.0
1178.115845 31.0
1180.241211 47.0
1182.545654 51.0
1184.222168 41.0
1184.61499 48.0
1186.392822 35.0
1186.567139 35.0
1187.587402 59.0
1188.208496 41.0
1189.449829 52.0
1192.816895 28.0
1193.713623 40.0
1200.073242 36.0
1201.222412 37.0
1202.378296 37.0
1208.038208 41.0
1208.856812 32.0
1209.40625 69.0
1211.321777 26.0
1215.554077 33.0
1215.79895 28.0
1216.172607 32.0
1216.412354 65.0
1217.733032 77.0
1218.696777 45.0
1222.051147 49.0
1224.407959 36.0
1228.072876 35.0
1228.145752 78.0
1228.312378 29.0
1228.376099 42.0
1230.124146 29.0
1230.583252 30.0
1231.603882 35.0
1233.256104 57.0
1233.476685 49.0
1234.865356 47.0
1235.307861 26.0
1237.901611 38.0
1240.080444 43.0
1242.921509 49.0
1245.143555 45.0
1246.951782 32.0
1247.41333 30.0
1247.878296 42.0
1253.670532 28.0
1253.752808 26.0
1254.529663 79.0
1254.635376 34.0
1264.408569 44.0
1266.15564 35.0
1271.893799 30.0
1272.361328 28.0
1276.457031 60.0
1278.213379 33.0
1278.623901 63.0
1279.879028 29.0
1281.009644 26.0
1281.818237 31.0
1282.525879 28.0
1285.282227 37.0
1286.333252 50.0
1288.115967 28.0
1289.665039 49.0
1290.57959 34.0
1293.033203 40.0
1296.438599 28.0
1299.027344 37.0
1303.781616 43.0
1305.604736 33.0
1306.303589 27.0
1307.044922 29.0
1310.99646 28.0
1311.32605 30.0
1311.770752 30.0
1319.962036 40.0
1322.271362 34.0
1326.911621 73.0
1327.166748 28.0
1333.609375 52.0
1334.825073 37.0
1335.919312 35.0
1337.110962 35.0
1340.408569 31.0
1343.560791 39.0
1345.697388 45.0
1346.749756 39.0
1346.811157 30.0
1350.132202 30.0
1350.510376 40.0
1352.910156 39.0
1359.910278 27.0
1360.151855 77.0
1362.671875 31.0
1366.883911 27.0
1367.807861 57.0
1368.780273 46.0
1370.602783 37.0
1372.348877 26.0
1373.192505 40.0
1373.324951 32.0
1375.72937 35.0
1379.594604 29.0
1380.246826 56.0
1383.780762 53.0
1387.789795 48.0
1390.068481 53.0
1391.109253 45.0
1392.970093 36.0
1393.877441 43.0
1396.226685 52.0
1398.07605 32.0
1408.311646 32.0
1408.557129 61.0
1411.036133 31.0
1411.281738 44.0
1411.888672 76.0
1416.757446 64.0
1429.298584 46.0
1429.703491 60.0
1430.147339 38.0
1431.442993 35.0
1432.677612 57.0
1433.137085 32.0
1433.589233 37.0
1434.379028 77.0
1434.729492 48.0
1437.150513 27.0
1439.354248 27.0
1439.549072 34.0
1444.158691 48.0
1446.498291 28.0
1454.073853 33.0
1454.689575 49.0
1456.93335 27.0
1457.985962 48.0
1460.120239 35.0
1463.214722 61.0
1463.821289 36.0
1466.447998 32.0
1469.83667 36.0
1470.96936 50.0
1476.72583 28.0
1478.299561 29.0
1479.218506 43.0
1483.301514 40.0
1484.942627 49.0
1485.668945 40.0
1485.85022 35.0
1492.471069 31.0
1495.976318 59.0
1501.020752 35.0
1504.101929 35.0
1506.202393 65.0
1506.336792 34.0
1512.28064 28.0
1512.437744 28.0
1520.424927 47.0
1531.117676 38.0
1536.035889 30.0
1539.39563 38.0
1553.41394 35.0
1568.173706 30.0
1571.52478 48.0
1573.610596 34.0
1578.277954 37.0
1583.030396 37.0
1589.937622 43.0
1590.192383 34.0
1595.506958 47.0
1598.907471 27.0
1600.43396 43.0
1605.591309 27.0
1613.091064 34.0
1615.424805 28.0
1620.913574 45.0
1621.531006 38.0
1622.264404 27.0
1622.85376 60.0
1626.85376 33.0
1629.060791 35.0
1629.812256 35.0
1633.2146 48.0
1634.517456 26.0
1635.364746 83.0
1638.026733 38.0
1640.17395 46.0
1641.436523 40.0
1644.58606 36.0
1644.75061 27.0
1645.6875 51.0
1649.295166 36.0
1653.611816 36.0
1656.312378 77.0
1667.38269 36.0
1669.288086 53.0
1672.20459 30.0
1673.928589 41.0
1677.372803 48.0
1684.452026 40.0
1685.111328 28.0
1692.526123 40.0
1713.598511 35.0
1720.247192 28.0
1721.109497 39.0
1724.671631 32.0
1729.114014 45.0
1729.857422 49.0
1737.962036 39.0
1739.170288 44.0
1740.61084 35.0
1744.066895 26.0
1744.939819 41.0
1758.687622 27.0
1760.714111 34.0
1763.621826 53.0
1768.89209 48.0
1776.496704 27.0
1791.671143 38.0
1792.073853 43.0
1796.400879 65.0
1809.63562 43.0
1822.748413 37.0
1824.294922 29.0
1830.031616 27.0
1835.758789 43.0
1842.096924 70.0
1854.320801 53.0
1860.834106 41.0
1868.199097 26.0
1872.053467 39.0
1873.55188 57.0
1874.826782 42.0
1875.705566 65.0
1882.46875 64.0
1883.042725 32.0
1894.728882 35.0
1900.626221 51.0
1906.011353 41.0
1911.627808 40.0
1916.766235 96.0
1927.705933 32.0
1937.578735 36.0
1951.105103 48.0
1958.613892 56.0
1982.275757 43.0
1985.837646 31.0
1993.519287 31.0
2003.994873 30.0
END IONS
