BEGIN IONS
PEPMASS=608.402
CHARGE=1
MSLEVEL=2
SOURCE_INSTRUMENT=LC-ESI-Hybrid FT
FILENAME=f.novakj/Roseotoxin_A.mzXML;
SEQ=*..*
IONMODE=Positive
ORGANISM=GNPS-LIBRARY
NAME=Roseotoxin A M+H
PI=Havlicek
DATACOLLECTOR=
SMILES=CCC(C)C1NC(=O)C2C(C)CCN2C(=O)C(CC(C)C)OC(=O)CCNC(=O)C(C)N(C)C(=O)C(C(C)C)N(C)C1=O
INCHI=
INCHIAUX=
PUBMED=26195308
SUBMITUSER=novakj
TAGS=
LIBRARYQUALITY=3
SPECTRUMID=CCMSLIB00000531484
SCANS=1
199.144104 3151804.0
208.133224 16166877.0
226.143845 2829737.0
269.185974 2278092.0
271.165253 2916916.0
293.222382 1865360.0
297.180878 2981140.0
339.227875 3023662.0
354.238678 15374389.0
366.238739 4937539.0
382.233673 11358400.0
382.269989 22758340.0
392.254303 3675689.0
410.264862 8983340.0
420.249268 2004900.0
422.301239 4355542.0
451.32785 13286942.0
467.322723 366877312.0
477.306885 2511627.0
479.322357 2455110.0
495.317627 173914832.0
495.35376 2217048.0
564.411865 5707130.0
580.406677 7478349.0
608.401794 15215811.0
END IONS
