BEGIN IONS
PEPMASS=1124.0
CHARGE=3
MSLEVEL=2
SOURCE_INSTRUMENT=DI-ESI-Hybrid FT
FILENAME=Nisin_1124.5_MS2.mzXML
SEQ=*..*
IONMODE=Positive
ORGANISM=GNPS-LIBRARY
NAME=Nisin M+Na
PI=Roncada
DATACOLLECTOR=Alloggio/Herschend
SMILES=CC[C@H](C)[C@H]1C(=O)NC(=C)C(=O)N[C@H](C(=O)N[C@@H](CSC[C@H](C(=O)N1)NC(=O)/C(=C/C)/NC(=O)[C@H]([C@@H](C)CC)N)C(=O)N[C@@H]2[C@@H](SC[C@H](NC(=O)CNC(=O)[C@@H]3CCCN3C2=O)C(=O)N[C@@H](CCCCN)C(=O)N[C@@H]4[C@@H](SC[C@H](NC(=O)CNC(=O)[C@@H](NC(=O)[C@@H](NC(=O)[C@@H](NC(=O)CNC4=O)C)CC(C)C)CCSC)C(=O)N[C@@H](CC(=O)N)C(=O)N[C@@H](CCSC)C(=O)N[C@@H](CCCCN)C(=O)N[C@@H]5[C@@H](SC[C@H]6C(=O)N[C@H](C(=O)N[C@@H](CS[C@H]([C@@H](CNC(=O)[C@@H](NC5=O)C)C(=O)N6)C)C(=O)N[C@@H](CO)C(=O)N[C@@H]([C@@H](C)CC)C(=O)N[C@@H](Cc7c[nH]cn7)C(=O)N[C@@H](C(C)C)C(=O)NC(=C)C(=O)N[C@@H](CCCCN)C(=O)O)Cc8cnc[nH]8)C)C)C)CC(C)C
INCHI=N/A
INCHIAUX=N/A
PUBMED=N/A
SUBMITUSER=ialloggio
TAGS=
LIBRARYQUALITY=3
SPECTRUMID=CCMSLIB00000539138
SCANS=159
166.987167 1630.236572
177.353394 1535.085815
188.408218 1480.130371
196.852554 1754.934692
197.128372 19728.896484
199.107437 10449.412109
200.95166 1963.359253
202.040833 1782.153198
209.139221 2960.958252
216.13414 19626.179688
216.922485 3046.620605
220.367737 1605.602417
222.16011 3207.400635
226.951279 189317.03125
227.954727 2579.017578
234.144653 11115.404297
237.13443 12965.239258
239.138809 1781.737305
240.966736 2194.010986
242.925201 8433.953125
248.138657 2084.140381
249.002533 1657.266235
250.205933 1625.662842
250.330948 2049.773438
254.812607 1771.408569
259.405182 1897.485229
262.9039 2112.77832
266.149689 54008.890625
267.152924 8896.990234
273.179932 4431.101074
280.259399 1662.8927
281.082397 2024.057373
281.089172 9272.257812
281.16568 2229.06543
281.172546 8445.370117
281.253204 2025.498901
294.938599 9003.473633
306.155518 1951.621338
315.193176 1836.215698
315.202423 10497.004883
341.166992 3142.344971
352.920807 2000.768921
354.431396 1768.973877
356.97052 2040.717407
362.92569 14605.975586
379.233856 4330.411133
380.161346 1933.045288
397.048096 1964.409668
401.123962 2249.813721
405.247314 1826.405762
409.154266 19065.767578
418.242432 2903.180908
430.913422 12375.893555
437.186737 2936.749023
441.469116 2158.796143
452.261047 21972.953125
453.265411 3411.502686
470.272369 26767.740234
471.275085 2237.398193
487.394104 2280.713623
495.266754 2594.269043
509.27948 3233.115479
523.267639 2202.668701
531.260681 3361.500244
541.218689 2054.318359
566.888184 2540.866699
617.274963 3709.116943
618.257019 2284.729248
648.898438 3408.948242
653.686157 2927.487549
668.238831 2433.468262
671.517578 3066.124512
673.288635 2985.566895
674.778687 2263.677734
677.315125 3657.611572
678.698853 2380.664795
685.434021 2923.176514
705.093262 2377.426025
732.571106 3116.944824
737.575562 3102.982178
743.837585 2570.543701
747.386047 10778.675781
750.517151 2566.008789
755.360046 2750.360596
758.34967 2491.735107
764.299133 2820.931152
766.020386 2285.298096
771.595337 2182.502441
785.110596 3586.584473
785.364075 2856.832031
785.865112 3117.953857
790.110107 3688.773926
790.36377 8131.057129
796.784363 2606.062744
799.363098 2618.527588
800.113403 7869.239746
803.106323 3301.572021
803.803406 2457.012207
807.113647 2753.321777
810.621216 2617.438965
810.872925 15133.09082
811.122192 4985.228027
811.371399 14388.12793
811.87323 3002.620605
829.879944 3292.160889
834.640991 3674.00293
834.888489 10774.923828
838.892334 46386.109375
839.142822 78082.851562
839.392883 79248.367188
839.643677 39258.898438
839.894531 32228.882812
842.892639 2700.719727
843.141113 16870.253906
843.394043 12496.808594
843.645996 13362.083008
843.89447 22850.716797
844.140808 2910.050293
847.15033 3029.068848
850.387512 10666.269531
852.247375 24020.84375
853.645935 2876.720947
853.880432 2551.220459
855.924011 2826.636963
856.382202 2612.740234
860.034241 2907.786621
894.053894 3226.320312
898.046021 3223.80835
905.406128 3404.138428
905.903809 3279.912354
907.071167 3454.849854
915.406128 3591.642578
921.067505 4277.647461
924.740234 8562.007812
925.404419 2556.332031
926.408691 3055.104736
926.743591 9158.818359
929.739014 3700.423828
930.07312 3142.38623
930.40918 14820.682617
935.737976 4158.953613
936.077087 8780.130859
937.564636 2568.187744
938.749146 4003.511719
940.911133 3882.061523
944.080994 2721.705322
948.414734 3926.908203
948.733398 2510.456787
951.935608 2304.866211
952.434082 2740.246582
953.748718 2506.836426
954.755798 4492.761719
958.775208 3518.177002
961.764404 3197.170654
963.659729 2879.38501
963.761475 2992.561768
964.435486 10545.450195
967.766663 3415.875244
968.102051 13418.158203
968.252014 2467.992676
971.151001 2341.534912
975.440674 3774.090332
976.084961 4912.205566
976.42572 3612.916748
976.750183 4409.726074
977.099548 9810.652344
977.445862 2559.064697
981.443359 3374.653564
986.100464 3640.970703
986.171997 2671.240479
986.434814 3152.133789
986.776611 3983.213867
987.106262 2722.384521
987.770691 3120.087402
988.231201 2692.869385
988.779968 3341.334961
991.429321 3727.684082
991.771851 9672.748047
992.106262 3336.624756
992.441711 13329.810547
992.778564 3703.397705
993.108215 15278.981445
994.695679 3066.404297
995.111938 3226.112061
998.11969 11269.126953
998.450073 26598.556641
998.785156 12414.518555
999.115845 4178.336914
999.445435 3623.049805
1002.792969 2784.182129
1004.120117 4189.103027
1004.449951 4059.819336
1005.122925 4933.921875
1009.116821 8058.812988
1009.448059 9536.789062
1009.791077 13434.960938
1010.118835 14237.757812
1010.454529 16521.402344
1010.792114 8723.347656
1013.45459 12516.064453
1013.790527 50050.25
1014.125061 42134.28125
1014.454346 16623.980469
1015.118958 15328.259766
1015.45105 12599.297852
1015.782349 4639.750977
1018.787781 8159.964355
1019.123413 57124.128906
1019.456238 77181.445312
1019.790588 117505.171875
1020.125732 59843.03125
1020.461365 37880.597656
1020.791382 11972.53125
1021.467896 3999.973145
1025.477905 2833.076904
1029.801392 8637.929688
1030.137939 3428.02417
1030.473511 10211.324219
1030.814697 15713.459961
1031.478638 16046.064453
1031.813721 7833.091797
1035.142944 3400.219238
1036.144897 40313.1875
1036.478271 14738.100586
1037.144775 9945.808594
1037.484375 4180.767578
1037.815186 18757.794922
1038.119995 8687.391602
1041.471191 4133.651855
1042.812988 15982.375
1043.143066 15788.620117
1043.475952 9664.802734
1043.8125 8366.239258
1044.145386 9928.686523
1046.140015 9305.658203
1046.476685 45641.171875
1046.812744 75793.953125
1047.144775 56222.882812
1047.478027 22888.076172
1048.75354 2968.049805
1051.811523 10396.082031
1052.14978 156876.34375
1052.483032 254371.53125
1052.81665 188753.90625
1053.147339 97099.976562
1053.478271 18429.923828
1053.817017 7906.141113
1054.153931 3342.375244
1057.824951 19885.896484
1058.153687 17201.447266
1058.483521 41030.585938
1058.817505 49997.070312
1059.151123 50097.28125
1059.48645 28161.558594
1060.485596 4741.23877
1065.160156 4218.228027
1069.4823 12357.706055
1069.821655 4570.767578
1070.149048 11674.930664
1071.480347 2795.166748
1071.822754 4155.172852
1072.153931 4498.634277
1074.482056 3061.485107
1074.814331 4476.284668
1075.151367 43550.582031
1075.487305 42866.753906
1075.821289 49044.164062
1076.15686 26365.240234
1077.494751 6625.523926
1080.490845 13258.290039
1080.823486 31046.908203
1081.15564 69071.742188
1081.489502 57137.957031
1081.824341 34192.402344
1082.162964 12224.576172
1082.49292 8795.532227
1084.79895 3853.75
1086.155029 14963.128906
1086.494873 41347.355469
1086.829346 66871.179688
1087.164185 48816.566406
1087.497192 14452.124023
1090.154053 4367.890137
1090.484985 8862.069336
1090.818848 2904.441406
1095.495239 10813.958008
1095.823364 10504.239258
1096.160645 23557.324219
1096.496094 16694.654297
1096.848999 13020.192383
1097.180908 9164.181641
1097.513916 9615.487305
1097.844116 3237.341309
1102.520752 68332.070312
1102.854736 84823.476562
1103.188965 88059.304688
1103.523804 36844.746094
1104.828491 3918.694092
1108.512695 3469.858154
1108.83667 3493.124268
1109.181763 21393.013672
1109.518921 29898.1875
1109.856689 16801.097656
1110.183105 15480.128906
1110.528198 2933.00293
1110.998535 3281.849609
1112.187012 3933.167725
1112.512207 3385.576172
1112.842529 15690.504883
1113.175293 11113.511719
1114.181152 9383.756836
1114.522339 11313.016602
1114.85083 16798.603516
1115.186279 10184.282227
1115.529663 4930.215332
1117.850464 25556.556641
1118.185791 116096.390625
1118.517456 227811.1875
1118.851318 205526.234375
1119.18396 96124.054688
1119.514771 43756.769531
1119.846802 11194.03418
1120.003906 12704.386719
1120.505981 19211.869141
1123.190552 4099.379883
1123.520386 14365.783203
1123.854736 685764.0
1124.189453 1385731.25
1124.524536 2621511.5
1124.858398 1773248.875
1125.191406 209244.25
1125.521118 23153.476562
1125.853271 13486.198242
1126.519043 3189.600342
1132.564331 3937.320801
1184.547852 3253.868408
1196.016357 2951.858154
1207.758423 3230.678955
1223.768188 3123.95166
1235.613281 3837.572998
1240.605835 3742.676025
1266.033203 3944.977783
1267.29248 3102.729248
1267.631348 3444.432617
1272.966797 18121.746094
1273.047974 3019.446289
1273.30481 24234.275391
1273.639038 21775.3125
1273.9729 8062.938477
1303.575684 3971.073242
1304.574219 3144.427979
1312.090942 13291.666016
1312.593628 30796.814453
1313.095703 28898.408203
1313.597778 21103.791016
1350.10376 3328.474121
1353.588623 7500.418457
1371.112427 3281.945312
1373.10376 3627.158691
1373.943237 3161.319336
1378.666382 10088.795898
1379.6698 3277.980225
1381.100952 3990.24585
1381.613281 3351.009033
1386.098389 4643.80127
1387.791016 3464.43457
1388.608521 3428.92627
1394.610229 4236.099609
1395.112061 12329.229492
1403.114014 6095.461426
1415.097778 4053.470703
1420.141724 4062.296387
1424.609741 4021.007812
1428.1521 9318.969727
1428.644897 8904.5
1437.147095 3598.820068
1437.654785 2963.835693
1442.140625 3588.399658
1443.141846 3140.185059
1445.15271 3211.260986
1450.64624 3662.360352
1451.147461 26022.927734
1451.651855 38858.917969
1452.150879 25067.996094
1455.648438 2756.729492
1456.148926 4620.103516
1459.149658 8834.466797
1459.65271 15095.018555
1460.150146 26720.398438
1460.652344 13487.72168
1461.152222 10655.143555
1462.662598 3399.008057
1471.655396 7258.897461
1478.644287 3643.51123
1479.149292 4272.741699
1479.64624 10964.213867
1487.65271 12127.71582
1488.155151 28437.791016
1488.658569 41789.785156
1489.160278 37721.878906
1496.174194 3809.066406
1496.664917 4209.064941
1497.664795 3833.484375
1519.677612 3518.819336
1520.178223 10946.748047
1520.683228 4307.487305
1529.68396 3714.244385
1553.714111 8274.609375
1554.197998 5639.155273
1569.21582 3920.832275
1569.712891 16314.739258
1570.209473 8931.960938
1578.198853 12577.052734
1578.707397 19288.957031
1579.190063 7630.941895
1579.708862 4586.368652
1580.213623 7961.425781
1587.706421 11099.544922
1588.220947 12845.02832
1613.232178 7895.615234
1620.728271 4051.012695
1621.226196 18393.009766
1621.732422 11991.015625
1622.733154 3331.810547
1628.733887 3305.818359
1629.239624 3605.26123
1629.737793 13466.917969
1630.237183 3222.349854
1634.72644 4098.143555
1635.219727 3129.719971
1635.725708 7419.265625
1643.739868 3665.418213
1897.545166 3201.032471
END IONS
