BEGIN IONS
PEPMASS=564.25
CHARGE=1
MSLEVEL=2
SOURCE_INSTRUMENT=LC-ESI-qTof
FILENAME=f.zengyi88516/140412_Maxis_Impact_lichen_microb/sample/140412_lichen_microb_L8BNYZA_BA3_01_17776.mzXML;
SEQ=*..*
IONMODE=Positive
ORGANISM=GNPS-LIBRARY
NAME=Asperphenamate analogoue with additional glycine M+H
PI=Pieter C Dorrestein
DATACOLLECTOR=negarg
SMILES=O=C(C1=CC=CC=C1)NC(CC2=CC=CC=C2)COC(CNC(C(CC3=CC=CC=C3)NC(C4=CC=CC=C4)=O)=O)=O
INCHI=InChI=1S/C34H33N3O5/c38-31(42-24-29(21-25-13-5-1-6-14-25)36-32(39)27-17-9-3-10-18-27)23-35-34(41)30(22-26-15-7-2-8-16-26)37-33(40)28-19-11-4-12-20-28/h1-20,29-30H,21-24H2,(H,35,41)(H,36,39)(H,37,40)
INCHIAUX=
PUBMED=
SUBMITUSER=negarg
TAGS=
LIBRARYQUALITY=3
SPECTRUMID=CCMSLIB00000531509
SCANS=6410
47.811333 148.0
50.945148 192.0
51.115765 172.0
51.480694 164.0
53.030182 204.0
55.801899 148.0
61.259243 172.0
62.266556 172.0
62.607826 164.0
62.755947 240.0
62.967403 168.0
64.769508 192.0
68.236107 172.0
72.169624 240.0
74.204292 192.0
76.357651 204.0
76.683228 152.0
79.367706 144.0
80.737099 196.0
82.329361 164.0
83.394661 152.0
84.459488 144.0
84.607712 164.0
85.378365 184.0
86.402084 220.0
89.400673 172.0
89.696373 196.0
91.87719 184.0
92.169312 188.0
93.317429 164.0
93.858475 160.0
98.107071 168.0
98.73497 184.0
102.131668 156.0
103.107506 220.0
104.494499 184.0
104.985397 184.0
105.032974 560.0
105.823174 188.0
107.739983 164.0
108.080002 208.0
111.033005 156.0
112.47847 152.0
115.930435 192.0
117.069305 764.0
118.069298 208.0
122.060326 160.0
122.990883 164.0
123.061531 188.0
123.101273 160.0
125.801163 196.0
129.753952 152.0
130.028427 252.0
130.626007 156.0
134.058105 276.0
134.094971 288.0
134.378616 156.0
140.415955 156.0
143.227005 144.0
144.059509 164.0
147.196243 160.0
159.097916 184.0
160.020584 172.0
160.075241 2268.0
161.080887 560.0
162.077972 208.0
162.373154 156.0
162.639557 164.0
164.81189 200.0
169.526123 200.0
170.061737 200.0
171.069122 196.0
171.842926 220.0
172.603012 176.0
177.752838 164.0
184.075775 180.0
184.508087 152.0
185.805328 164.0
186.913879 180.0
187.063568 164.0
187.084961 144.0
187.357681 168.0
188.06897 1536.0
189.074219 332.0
191.072784 176.0
192.061737 144.0
202.213287 152.0
205.66951 164.0
207.724014 152.0
230.610519 204.0
237.863098 168.0
238.007385 148.0
238.121719 8980.0
239.123672 936.0
240.130386 560.0
244.869675 172.0
256.133728 688.0
257.134583 272.0
257.173157 196.0
261.130096 184.0
261.857483 152.0
273.145996 152.0
291.11261 192.0
292.203705 240.0
306.667694 168.0
309.123322 2092.0
309.546997 112.0
310.124542 1104.0
311.067993 196.0
311.127319 116.0
312.269684 208.0
316.861725 156.0
317.216553 156.0
327.134979 500.0
328.132965 296.0
443.202515 152.0
457.174072 224.0
463.234467 180.0
479.982513 212.0
533.356995 200.0
537.755676 200.0
564.243774 564.0
565.254028 700.0
566.256958 276.0
566.477173 168.0
683.610779 232.0
1726.78894 152.0
1922.801758 220.0
1974.160645 232.0
1980.949219 232.0
2001.723267 180.0
END IONS
