BEGIN IONS
PEPMASS=790.457
CHARGE=1
MSLEVEL=2
SOURCE_INSTRUMENT=LC-ESI-qTof
FILENAME=f.philipwi/GNPS_Marine_Invertebrate_Secondary_Metabolites_UHManoa/GNPS_SpongeSpectraAlreadyConvertedTo_mzXML/PW-115_P2-B-6_Stylopeptide_1_768amu_Scan802-833_01_15582.mzXML;
SEQ=*..*
IONMODE=Positive
ORGANISM=GNPS-LIBRARY
NAME=Stylopeptide 1 M+Na
PI=Philip Williams
DATACOLLECTOR=Williams
SMILES=CC[C@H](C)[C@H]1C(=O)N[C@H](C(=O)N[C@H](C(=O)N2CCC[C@H]2C(=O)N[C@H](C(=O)N3CCC[C@H]3C(=O)N[C@H](C(=O)N1)CC(C)C)[C@H](C)CC)CO)Cc4ccccc4
INCHI=
INCHIAUX=
PUBMED=
SUBMITUSER=philipwi
TAGS=
LIBRARYQUALITY=3
SPECTRUMID=CCMSLIB00000424983
SCANS=823
72.376686 64.0
142.110291 52.0
147.069122 144.0
150.881256 44.0
166.009308 104.0
166.161606 84.0
172.343216 20.0
181.439117 144.0
182.006241 32.0
183.151779 216.0
189.108612 104.0
192.28627 52.0
203.093918 104.0
206.157639 92.0
207.01886 48.0
209.797897 60.0
211.148056 28.0
216.104446 140.0
224.114197 100.0
225.031235 68.0
230.011703 112.0
241.639969 112.0
244.243057 108.0
246.1595 108.0
250.075363 104.0
251.134918 48.0
251.205627 24.0
252.59166 40.0
258.860565 72.0
259.681671 128.0
262.15918 156.0
262.297333 24.0
264.594208 68.0
268.465454 36.0
273.070129 64.0
273.14386 104.0
273.344086 56.0
273.637054 116.0
274.156158 116.0
276.186371 88.0
278.660187 88.0
283.630157 128.0
287.64856 96.0
289.662933 188.0
290.151367 64.0
291.140289 68.0
292.174469 92.0
292.555939 124.0
292.817688 84.0
293.144989 48.0
294.0625 32.0
296.241791 24.0
296.66983 40.0
297.669769 160.0
298.02182 24.0
298.184143 96.0
299.64975 120.0
301.088867 116.0
301.177368 116.0
301.265869 28.0
301.676758 128.0
301.830414 52.0
302.074097 36.0
302.203674 144.0
302.850128 76.0
303.183014 208.0
303.327301 20.0
303.493866 36.0
303.67157 144.0
304.171631 104.0
304.394043 92.0
306.031067 44.0
306.176056 112.0
307.180725 56.0
307.515991 16.0
307.940887 28.0
308.175842 80.0
310.6651 68.0
311.159637 40.0
311.609589 28.0
312.44281 44.0
313.119232 56.0
315.888855 24.0
316.27417 24.0
318.218506 204.0
318.659271 296.0
319.239868 76.0
319.716675 52.0
320.174469 84.0
320.665131 92.0
321.201843 64.0
322.665833 132.0
323.261505 72.0
324.22464 292.0
325.271545 72.0
326.179138 152.0
327.654419 152.0
328.081482 68.0
328.231598 36.0
330.209381 60.0
331.188904 108.0
331.670502 160.0
332.178314 120.0
333.204651 104.0
334.147827 40.0
334.847321 64.0
336.412201 116.0
338.671021 32.0
339.141876 28.0
340.17569 68.0
341.187561 132.0
342.189117 84.0
343.381104 44.0
345.197632 124.0
346.194122 236.0
346.637146 76.0
347.19516 100.0
347.313934 156.0
348.181702 52.0
349.188354 84.0
350.147064 60.0
350.660156 116.0
351.149719 84.0
352.03421 64.0
352.153839 96.0
354.190338 84.0
354.742401 52.0
355.210785 76.0
356.894714 36.0
357.593536 36.0
357.786407 32.0
358.208557 116.0
358.377472 80.0
359.186432 84.0
360.153564 120.0
360.698151 100.0
363.226532 108.0
364.193237 32.0
364.874786 32.0
367.130859 48.0
367.228577 136.0
367.436279 48.0
367.619598 20.0
367.705139 36.0
368.19989 52.0
369.23465 96.0
370.043518 24.0
371.236847 84.0
371.749939 136.0
371.995789 120.0
373.225861 92.0
373.804169 44.0
374.179626 76.0
374.712585 276.0
374.97702 40.0
375.208313 132.0
375.335083 20.0
375.718018 88.0
376.224762 204.0
378.30484 16.0
378.490814 44.0
378.664459 56.0
379.217468 84.0
379.699585 132.0
379.806519 24.0
380.067444 80.0
380.204163 216.0
380.712341 348.0
381.217438 264.0
381.435669 40.0
381.609985 52.0
381.725159 128.0
382.070862 24.0
382.202576 112.0
384.354431 32.0
385.505035 124.0
385.705292 128.0
385.880585 40.0
386.181183 80.0
386.694946 116.0
387.04599 72.0
387.234131 64.0
388.389038 24.0
388.502106 32.0
388.709839 2176.0
388.853973 24.0
389.087555 104.0
389.211731 1620.0
389.507904 136.0
389.595978 44.0
389.713135 564.0
390.061646 24.0
390.210907 560.0
390.32608 24.0
390.443451 100.0
391.220734 92.0
392.697296 164.0
393.190094 20.0
393.354431 36.0
394.147217 160.0
394.518402 36.0
394.713043 380.0
395.205231 684.0
395.684113 100.0
396.229523 104.0
396.597595 20.0
396.724548 124.0
396.851532 180.0
397.207184 84.0
397.931641 32.0
398.173279 76.0
398.699188 36.0
398.80954 28.0
399.267944 56.0
399.382599 76.0
400.31308 24.0
400.55545 72.0
401.447388 36.0
401.589478 36.0
401.810333 60.0
401.934479 36.0
402.073761 40.0
402.112244 88.0
402.152191 92.0
402.314453 44.0
402.477234 140.0
402.706757 160.0
402.86673 44.0
403.180054 52.0
403.407745 128.0
403.546326 68.0
403.712952 15664.0
403.868866 64.0
403.987823 128.0
404.066406 80.0
404.216675 7012.0
404.335999 132.0
404.442047 60.0
404.542358 32.0
404.717316 2576.0
405.018433 28.0
405.21701 720.0
405.495087 24.0
405.602051 48.0
405.718201 604.0
405.944489 240.0
406.060059 40.0
406.228699 128.0
406.61261 44.0
406.819153 60.0
406.953918 44.0
407.210541 92.0
407.476837 20.0
407.628693 40.0
407.976257 52.0
408.388367 88.0
408.955383 60.0
409.221954 100.0
409.496979 136.0
409.58728 20.0
409.793701 32.0
409.896942 108.0
410.699371 28.0
411.19635 104.0
411.447083 20.0
411.700989 84.0
412.702271 108.0
412.883575 64.0
413.201447 96.0
413.505554 36.0
414.205811 56.0
414.724915 104.0
415.272583 432.0
416.259979 136.0
416.869629 24.0
417.246338 64.0
417.716034 28.0
419.019867 84.0
419.228668 48.0
420.252594 148.0
421.280304 140.0
422.249054 52.0
422.419342 28.0
422.615906 128.0
422.864929 24.0
423.245148 52.0
424.216156 72.0
425.017395 44.0
426.332581 24.0
427.241241 64.0
428.177246 112.0
428.770996 52.0
429.93335 24.0
430.286835 76.0
430.515106 20.0
431.254181 84.0
432.236237 68.0
433.336914 48.0
434.239716 116.0
435.196655 52.0
436.19458 32.0
437.326935 104.0
439.226562 104.0
439.662903 20.0
440.235596 72.0
440.665924 28.0
442.28656 124.0
443.261536 128.0
444.246002 32.0
446.250153 96.0
447.179779 52.0
449.279053 144.0
451.327667 52.0
453.877197 68.0
456.298431 80.0
457.196899 96.0
457.31958 64.0
458.239227 88.0
459.585266 36.0
460.290527 88.0
460.870728 60.0
461.246704 128.0
463.251648 100.0
463.666626 120.0
464.037292 84.0
464.284515 92.0
465.285889 160.0
466.284912 280.0
467.269836 68.0
468.310272 60.0
470.26474 44.0
470.555084 72.0
470.84552 80.0
471.288666 128.0
472.292542 72.0
473.270294 52.0
474.032257 44.0
475.713043 76.0
479.125458 36.0
479.265015 76.0
479.418518 28.0
481.304626 88.0
481.654297 96.0
482.284058 104.0
484.372162 68.0
485.300232 100.0
485.888489 84.0
486.213867 52.0
487.069519 40.0
487.759125 20.0
490.592957 72.0
491.270905 88.0
492.304932 108.0
493.276184 320.0
494.270782 120.0
494.455017 36.0
496.15744 68.0
497.180267 36.0
498.303772 48.0
498.474548 24.0
499.214905 80.0
499.314606 76.0
499.998535 168.0
500.30423 100.0
501.753296 128.0
502.30542 144.0
503.196503 96.0
503.425293 32.0
503.868774 24.0
504.269501 64.0
504.856567 140.0
505.30069 44.0
506.294586 172.0
507.337463 64.0
508.271179 100.0
509.284332 92.0
509.565399 32.0
509.914764 44.0
510.040375 20.0
510.293701 348.0
511.32074 100.0
512.158813 20.0
512.308228 92.0
513.326965 88.0
515.265137 64.0
516.303589 60.0
516.669617 44.0
517.291382 104.0
517.843933 132.0
518.325745 96.0
520.289001 80.0
521.281006 80.0
522.303345 192.0
522.496277 72.0
522.816833 32.0
523.283386 36.0
524.304626 36.0
524.450562 40.0
525.838318 24.0
526.328003 164.0
527.306946 84.0
527.447449 44.0
527.83551 48.0
528.047852 28.0
528.356445 780.0
529.176392 32.0
529.334961 96.0
530.337036 72.0
530.585022 52.0
530.922791 48.0
531.319458 152.0
531.495789 36.0
532.024963 32.0
533.054688 60.0
533.746643 32.0
534.312073 224.0
535.310425 80.0
536.09082 108.0
536.326965 268.0
537.322205 136.0
537.552979 28.0
538.262634 64.0
538.395752 88.0
539.313171 92.0
540.282532 88.0
540.809387 48.0
543.272949 40.0
544.239136 24.0
544.953186 36.0
545.191284 52.0
546.129395 120.0
547.324402 104.0
548.310242 120.0
548.799194 28.0
550.286987 124.0
550.637512 72.0
551.308777 148.0
551.744995 24.0
552.132629 144.0
552.32196 1048.0
552.808594 92.0
553.326233 164.0
554.053284 32.0
554.313354 104.0
554.953918 24.0
555.359436 120.0
556.352783 96.0
557.342346 68.0
558.172119 76.0
558.327576 128.0
559.588684 60.0
559.724426 108.0
559.845093 40.0
561.331543 76.0
562.294861 168.0
562.638855 40.0
562.820312 32.0
562.926208 44.0
563.297729 64.0
564.288208 84.0
564.75769 124.0
566.337524 56.0
567.305542 72.0
568.368835 136.0
569.385925 300.0
570.239624 76.0
571.358032 84.0
572.296509 92.0
572.403259 36.0
572.967651 164.0
573.227112 72.0
573.36554 116.0
574.380798 240.0
574.907104 44.0
576.895813 76.0
577.293945 92.0
577.416504 68.0
578.320557 148.0
579.351746 84.0
579.670349 48.0
580.298096 128.0
581.329102 100.0
581.774902 44.0
581.944031 124.0
582.359314 24.0
583.144104 72.0
583.352905 72.0
585.414612 56.0
586.180542 40.0
586.374939 76.0
586.906128 24.0
587.354065 68.0
588.358643 52.0
588.698853 52.0
590.323975 32.0
591.377625 68.0
592.447754 36.0
593.301392 60.0
594.295532 28.0
595.337158 44.0
597.371521 156.0
597.610168 84.0
598.383484 156.0
599.35675 48.0
599.871826 56.0
600.254395 92.0
601.137146 60.0
602.341187 48.0
604.297668 92.0
605.380066 68.0
606.321472 96.0
606.996643 32.0
607.326477 144.0
608.316589 72.0
609.338928 108.0
612.363892 40.0
613.405396 68.0
614.353027 48.0
614.684875 48.0
615.404785 168.0
615.570251 72.0
616.39502 300.0
617.344116 116.0
618.325256 64.0
619.098999 40.0
619.352173 220.0
620.357117 244.0
621.388245 92.0
621.944519 64.0
622.055847 84.0
623.376099 76.0
624.25177 68.0
625.368652 172.0
626.375854 104.0
629.334778 88.0
629.790588 20.0
630.042297 88.0
630.590698 200.0
631.374207 88.0
632.096313 32.0
632.304688 56.0
633.38147 148.0
634.245667 36.0
634.406189 64.0
635.321716 124.0
636.299683 128.0
637.058167 52.0
637.366943 104.0
640.231689 36.0
640.344604 44.0
642.233337 24.0
642.399475 228.0
643.399841 112.0
644.361328 116.0
644.529297 24.0
646.148621 124.0
646.350037 76.0
646.537598 28.0
647.389893 108.0
647.624023 36.0
648.127014 88.0
648.357422 100.0
648.922424 32.0
649.375671 760.0
649.620911 24.0
650.001587 28.0
650.377197 204.0
650.839966 36.0
650.970093 28.0
651.382446 140.0
651.604553 100.0
651.827148 112.0
653.372375 112.0
653.966125 48.0
654.210632 184.0
654.351196 156.0
654.602051 64.0
654.797729 24.0
655.809448 108.0
656.315613 56.0
657.377563 212.0
658.064148 48.0
659.209351 52.0
659.363159 80.0
660.077026 76.0
660.339111 108.0
660.699524 24.0
660.945312 32.0
661.338684 32.0
661.945374 44.0
662.349182 84.0
662.732849 116.0
663.405823 88.0
665.401794 312.0
665.805115 160.0
666.419739 216.0
666.715027 160.0
667.730957 120.0
668.406494 72.0
669.44519 64.0
669.940063 28.0
670.350098 128.0
670.666199 40.0
670.864319 112.0
671.0625 124.0
671.359741 72.0
671.475342 112.0
671.673584 48.0
672.404846 32.0
672.96283 24.0
673.358765 80.0
674.435364 48.0
674.865845 72.0
675.422546 716.0
676.224426 48.0
676.389648 308.0
676.672058 24.0
677.111389 96.0
677.391541 212.0
678.36969 128.0
679.351562 84.0
680.545837 144.0
681.156616 36.0
681.872192 96.0
683.437805 64.0
683.637756 24.0
683.771118 120.0
684.371338 84.0
684.804993 72.0
685.272156 80.0
685.989868 88.0
686.323792 44.0
687.384338 100.0
687.418091 48.0
687.482727 76.0
688.370483 172.0
689.282837 24.0
689.416748 156.0
690.325195 184.0
691.36792 160.0
692.030273 28.0
692.348938 52.0
692.941162 120.0
695.707581 76.0
697.642456 52.0
698.366638 160.0
699.462036 32.0
699.596924 124.0
700.456726 136.0
700.963318 44.0
701.191406 124.0
701.460876 92.0
701.908752 164.0
702.429504 248.0
702.702698 160.0
703.440247 208.0
703.683105 48.0
704.434753 88.0
705.36969 156.0
705.798401 36.0
706.459045 60.0
706.831848 108.0
707.492981 40.0
707.611633 28.0
708.384827 68.0
708.934875 36.0
709.342285 36.0
711.347046 28.0
712.437439 36.0
712.690796 48.0
713.422791 60.0
713.86554 36.0
714.399658 112.0
715.434692 48.0
715.723145 28.0
716.183716 32.0
716.45697 500.0
716.849182 36.0
717.453186 400.0
718.334778 32.0
718.463989 164.0
719.143494 68.0
719.497009 36.0
719.821899 28.0
720.437744 160.0
721.395874 164.0
722.132629 28.0
722.423828 72.0
722.937927 116.0
723.057922 28.0
723.332214 88.0
723.460144 104.0
723.949524 124.0
724.086731 48.0
724.464172 76.0
724.979004 84.0
726.43866 44.0
727.617065 64.0
728.441345 232.0
728.548279 40.0
728.880371 28.0
729.445374 92.0
729.809998 24.0
730.418579 108.0
731.876526 96.0
732.44635 1784.0
732.723206 36.0
732.856934 48.0
733.085632 48.0
733.45636 952.0
734.442566 208.0
734.847107 24.0
735.486633 32.0
737.302917 32.0
739.121521 56.0
739.46814 80.0
739.606812 116.0
740.124512 112.0
740.469177 108.0
740.679993 104.0
741.106201 36.0
741.705994 136.0
741.966431 112.0
742.494873 84.0
742.852234 84.0
743.443848 84.0
743.808105 32.0
744.442139 1460.0
744.749695 28.0
745.450195 528.0
746.017639 68.0
746.45636 548.0
747.097473 24.0
747.465149 236.0
748.213013 36.0
748.397888 64.0
749.119995 44.0
749.346802 104.0
750.254517 128.0
750.46405 56.0
751.005493 28.0
751.617004 44.0
752.443176 76.0
752.648438 32.0
753.558105 144.0
754.398315 20.0
754.801025 188.0
755.396606 32.0
756.290405 48.0
756.524902 32.0
756.676086 56.0
756.85144 16.0
757.425476 44.0
757.726257 84.0
757.924133 224.0
758.193848 116.0
758.53595 16.0
758.962646 120.0
759.396423 48.0
759.572144 44.0
759.84668 40.0
760.020874 28.0
760.227295 56.0
760.443054 5508.0
760.814148 36.0
760.999878 52.0
761.446655 3564.0
761.89624 32.0
762.025574 32.0
762.458252 9300.0
762.773743 44.0
762.904297 128.0
763.135803 64.0
763.460938 4160.0
763.759155 48.0
763.897888 32.0
763.981567 32.0
764.173218 32.0
764.458069 644.0
764.720093 68.0
764.97522 40.0
765.151489 120.0
765.462036 252.0
765.956482 56.0
766.351013 84.0
766.845215 36.0
767.609802 92.0
767.975342 36.0
768.462036 216.0
768.641846 144.0
769.070984 20.0
769.284546 52.0
769.479858 304.0
769.74292 128.0
770.4505 60.0
770.751343 48.0
770.937134 40.0
771.176086 64.0
771.37085 28.0
771.956848 84.0
772.444153 5828.0
772.760681 40.0
772.93988 476.0
773.230896 32.0
773.443359 3424.0
773.95105 232.0
774.45282 908.0
774.738342 92.0
774.975098 116.0
775.166138 36.0
775.465149 116.0
775.732239 32.0
775.856567 40.0
776.149536 88.0
776.404297 408.0
776.868958 36.0
777.064392 24.0
777.417358 64.0
777.615356 60.0
778.062317 100.0
778.462402 364.0
778.700073 76.0
778.942322 524.0
779.439819 132.0
779.696533 32.0
779.934875 68.0
780.464844 156.0
780.640198 28.0
780.932251 172.0
781.156738 40.0
781.833923 80.0
782.417358 156.0
782.582703 56.0
782.880737 28.0
783.003357 48.0
783.211731 36.0
783.421509 156.0
783.754395 88.0
783.892029 100.0
784.14801 56.0
784.404663 148.0
784.752136 84.0
785.086426 96.0
785.277161 84.0
785.783691 140.0
786.145996 248.0
786.2854 192.0
786.423523 192.0
786.752563 136.0
786.872009 148.0
787.196716 232.0
787.258728 88.0
787.447815 7892.0
787.94989 7760.0
788.230286 160.0
788.285522 76.0
788.446777 5128.0
788.628967 296.0
788.953186 1944.0
789.17926 92.0
789.446655 488.0
789.588684 288.0
789.777771 264.0
789.950317 1084.0
790.106812 412.0
790.457642 182500.0
790.73114 420.0
790.756592 424.0
790.895386 524.0
791.130981 480.0
791.459229 95528.0
791.832214 500.0
791.989319 228.0
792.175293 284.0
792.460571 21008.0
792.732178 280.0
793.022583 108.0
793.459045 3496.0
793.716492 236.0
793.936829 96.0
794.141541 64.0
794.317566 112.0
794.476013 328.0
794.619751 92.0
794.799744 72.0
794.874451 40.0
794.937927 32.0
795.115234 28.0
795.252319 32.0
795.31665 20.0
795.356934 36.0
795.536438 28.0
795.743103 104.0
795.874878 112.0
796.056274 36.0
796.106689 28.0
796.171204 44.0
796.427673 184.0
796.610535 132.0
796.915833 76.0
797.091614 40.0
797.212219 68.0
797.329346 96.0
797.543701 36.0
797.875916 44.0
797.961487 64.0
798.013672 48.0
798.288696 40.0
798.60437 40.0
798.903992 96.0
799.157959 64.0
799.50531 40.0
799.705444 28.0
799.911865 80.0
800.178528 192.0
800.324524 56.0
800.655457 76.0
800.954224 32.0
801.210938 40.0
801.335815 60.0
801.692505 48.0
802.122803 40.0
802.339478 20.0
802.736755 28.0
802.904663 52.0
803.206421 56.0
803.362366 44.0
803.630005 36.0
803.912842 44.0
804.146118 32.0
804.471497 64.0
804.740906 40.0
804.937866 40.0
805.212952 32.0
805.466248 44.0
805.781982 80.0
806.022644 32.0
806.175354 36.0
806.318298 48.0
806.453613 36.0
806.696899 48.0
806.896057 24.0
807.087463 48.0
807.25824 44.0
807.488098 160.0
807.745361 36.0
807.975647 80.0
808.238403 40.0
808.422607 124.0
808.556763 64.0
809.01178 36.0
809.256836 72.0
809.596313 32.0
809.85144 68.0
810.15802 136.0
810.503479 36.0
810.831604 184.0
810.881653 76.0
810.946045 144.0
811.229553 40.0
811.414551 168.0
811.612854 36.0
812.446472 36.0
812.755371 40.0
813.064331 60.0
813.318848 72.0
813.446106 40.0
814.08252 40.0
814.289612 52.0
814.44635 24.0
814.792053 44.0
815.046814 84.0
815.838623 40.0
816.12085 32.0
816.302979 76.0
817.086304 52.0
817.687744 24.0
817.906494 28.0
818.070557 44.0
818.271118 124.0
818.471741 28.0
818.781799 24.0
819.150635 36.0
819.365601 48.0
819.597961 44.0
820.314697 56.0
820.479004 36.0
820.75293 104.0
821.063416 52.0
821.337402 36.0
821.501831 28.0
821.70282 160.0
822.616699 84.0
822.872681 32.0
823.037292 24.0
823.348206 64.0
824.32489 168.0
825.269897 28.0
825.727783 44.0
827.24884 132.0
827.908997 156.0
828.074036 40.0
828.606079 20.0
829.289185 112.0
829.762512 20.0
830.037964 40.0
830.767883 120.0
831.618164 20.0
831.783569 24.0
833.015808 36.0
833.144592 24.0
833.735352 180.0
834.70929 28.0
835.243469 28.0
836.312317 76.0
837.898438 24.0
838.562866 92.0
839.596924 32.0
840.650085 32.0
844.109802 24.0
844.313538 28.0
846.426392 36.0
846.723206 84.0
848.059204 48.0
849.664978 52.0
850.660095 192.0
851.962036 36.0
852.613403 64.0
854.252136 52.0
856.433411 96.0
857.105103 32.0
858.243896 124.0
859.96283 104.0
860.481628 96.0
861.365356 76.0
861.870605 112.0
862.226196 28.0
864.913452 124.0
865.298645 72.0
868.921448 72.0
870.14325 92.0
872.83429 136.0
873.267456 152.0
873.399353 36.0
874.512329 128.0
877.020142 48.0
879.646118 104.0
887.433655 72.0
888.934509 44.0
889.580811 164.0
890.189331 128.0
890.607788 24.0
891.768616 52.0
892.492126 64.0
894.168701 84.0
899.150696 56.0
907.350342 28.0
907.964905 128.0
908.755432 132.0
909.829041 20.0
911.906799 112.0
912.657715 16.0
915.522217 88.0
916.667664 144.0
919.468262 88.0
921.557007 32.0
925.357117 140.0
925.547668 88.0
927.15802 124.0
927.895752 100.0
929.255493 48.0
932.192017 120.0
935.601074 144.0
938.196106 196.0
941.694397 56.0
945.944031 96.0
949.613831 56.0
952.779053 44.0
952.995544 120.0
960.922729 68.0
961.159851 132.0
962.187805 76.0
964.166138 68.0
966.265381 28.0
967.276184 144.0
967.851257 112.0
968.783508 56.0
971.821594 48.0
972.020325 112.0
972.556946 60.0
974.406616 68.0
979.54718 136.0
982.941772 108.0
985.561584 104.0
987.103088 144.0
987.363464 160.0
988.104736 32.0
988.445435 144.0
991.514099 76.0
993.100464 116.0
1002.221313 112.0
1003.856567 124.0
1006.483887 132.0
1008.001221 44.0
1009.114624 40.0
1009.742493 92.0
1013.919495 84.0
1014.548828 136.0
1021.545471 24.0
1023.604309 120.0
1024.073364 88.0
1028.484375 80.0
1030.28418 28.0
1032.187866 24.0
1033.376099 140.0
1033.929443 24.0
1040.971924 64.0
1043.832642 108.0
1048.69873 88.0
1049.999634 92.0
1058.257446 108.0
1059.087158 128.0
1060.000122 100.0
1062.221924 72.0
1067.755493 156.0
1071.675049 124.0
1074.807495 132.0
1092.307373 84.0
1092.855225 132.0
1094.541748 52.0
1101.808472 88.0
1110.84082 88.0
1111.88208 32.0
1113.476807 100.0
1118.545044 52.0
1118.779663 64.0
1120.379272 124.0
1122.941162 136.0
1124.073608 104.0
1133.739258 112.0
1135.042725 88.0
1137.191284 144.0
1143.498535 132.0
1145.18042 100.0
1148.396851 88.0
1149.13147 116.0
1154.280151 48.0
1158.702393 100.0
1161.677124 132.0
1180.152344 136.0
1187.192261 68.0
1188.840088 64.0
1196.324707 148.0
1196.898071 84.0
1203.036743 44.0
1208.459717 84.0
1210.521484 84.0
1218.674683 100.0
1221.101562 84.0
1225.11438 76.0
1227.279541 92.0
1229.11145 40.0
1230.072632 68.0
1239.076538 36.0
1255.284912 124.0
1270.91687 100.0
1321.264771 44.0
1361.960205 112.0
1362.31311 148.0
1386.820923 60.0
1391.477539 48.0
1405.351074 52.0
1417.684814 56.0
1439.029907 84.0
1450.514648 108.0
1486.348755 100.0
1527.972534 108.0
1558.573364 32.0
1565.93042 192.0
1568.201538 36.0
1598.130127 40.0
1670.670044 36.0
1679.880127 36.0
1686.130249 184.0
1692.208374 76.0
1732.725708 28.0
1771.467896 152.0
1796.885498 84.0
1925.01062 48.0
END IONS
