BEGIN IONS
PEPMASS=727.336
CHARGE=1
MSLEVEL=2
SOURCE_INSTRUMENT=LC-ESI-qTof
FILENAME=f.chenliangyu/A1B2 light EtOAc ACN/A1B2-LEA-F7.mzXML;
SEQ=*..*
IONMODE=Positive
ORGANISM=GNPS-LIBRARY
NAME=Piperazimycin A M+H
PI=Pieter Dorrestein
DATACOLLECTOR=Liangyu Chen
SMILES=O=C([C@](C)(CO)NC([C@@H]3C[C@@H]4O)=O)OCC(N1NC[C@H](O)C[C@@H]1C(N[C@@H](C/C=C/C=C/C(C)C)C(N2NC[C@@H](Cl)C[C@@H]2C(N3NC4)=O)=O)=O)=O
INCHI=1S/C31H47ClN8O10/c1-17(2)7-5-4-6-8-21-28(47)40-24(9-18(32)12-33-40)29(48)39-23(11-20(43)14-35-39)27(46)37-31(3,16-41)30(49)50-15-25(44)38-22(26(45)36-21)10-19(42)13-34-38/h4-7,17-24,33-35,41-43H,8-16H2,1-3H3,(H,36,45)(H,37,46)
INCHIAUX=
PUBMED=
SUBMITUSER=chenliangyu
TAGS=
LIBRARYQUALITY=3
SPECTRUMID=CCMSLIB00000839207
SCANS=659
187.080566 856.0
259.110413 1092.0
288.127869 392.0
360.150665 868.0
362.157898 368.0
378.165588 1208.0
380.166138 420.0
435.17453 344.0
514.226013 1124.0
541.27002 1048.0
542.272705 612.0
559.280823 5224.0
560.280579 1156.0
561.274475 1248.0
581.30603 404.0
698.328857 360.0
699.334961 1112.0
700.348755 392.0
709.331299 1472.0
710.333191 856.0
711.32843 1040.0
727.34552 2716.0
728.345215 1408.0
729.345947 1716.0
END IONS
