BEGIN IONS
PEPMASS=503.09
CHARGE=1
MSLEVEL=2
SOURCE_INSTRUMENT=DI-ESI-qTof
FILENAME=gnps_Enhydrin_pos_MplusK.mgf
SEQ=*..*
IONMODE=Positive
ORGANISM=GNPS-LIBRARY
NAME=Enhydrin M+K
PI=Norberto Lopes
DATACOLLECTOR=Monica Pupo
SMILES=O=C([C@@]1([C@@H](O1)C)C)O[C@H]2[C@@H]3[C@H](OC(C3=C)=O)[C@H]4[C@](C)(O4)CCC=C(C(OC)=O)[C@@H]2OC(C)=O
INCHI=InChI=1S/C23H28O10/c1-10-14-16(31-21(27)23(5)11(2)32-23)15(29-12(3)24)13(20(26)28-6)8-7-9-22(4)18(33-22)17(14)30-19(10)25/h8,11,14-18H,1,7,9H2,2-6H3/b13-8+/t11-,14+,15-,16-,17-,18-,22+,23-/m0/s1
INCHIAUX=N/A
PUBMED=N/A
SUBMITUSER=rsilva
TAGS=
LIBRARYQUALITY=3
SPECTRUMID=CCMSLIB00000081684
SCANS=1
229.062714 141.0
257.058868 151.0
275.065033 105.0
289.082733 315.0
307.094543 115.0
308.097229 161.0
349.098389 358.0
503.090485 1805.0
END IONS
