BEGIN IONS
PEPMASS=608.917
CHARGE=1
MSLEVEL=2
SOURCE_INSTRUMENT=LC-ESI-Orbitrap
FILENAME=f.lfnothias/1901_fungal_symbiont_annotation_confirmation/Pure_compounds/Pure_compounds_mzML/LeucinostatinAandB_1uL_sensitive.mzML;
SEQ=*..*
IONMODE=Positive
ORGANISM=GNPS-LIBRARY
NAME=Leucinostatin A, N9-Oxide ; Paecilotoxin K M-H2O+H M+H-H2O
PI=Dorrestein
DATACOLLECTOR=lfnothias
SMILES=CCC(C)C=CC(=O)N1CC(CC1C(=O)NC(CC(C)CC(CC(=O)CC)O)C(=O)NC(C(C(C)C)O)C(=O)NC(C)(C)C(=O)NC(CC(C)C)C(=O)NC(CC(C)C)C(=O)NC(C)(C)C(=O)NC(C)(C)C(=O)NCCC(=O)NC(C)CCCON)C
INCHI=InChI=1S/C62H111N11O14/c1-19-38(9)23-24-49(77)73-34-40(11)32-47(73)55(82)67-46(31-39(10)30-43(75)33-42(74)20-2)53(80)69-50(51(78)37(7)8)56(83)71-61(15,16)58(85)68-44(28-35(3)4)52(79)66-45(29-36(5)6)54(81)70-62(17,18)59(86)72-60(13,14)57(84)64-26-25-48(76)65-41(12)22-21-27-87-63/h23-24,35-41,43-47,50-51,75,78H,19-22,25-34,63H2,1-18H3,(H,64,84)(H,65,76)(H,66,79)(H,67,82)(H,68,85)(H,69,80)(H,70,81)(H,71,83)(H,72,86)/b24-23+/t38-,39?,40?,41?,43?,44?,45?,46?,47?,50?,51?/m1/s1
INCHIAUX=BHOASNRSZLVNJK-GRWLOXFISA-N
PUBMED=
SUBMITUSER=lfnothias
TAGS=
LIBRARYQUALITY=3
SPECTRUMID=CCMSLIB00005435709
SCANS=873
70.065376 6085.013672
72.08091 6575.648926
76.988319 1982.858276
77.989914 2238.667725
79.991165 2102.338379
81.070183 3847.716309
84.080872 340751.21875
85.084152 10368.257812
86.096504 50831.371094
93.069977 7248.263672
95.085373 6436.858398
96.080757 3805.175049
98.096291 4197.229004
100.075722 20925.730469
101.107376 7648.231934
102.091331 9462.00293
103.086639 3551.710693
111.080383 337123.375
112.075867 74138.632812
112.083664 14166.21582
113.078491 2824.644775
113.107246 5020.598145
114.090836 2547.514893
123.116806 22313.951172
124.112381 3029.686035
124.499763 2336.247559
125.096756 2070.915283
125.107048 13131.572266
126.091423 23642.919922
129.102097 31337.662109
141.101791 15713.112305
142.133759 31971.626953
143.08223 2737.225098
143.117844 11669.518555
154.13385 34240.234375
155.117599 8814.316406
155.154175 3546.780762
160.144333 10167.419922
168.138168 11471.664062
169.121658 11088.992188
169.13443 2768.242432
171.112991 6246.843262
171.148758 16639.005859
172.144302 37427.929688
173.147507 2554.656006
180.139069 2981.943359
183.149002 3695.246582
183.185379 9508.538086
187.143997 34689.097656
194.153824 637445.1875
195.157364 54343.566406
197.129959 4169.687012
199.103577 2436.194092
199.143997 30035.359375
199.161011 3029.583984
199.16452 2560.501953
199.180161 21678.234375
207.148392 2434.150879
211.143906 6148.240234
211.180511 21520.251953
214.155365 4625.84082
215.138962 48874.335938
216.141937 5324.734863
222.148834 365373.15625
223.151901 29897.003906
225.159256 9188.327148
226.154556 5041.486328
227.139008 8734.358398
227.174896 22812.001953
235.144119 11575.308594
239.174744 34315.109375
240.17778 4158.297852
245.197998 8088.57666
257.197113 36280.480469
258.200012 2550.057129
273.177246 2800.429932
279.203308 2764.995605
282.178986 2534.252197
290.173798 2439.009521
296.235382 3112.979736
307.200653 2943.225342
310.211456 3269.704102
312.227997 52364.949219
313.231232 4316.481445
320.193817 2648.582275
324.228851 20763.160156
325.213898 8287.321289
328.22348 20223.324219
329.224945 3033.579834
338.206757 5179.552246
340.224335 4197.680176
342.251404 15545.800781
369.286621 3028.168945
395.270996 2839.862793
397.282715 18469.068359
398.2789 2908.560059
409.278839 2625.601562
410.265625 7925.870605
417.274261 9719.208984
423.299011 3495.429688
435.286682 17015.847656
436.285522 3509.55127
440.27713 3030.634033
441.308868 6142.40918
455.334106 19051.570312
456.34021 3526.617432
482.335968 2681.566406
492.305847 7345.173828
508.352814 3807.099854
525.372498 4100.882812
526.360962 6246.496094
528.347534 5947.466797
546.353333 45087.667969
547.356689 9374.279297
550.407104 5954.395996
564.365417 21537.683594
568.417236 133286.15625
569.423889 28840.037109
569.881836 2608.607666
578.389099 9034.720703
578.889099 6299.819824
585.406006 2935.272217
591.404297 4988.039062
599.911194 15872.138672
600.416138 8610.435547
611.416687 2580.020508
613.397583 5195.044434
631.406616 51053.316406
632.410767 15591.370117
649.417664 8500.219727
653.470398 9789.27832
676.325684 2396.127441
782.546997 6993.551758
783.564514 3592.014648
934.63855 4031.94165
995.670593 3029.101074
END IONS
