BEGIN IONS
PEPMASS=882.506
CHARGE=0
MSLEVEL=2
SOURCE_INSTRUMENT=LC-ESI-qTof
FILENAME=f.MSV000078568/spectrum/GNPS_Dorrestein_Gerwick_Cyanobacteria/GNPS_Dorrestein_Gerwick_Cyanobacteria/Plate1/1555_001E9_RE9_01_12553.mzXML;
SEQ=*..*
IONMODE=Positive
ORGANISM=GNPS-LIBRARY
NAME=Apratoxin D M+H
PI=Dorrestein
DATACOLLECTOR=Luzzatto-Knaan
SMILES=CC[C@@H]([C@H]1C(N2CCC[C@H]2C(O[C@H]([C@H](CC(C)(C)C)C)C[C@@H](C)C[C@H](O)[C@H](C)C3=N[C@@H](/C=C(C)/C(N[C@@H](Cc4ccc(OC)cc4)C(N(C)[C@@H](C)C(N1C)=O)=O)=O)CS3)=O)=O)C
INCHI=
INCHIAUX=
PUBMED=
SUBMITUSER=tal_lk
TAGS=
LIBRARYQUALITY=3
SPECTRUMID=CCMSLIB00000424841
SCANS=3364
45.419167 176.0
46.0205 184.0
46.759022 260.0
47.113415 160.0
47.271961 184.0
47.706585 184.0
47.870255 152.0
48.329742 152.0
48.439072 152.0
48.947197 192.0
49.320946 188.0
49.358681 172.0
49.590984 172.0
50.168495 192.0
50.344799 172.0
50.674255 192.0
51.127056 196.0
51.426239 168.0
51.550442 168.0
51.740604 152.0
51.752052 148.0
51.979874 224.0
52.304119 224.0
52.867672 156.0
54.061558 140.0
54.279331 228.0
54.328125 156.0
54.611519 152.0
54.848488 172.0
55.430569 148.0
55.523754 140.0
55.687119 172.0
55.886246 188.0
55.996361 180.0
56.008274 192.0
56.134907 140.0
56.269142 160.0
57.222321 172.0
57.342785 188.0
58.428093 188.0
58.706726 164.0
59.249134 192.0
59.270576 140.0
59.46373 212.0
60.12989 176.0
60.545609 144.0
60.557995 144.0
61.282516 196.0
61.396931 176.0
61.701298 152.0
62.312294 240.0
62.48674 236.0
63.757591 180.0
64.298866 140.0
64.314819 156.0
64.605537 156.0
64.847229 140.0
65.222672 176.0
65.320724 200.0
65.890541 100.0
66.073799 240.0
66.331192 140.0
66.465744 196.0
67.560204 164.0
67.804077 156.0
67.905876 104.0
68.04512 140.0
69.20871 144.0
69.256714 180.0
70.239281 148.0
70.529121 152.0
70.800056 148.0
71.651344 164.0
72.162529 212.0
72.304565 144.0
73.049149 244.0
73.310219 116.0
73.408379 204.0
73.937325 192.0
74.420967 176.0
74.709595 140.0
75.571213 212.0
75.783043 160.0
75.807327 188.0
76.735123 208.0
77.61425 152.0
78.142731 160.0
78.197258 144.0
78.759491 184.0
78.870766 204.0
79.201515 184.0
79.252876 156.0
79.2883 152.0
80.150276 192.0
80.501106 148.0
80.52253 240.0
80.535027 188.0
80.756569 200.0
81.150383 140.0
81.17189 220.0
81.557732 168.0
83.055832 200.0
83.278999 148.0
83.953941 148.0
83.972176 184.0
84.233086 244.0
84.752449 168.0
85.516098 168.0
85.709389 144.0
86.065247 140.0
87.060455 172.0
87.795906 144.0
87.973091 176.0
88.070152 228.0
89.547554 172.0
89.884872 184.0
91.049728 172.0
91.181572 148.0
91.464859 156.0
92.566025 200.0
92.663673 152.0
92.79686 156.0
94.012985 180.0
94.067009 148.0
94.813309 140.0
95.047462 356.0
95.085526 336.0
96.342087 148.0
96.399376 164.0
97.007179 196.0
97.103218 168.0
98.062294 220.0
98.09716 300.0
98.18251 188.0
98.502136 172.0
99.026581 424.0
99.716255 220.0
100.040352 176.0
100.112343 12500.0
100.207138 144.0
100.67614 180.0
100.983795 148.0
101.114418 1244.0
101.227859 180.0
101.386055 160.0
101.590485 168.0
101.991936 212.0
102.055046 2124.0
102.140678 152.0
102.37204 196.0
102.442505 204.0
102.603661 160.0
103.051208 176.0
104.045563 164.0
104.070999 188.0
104.1166 248.0
104.134872 140.0
104.275009 296.0
104.569794 160.0
104.928169 152.0
106.064331 144.0
106.517632 144.0
107.021286 140.0
107.085098 252.0
107.627251 176.0
107.749054 352.0
107.915604 228.0
108.085945 160.0
108.116966 140.0
109.100349 2776.0
109.451225 152.0
109.467873 168.0
109.711555 164.0
110.057533 152.0
110.105995 292.0
110.894203 184.0
111.025803 216.0
111.116768 180.0
111.618187 144.0
111.904228 148.0
112.319214 188.0
112.555496 192.0
113.026672 272.0
113.095787 364.0
113.134575 160.0
113.876717 180.0
114.054085 480.0
114.254654 220.0
114.343987 152.0
114.371643 144.0
115.053513 204.0
115.196541 144.0
115.491402 160.0
115.626144 240.0
116.070572 24752.0
116.220085 116.0
116.434067 160.0
117.073792 2040.0
117.096802 176.0
117.542282 244.0
117.619949 212.0
117.853958 100.0
118.075195 540.0
118.218384 156.0
118.359032 188.0
118.681755 156.0
119.819977 168.0
119.963959 196.0
120.518082 148.0
121.064156 5072.0
121.097267 204.0
122.068481 656.0
122.100166 336.0
122.641563 184.0
122.809067 160.0
123.077019 208.0
123.116547 5088.0
124.119637 404.0
124.179825 152.0
124.490402 188.0
124.69249 196.0
124.725815 212.0
125.128304 156.0
125.816917 196.0
126.054733 188.0
126.126183 296.0
126.149643 160.0
126.96209 144.0
127.021645 916.0
127.11264 144.0
127.556847 172.0
127.927864 152.0
128.019211 176.0
128.053131 184.0
128.072571 176.0
128.106918 22432.0
128.30014 112.0
128.822769 196.0
129.021561 196.0
129.109024 2024.0
129.320023 176.0
129.929337 156.0
130.050995 296.0
130.092667 140.0
130.147141 152.0
130.212967 184.0
130.440094 168.0
130.844864 188.0
131.046219 180.0
131.08165 212.0
132.387787 148.0
132.584732 216.0
133.068527 172.0
134.063232 152.0
134.529846 152.0
135.08017 2544.0
136.026993 212.0
136.081619 512.0
136.111694 152.0
136.133743 172.0
137.059082 388.0
137.104691 180.0
137.13707 168.0
137.579086 252.0
137.658432 172.0
138.053986 152.0
138.132462 416.0
138.928329 108.0
139.05957 296.0
139.093048 184.0
139.12825 240.0
139.2966 156.0
139.363007 148.0
140.059082 184.0
140.381836 204.0
141.028458 184.0
141.098969 176.0
141.127899 796.0
142.062607 176.0
142.088913 156.0
142.130173 252.0
142.832153 196.0
142.877335 156.0
143.031952 144.0
143.586884 196.0
144.043121 160.0
144.066055 444.0
144.116623 160.0
144.77417 144.0
145.11908 156.0
145.356445 184.0
145.430817 164.0
145.594009 152.0
145.687653 144.0
146.072113 388.0
146.114792 256.0
146.375244 152.0
147.085632 196.0
147.117554 340.0
147.611145 200.0
147.761398 184.0
148.076218 240.0
148.447754 172.0
148.741196 140.0
149.718735 164.0
150.027527 172.0
150.091263 1220.0
150.32254 176.0
150.61174 208.0
151.060181 104.0
151.09108 284.0
151.131897 132.0
151.505447 144.0
151.828873 152.0
152.053482 160.0
152.130554 172.0
153.078537 476.0
153.858047 156.0
154.032349 604.0
154.06839 1152.0
154.113983 180.0
154.661118 140.0
154.888824 156.0
155.070389 340.0
155.124146 180.0
155.173706 164.0
155.783966 156.0
155.863281 128.0
155.970261 144.0
156.029694 148.0
156.060852 300.0
156.102386 67712.0
156.231384 100.0
156.376556 192.0
156.425964 176.0
156.492462 148.0
156.607773 124.0
156.833618 164.0
156.975143 152.0
157.0242 136.0
157.10553 5208.0
157.17128 1160.0
157.205078 148.0
157.710754 108.0
157.894302 252.0
157.971817 216.0
158.064209 148.0
158.1073 760.0
158.18895 208.0
158.229401 116.0
158.299561 148.0
158.326294 128.0
158.359848 184.0
158.98616 160.0
159.190338 152.0
160.056595 172.0
161.058578 1852.0
161.134995 148.0
161.494492 168.0
162.01828 204.0
162.056625 320.0
162.084122 160.0
163.071899 196.0
163.105286 196.0
164.041794 128.0
164.098923 164.0
165.593216 176.0
166.067734 2352.0
166.544403 176.0
167.026718 172.0
167.077072 292.0
167.127731 144.0
167.153931 324.0
167.359299 180.0
168.062988 392.0
168.81575 180.0
168.837311 224.0
169.129547 192.0
169.171692 552.0
169.489258 172.0
169.865158 184.0
170.164001 120.0
171.080826 140.0
171.448837 108.0
173.140152 168.0
173.548187 152.0
174.241394 200.0
174.559296 164.0
175.106461 188.0
175.214417 148.0
176.067657 412.0
176.108353 356.0
176.150543 184.0
177.067993 164.0
178.088699 156.0
178.15773 140.0
178.235199 144.0
178.436676 148.0
178.540329 140.0
178.848831 160.0
179.070374 1728.0
179.112335 252.0
179.179184 2952.0
179.392014 168.0
179.570602 208.0
179.942322 112.0
180.074631 432.0
180.101532 212.0
180.138901 152.0
180.184036 596.0
180.437012 208.0
180.467499 164.0
180.67334 144.0
180.825806 160.0
181.050598 224.0
181.074203 368.0
181.133606 164.0
181.184799 172.0
181.578552 108.0
181.661469 176.0
181.876053 144.0
181.939606 136.0
181.964432 124.0
182.029022 180.0
182.063263 25308.0
182.116974 25932.0
182.262497 120.0
182.312744 164.0
182.370071 152.0
182.393219 104.0
182.469604 100.0
182.81813 96.0
183.06604 2616.0
183.121201 3088.0
183.300858 212.0
183.478668 140.0
184.059433 1308.0
184.124893 320.0
184.282944 100.0
184.409256 228.0
184.531174 256.0
184.561813 108.0
184.928665 140.0
185.008835 96.0
185.065704 156.0
185.164825 796.0
185.363083 152.0
185.611084 216.0
186.165558 212.0
186.29747 160.0
187.104843 156.0
187.592285 168.0
188.104935 672.0
188.143112 192.0
189.104233 128.0
190.12677 348.0
191.093231 388.0
192.060165 164.0
192.102585 156.0
192.799805 200.0
192.916931 104.0
193.118973 172.0
193.706955 180.0
193.984619 164.0
194.064102 572.0
194.108658 216.0
194.150238 276.0
194.977219 252.0
195.061996 184.0
195.105026 148.0
195.151672 188.0
196.044113 228.0
196.129013 152.0
196.164185 288.0
196.575058 152.0
197.189468 2308.0
197.967636 144.0
198.13736 524.0
198.194244 568.0
199.083725 416.0
199.104965 200.0
199.643616 160.0
200.046295 116.0
200.07309 180.0
200.111679 172.0
201.079147 220.0
201.122635 5308.0
201.610352 96.0
202.124985 608.0
202.810593 204.0
203.128204 220.0
204.081879 240.0
204.140915 156.0
204.406021 184.0
205.078445 348.0
206.085052 268.0
206.176208 212.0
206.496277 144.0
207.06311 188.0
207.119995 164.0
207.552567 140.0
207.693039 188.0
208.025757 152.0
208.078156 392.0
208.135925 144.0
208.594299 156.0
209.083221 148.0
209.16362 148.0
209.707794 176.0
210.061081 196.0
210.083542 176.0
210.370956 140.0
212.129059 208.0
212.633545 152.0
213.068924 176.0
213.106567 104.0
213.159866 25792.0
213.225037 156.0
213.316498 112.0
213.434998 180.0
213.626526 100.0
214.089478 160.0
214.161865 3316.0
214.281647 164.0
214.693726 140.0
215.093369 188.0
215.16571 516.0
215.32048 208.0
216.10199 256.0
216.160767 328.0
216.222702 160.0
216.863846 148.0
217.13446 688.0
217.192108 204.0
217.358673 160.0
218.113388 252.0
218.197479 136.0
219.108643 196.0
219.14827 284.0
220.141785 232.0
220.161606 312.0
222.110733 732.0
223.042221 152.0
223.083832 288.0
223.110565 116.0
224.108643 272.0
224.816605 160.0
225.113159 188.0
225.326981 160.0
226.123352 516.0
226.283646 152.0
226.43631 140.0
226.894592 172.0
227.126984 204.0
227.248337 156.0
227.818527 220.0
228.105133 204.0
230.040054 148.0
230.1194 336.0
231.115524 176.0
231.169724 1360.0
231.209305 268.0
232.181946 176.0
233.069763 188.0
233.124725 152.0
234.05864 144.0
234.090515 296.0
234.159088 172.0
235.139526 264.0
235.952606 204.0
236.128159 2480.0
236.848862 148.0
237.131958 332.0
238.130508 156.0
239.532455 200.0
240.083939 140.0
240.799637 140.0
240.907715 216.0
241.150131 288.0
241.34021 148.0
241.449554 96.0
241.708145 160.0
242.07608 128.0
242.117783 636.0
242.16304 256.0
242.203293 168.0
242.624557 188.0
242.653687 160.0
242.692749 184.0
242.767136 144.0
242.843719 132.0
243.122375 172.0
243.170776 79508.0
243.363144 156.0
243.529419 128.0
243.578125 128.0
243.793228 96.0
244.052155 176.0
244.132141 172.0
244.172287 13204.0
244.282806 152.0
244.394058 116.0
244.461243 156.0
244.62645 124.0
244.785385 152.0
245.102768 132.0
245.129288 288.0
245.175354 936.0
245.21814 176.0
245.53775 108.0
245.727844 124.0
245.767197 100.0
245.798325 244.0
245.909912 108.0
245.948242 132.0
245.997818 120.0
246.113846 1216.0
246.182434 156.0
246.323166 172.0
246.568573 96.0
246.873032 144.0
246.966003 124.0
247.108856 488.0
247.143066 184.0
247.625488 104.0
248.081238 192.0
248.103775 192.0
249.122559 152.0
249.163376 188.0
249.628372 176.0
250.089996 784.0
250.134705 308.0
251.088135 180.0
251.174347 116.0
251.27504 192.0
252.088593 140.0
252.132187 164.0
252.231522 312.0
253.145493 172.0
254.12677 124.0
255.083252 144.0
255.167542 120.0
256.08194 144.0
256.1297 144.0
257.077698 184.0
257.116974 196.0
257.478302 208.0
258.096283 416.0
258.229065 164.0
258.288971 120.0
259.10025 148.0
259.142609 148.0
260.103638 152.0
260.536072 160.0
261.069397 208.0
261.123627 456.0
263.135956 388.0
263.184937 156.0
264.035156 148.0
264.122589 11292.0
264.908752 140.0
265.073914 156.0
265.124634 2536.0
266.128296 416.0
266.193359 292.0
266.60498 236.0
267.114136 288.0
267.149384 348.0
268.085419 208.0
268.178406 196.0
268.204163 260.0
268.293579 176.0
268.62439 132.0
268.697815 168.0
268.988159 144.0
269.08606 248.0
269.115417 320.0
269.161102 176.0
269.18576 660.0
270.077637 192.0
270.112122 2464.0
270.183716 188.0
270.859283 124.0
271.113617 1248.0
271.156097 144.0
271.690094 140.0
272.111908 448.0
272.832489 176.0
273.098175 140.0
273.450653 164.0
274.121918 140.0
274.969391 140.0
276.104126 1948.0
276.618073 200.0
277.115356 904.0
277.15625 144.0
277.913361 172.0
278.100128 280.0
278.155518 204.0
278.610291 180.0
279.137573 604.0
279.178314 120.0
279.457733 220.0
279.996765 180.0
280.093109 184.0
280.146118 196.0
280.205322 184.0
281.096832 432.0
281.155487 172.0
281.201508 208.0
282.011139 164.0
282.134033 1024.0
282.245056 180.0
283.139954 424.0
283.215179 148.0
284.139923 148.0
284.193665 160.0
285.160095 248.0
285.42926 160.0
285.997559 152.0
286.086121 448.0
286.172791 160.0
286.256683 144.0
287.031403 168.0
287.080963 176.0
287.129303 380.0
287.175293 1380.0
288.081299 164.0
288.111725 156.0
288.177399 364.0
288.469086 96.0
289.10672 248.0
289.129333 288.0
289.176788 116.0
289.421173 120.0
290.846039 220.0
291.019104 172.0
291.136017 1048.0
291.195618 168.0
291.953186 204.0
292.112793 136.0
292.206146 980.0
293.157776 268.0
293.220062 376.0
293.737183 220.0
294.15332 216.0
294.208069 196.0
294.651703 148.0
294.713196 148.0
295.461639 228.0
296.313751 184.0
296.348022 144.0
297.123749 228.0
297.178925 996.0
297.292267 148.0
297.589111 144.0
297.712677 144.0
298.187988 196.0
298.365265 188.0
298.397247 160.0
299.142426 156.0
299.17923 148.0
299.214691 172.0
299.758667 172.0
300.599731 184.0
301.103546 140.0
301.887695 176.0
301.918823 148.0
302.07785 172.0
302.119415 492.0
302.152802 244.0
303.159943 152.0
304.099457 1300.0
304.170288 188.0
304.86087 156.0
305.094849 372.0
305.173584 180.0
306.097229 164.0
306.157928 160.0
306.368988 104.0
306.63504 168.0
307.102051 180.0
307.356598 140.0
308.589081 216.0
308.69043 140.0
309.606934 164.0
310.040039 152.0
310.219879 716.0
310.71991 120.0
310.906769 176.0
311.17218 880.0
311.235077 384.0
311.375977 120.0
311.668732 188.0
311.834137 192.0
312.253265 38916.0
312.519653 108.0
312.700928 172.0
312.775696 116.0
312.844299 112.0
312.928192 160.0
313.009491 160.0
313.06424 236.0
313.090668 164.0
313.136597 860.0
313.186035 268.0
313.255981 8464.0
313.448151 112.0
313.507996 184.0
313.881866 196.0
314.127502 540.0
314.261749 1048.0
314.594269 156.0
315.045746 120.0
315.115479 140.0
315.15451 420.0
315.208557 148.0
315.256592 256.0
315.321594 180.0
315.503906 108.0
316.121765 1824.0
317.127167 132.0
317.179047 160.0
317.212128 132.0
317.529938 200.0
318.138428 136.0
318.332123 208.0
319.126984 140.0
319.198334 292.0
319.241211 132.0
319.333435 188.0
320.158752 148.0
320.329651 180.0
321.527191 172.0
321.773376 184.0
322.12561 140.0
322.175629 188.0
322.216064 168.0
322.330353 188.0
324.255493 116.0
324.797729 104.0
325.252655 172.0
325.546722 180.0
326.268829 188.0
326.573303 156.0
327.170258 560.0
327.235168 224.0
328.070648 152.0
328.177277 172.0
328.222839 2720.0
328.584381 188.0
329.131042 500.0
329.223083 924.0
330.224487 160.0
330.467743 188.0
330.710114 224.0
330.797394 96.0
330.968842 124.0
330.998291 108.0
331.090118 160.0
331.147827 34240.0
331.286346 144.0
331.336426 124.0
331.548279 100.0
331.848816 148.0
332.149933 6800.0
332.235504 612.0
332.467163 140.0
332.802368 116.0
332.947083 180.0
333.08609 96.0
333.14679 1596.0
333.244568 152.0
333.383759 136.0
334.064453 104.0
334.146759 540.0
334.311951 276.0
334.358307 168.0
335.102356 160.0
335.153229 112.0
336.14682 164.0
336.199493 180.0
336.396484 140.0
336.805786 120.0
337.150208 116.0
337.285156 300.0
338.299103 328.0
339.109467 176.0
340.136078 212.0
340.671234 196.0
340.991516 168.0
341.130371 752.0
341.831299 136.0
342.127197 284.0
342.161926 180.0
343.066681 152.0
343.094757 156.0
343.154266 636.0
343.230652 128.0
344.082184 108.0
344.160553 120.0
344.234589 448.0
345.052643 152.0
345.16153 2060.0
345.224701 400.0
345.249786 508.0
345.532654 172.0
345.565948 164.0
346.165741 824.0
346.233826 176.0
346.60968 156.0
347.162231 132.0
347.206268 188.0
349.284851 136.0
350.193176 160.0
350.247894 428.0
351.254303 376.0
351.533569 112.0
354.158875 176.0
354.233093 140.0
354.390381 152.0
355.165131 4780.0
355.738892 140.0
356.16803 1844.0
356.532166 212.0
356.581573 100.0
357.072388 136.0
357.16568 512.0
358.100372 96.0
358.158478 284.0
358.209045 172.0
358.36972 128.0
358.475281 100.0
358.65564 192.0
358.692841 212.0
358.80249 100.0
358.858673 244.0
358.951721 204.0
359.041687 120.0
359.142761 88104.0
359.25943 220.0
359.363037 100.0
359.397888 168.0
359.47052 188.0
359.518951 128.0
359.559601 96.0
359.597137 152.0
359.666962 128.0
359.713654 164.0
359.78125 140.0
359.918274 160.0
359.971649 244.0
360.143768 20356.0
360.233368 2132.0
360.497559 96.0
360.549042 116.0
360.734985 168.0
361.026459 156.0
361.141083 4276.0
361.238098 1212.0
361.597046 148.0
361.669647 136.0
361.975128 188.0
362.109375 124.0
362.144623 784.0
362.248749 796.0
362.314941 284.0
362.373962 108.0
362.553619 100.0
362.637665 208.0
362.70929 124.0
362.732544 240.0
362.815613 116.0
363.226654 244.0
363.266602 188.0
363.398102 208.0
363.971008 156.0
364.149445 172.0
364.247833 204.0
364.668518 124.0
365.245026 148.0
366.224731 116.0
367.298553 472.0
367.488464 104.0
368.308228 292.0
368.822632 164.0
368.902863 152.0
369.11853 168.0
369.151306 264.0
370.185272 140.0
370.260651 164.0
371.149384 312.0
371.187653 268.0
371.697632 176.0
372.019867 168.0
372.228973 648.0
373.113556 384.0
373.211578 332.0
373.769165 148.0
374.12027 216.0
374.231201 136.0
374.722382 148.0
375.022858 156.0
375.21579 144.0
376.164673 112.0
376.238647 276.0
377.262817 644.0
377.311005 156.0
378.244202 1768.0
378.753845 140.0
379.247253 396.0
379.313843 172.0
381.200958 200.0
382.197388 112.0
383.16507 236.0
383.259674 112.0
383.390991 144.0
384.180145 176.0
385.159637 192.0
385.419312 156.0
385.657623 164.0
386.013245 156.0
387.142487 376.0
387.218079 168.0
388.138092 320.0
389.153534 9628.0
389.232605 172.0
389.617188 120.0
390.065521 144.0
390.154816 1604.0
390.240356 272.0
390.725922 140.0
390.871429 156.0
391.148438 868.0
391.223969 624.0
391.318817 124.0
391.59549 144.0
392.149841 148.0
392.217499 284.0
392.316315 148.0
393.223145 148.0
394.340424 140.0
394.684204 188.0
395.277954 176.0
396.264008 240.0
397.039429 184.0
397.304077 3572.0
397.729645 116.0
397.854309 116.0
398.204865 1220.0
398.308502 1620.0
398.553009 108.0
398.930298 184.0
399.213745 620.0
399.313141 320.0
400.203644 5416.0
401.210236 1408.0
401.27655 252.0
402.202087 376.0
402.294708 116.0
402.963013 128.0
403.159851 168.0
403.20575 172.0
403.283691 172.0
404.191132 148.0
404.223145 172.0
404.911407 192.0
405.003265 196.0
406.229584 172.0
407.164429 144.0
407.273499 168.0
408.289246 168.0
409.236267 164.0
409.57666 156.0
409.868927 140.0
410.203186 120.0
410.266602 100.0
411.18045 120.0
411.205292 152.0
411.329987 200.0
412.18988 156.0
412.577728 204.0
413.147217 216.0
413.184113 196.0
414.1474 136.0
414.467072 156.0
415.227325 176.0
415.340546 140.0
416.194916 456.0
417.210663 388.0
418.051208 236.0
418.225311 244.0
418.323792 192.0
418.546265 132.0
418.633118 156.0
419.246399 128.0
420.189545 156.0
421.336609 468.0
422.339264 140.0
423.646759 164.0
424.359558 148.0
424.589111 200.0
425.349701 156.0
426.184418 616.0
426.353699 168.0
426.978363 164.0
427.162628 332.0
427.862671 152.0
428.201447 408.0
428.562531 184.0
429.167999 176.0
430.186554 124.0
432.761414 180.0
433.225067 212.0
433.52121 144.0
434.244324 176.0
434.343079 192.0
435.644684 176.0
436.195496 112.0
436.265106 164.0
437.130035 120.0
437.23291 108.0
437.331177 128.0
437.380066 160.0
437.435059 148.0
437.589935 148.0
437.997009 288.0
438.054382 148.0
438.426849 136.0
438.486816 164.0
438.52652 124.0
438.570465 124.0
438.778259 104.0
438.893982 96.0
439.002319 144.0
439.075134 232.0
439.153931 232.0
439.298157 740.0
439.352692 134828.0
439.479156 284.0
439.491364 200.0
439.617371 168.0
439.649414 144.0
439.713623 232.0
439.789154 120.0
439.824249 156.0
439.872803 160.0
439.93924 296.0
439.969696 204.0
440.043488 196.0
440.122986 136.0
440.161377 136.0
440.22995 176.0
440.354828 32968.0
440.538696 160.0
440.69931 136.0
440.77066 112.0
440.817047 144.0
440.88031 120.0
441.120789 136.0
441.20517 112.0
441.357361 6196.0
441.689148 112.0
441.847595 160.0
442.04068 216.0
442.093109 188.0
442.163086 104.0
442.203125 156.0
442.267487 112.0
442.359711 736.0
442.424347 128.0
442.533966 204.0
442.671722 108.0
442.732605 240.0
442.790039 216.0
442.877777 100.0
442.956299 216.0
443.000671 156.0
443.035034 260.0
443.069305 124.0
443.095337 276.0
443.167206 268.0
443.218597 228.0
443.28949 308.0
443.360687 268.0
443.520233 168.0
443.635712 168.0
443.703644 196.0
443.809875 176.0
443.918304 224.0
443.972931 176.0
444.005768 164.0
444.050323 112.0
444.194733 158928.0
444.341766 348.0
444.403748 156.0
444.45752 112.0
444.581024 160.0
444.627991 272.0
444.637695 356.0
444.690125 144.0
444.71817 284.0
444.783112 112.0
444.824371 216.0
444.890442 132.0
444.948853 156.0
444.995422 264.0
445.057526 220.0
445.125214 288.0
445.196808 36752.0
445.327179 324.0
445.434692 168.0
445.523987 240.0
445.566772 140.0
445.633789 120.0
445.702942 120.0
445.899902 344.0
445.937164 128.0
445.975861 120.0
446.008636 252.0
446.083069 116.0
446.194122 8984.0
446.275757 240.0
446.314575 108.0
446.547668 160.0
446.631714 128.0
446.831787 188.0
446.915894 144.0
447.030548 192.0
447.192902 2380.0
447.261078 252.0
447.293579 328.0
447.443573 204.0
447.52005 228.0
447.671906 124.0
447.789642 208.0
447.971466 264.0
448.196014 448.0
448.285522 252.0
448.560547 172.0
448.659912 104.0
448.756073 120.0
449.082489 108.0
449.190033 180.0
449.476776 128.0
449.518402 140.0
449.842804 108.0
449.942474 120.0
450.237732 96.0
450.907562 108.0
451.2099 144.0
451.345123 304.0
451.596313 96.0
451.84198 112.0
453.251831 152.0
453.294647 140.0
453.363495 144.0
454.047394 168.0
454.24588 164.0
454.703094 140.0
456.210602 148.0
457.191101 144.0
457.294159 264.0
457.417999 148.0
458.190674 140.0
458.277344 180.0
459.012939 100.0
459.262268 172.0
459.302368 248.0
459.358551 124.0
460.153809 192.0
460.261536 132.0
461.287292 100.0
461.749847 132.0
462.200317 152.0
462.3125 140.0
463.072205 160.0
463.300415 148.0
464.315552 160.0
465.3815 264.0
466.529633 188.0
467.229126 176.0
468.228119 308.0
468.31955 116.0
469.227325 156.0
469.259247 248.0
470.216492 192.0
470.301086 180.0
471.261108 100.0
472.187836 1032.0
472.29834 256.0
473.195587 336.0
474.174957 144.0
474.245361 176.0
474.3078 252.0
474.418671 140.0
475.138275 144.0
475.308655 152.0
475.828064 180.0
476.310455 124.0
476.385498 664.0
477.291321 116.0
477.382385 400.0
478.002991 156.0
481.24527 388.0
482.244415 240.0
482.945679 148.0
484.13562 160.0
484.258209 216.0
485.221863 184.0
486.234833 732.0
487.244263 540.0
487.314362 104.0
487.925201 140.0
488.232849 144.0
488.339874 184.0
490.274719 156.0
491.310699 340.0
491.579529 152.0
492.324005 352.0
493.330231 612.0
493.42572 108.0
494.331451 152.0
494.395538 872.0
495.401703 116.0
496.225311 124.0
496.33725 156.0
496.398376 132.0
497.282623 172.0
497.5513 140.0
499.247528 296.0
500.214081 116.0
500.281342 264.0
501.213593 156.0
501.590088 168.0
502.30896 144.0
502.847382 140.0
503.168671 148.0
503.322815 140.0
503.673065 140.0
504.299255 120.0
505.344727 100.0
506.403595 336.0
507.401154 256.0
508.318359 144.0
509.099152 184.0
509.166473 188.0
509.316772 7752.0
509.434692 152.0
509.507721 164.0
509.678009 96.0
510.259491 152.0
510.320068 2416.0
510.427063 132.0
511.329529 1304.0
512.16217 124.0
512.329407 300.0
513.334106 408.0
514.335938 124.0
515.996948 96.0
516.252747 1008.0
516.329407 164.0
516.650391 140.0
517.255066 456.0
518.255493 136.0
519.307495 484.0
520.293274 160.0
520.645691 152.0
520.823669 148.0
521.111572 132.0
521.309204 132.0
521.356262 120.0
521.561096 96.0
522.320129 136.0
523.017639 120.0
523.52417 156.0
524.259338 144.0
524.404541 16376.0
524.952209 96.0
525.25946 120.0
525.299194 256.0
525.405396 5224.0
526.298828 116.0
526.406433 1436.0
526.589172 108.0
527.109375 100.0
527.32843 14216.0
527.666626 176.0
527.786255 120.0
528.000305 252.0
528.089905 156.0
528.329102 6568.0
528.505737 152.0
528.947571 176.0
529.217773 120.0
529.328308 1692.0
529.44812 112.0
529.646301 168.0
529.803528 144.0
530.330566 320.0
530.384705 332.0
530.540833 224.0
531.173706 148.0
531.353333 272.0
531.41925 124.0
531.516052 140.0
532.361877 120.0
532.658752 144.0
533.389038 168.0
534.368103 180.0
535.191711 140.0
535.389221 400.0
535.460938 140.0
535.750671 188.0
535.988281 140.0
536.308167 144.0
536.358887 128.0
536.866333 152.0
537.312866 16012.0
537.684631 164.0
537.829407 124.0
538.03418 112.0
538.316223 4996.0
538.456543 136.0
538.864258 140.0
538.966919 120.0
539.129028 108.0
539.311646 1512.0
539.462097 128.0
540.060242 112.0
540.325439 368.0
540.988647 116.0
541.027588 208.0
541.270447 216.0
541.319336 256.0
541.501892 148.0
541.610291 128.0
542.254639 104.0
542.343506 112.0
543.109558 140.0
543.298401 168.0
544.296448 108.0
544.338928 152.0
544.379028 100.0
545.870667 200.0
546.365417 156.0
547.327637 252.0
547.360229 160.0
548.965637 112.0
549.64801 212.0
550.954773 140.0
552.33728 276.0
552.408203 132.0
552.450134 140.0
552.55542 200.0
552.833679 112.0
552.962891 172.0
553.267883 296.0
553.387451 576.0
554.384277 268.0
554.492798 172.0
554.612671 144.0
555.076599 164.0
555.226624 172.0
555.324158 31928.0
555.491699 124.0
556.040833 104.0
556.232544 140.0
556.325256 9824.0
556.73468 168.0
556.787537 136.0
557.323547 4688.0
557.42865 344.0
557.532471 140.0
557.681091 148.0
558.054749 160.0
558.139343 108.0
558.329224 1188.0
558.698792 108.0
559.088074 100.0
559.249146 196.0
559.314514 240.0
559.372375 140.0
559.421692 144.0
559.56366 236.0
560.053955 100.0
560.314331 124.0
560.379578 156.0
560.795654 144.0
561.299377 108.0
561.612488 104.0
561.841492 100.0
561.953552 124.0
562.012756 180.0
562.102844 152.0
565.185791 152.0
565.355957 136.0
566.298645 300.0
567.312927 120.0
568.283264 200.0
568.381531 168.0
568.987793 96.0
569.336243 96.0
569.646118 104.0
570.124939 152.0
570.246582 112.0
570.291199 160.0
570.431091 184.0
570.678894 116.0
570.947021 144.0
571.1203 108.0
571.206543 268.0
571.292053 52024.0
571.451172 196.0
571.498535 264.0
571.591125 124.0
571.72467 212.0
571.766052 284.0
571.960388 220.0
572.109924 260.0
572.219727 316.0
572.295837 20068.0
572.520508 188.0
572.676147 108.0
572.739136 116.0
572.885864 148.0
572.914429 200.0
572.973999 148.0
573.022339 100.0
573.1427 104.0
573.2948 6172.0
573.424255 156.0
573.502136 100.0
573.720581 100.0
574.2099 184.0
574.293884 1728.0
574.916809 176.0
575.222351 120.0
575.290283 272.0
575.527832 128.0
575.56427 164.0
575.733459 132.0
575.817932 180.0
575.976929 212.0
576.066895 124.0
576.148254 96.0
576.348999 292.0
576.382202 452.0
576.568176 144.0
576.87915 108.0
576.985107 104.0
577.212646 152.0
577.357788 132.0
577.616577 136.0
578.371094 1408.0
578.518311 104.0
579.381226 856.0
580.372192 244.0
581.152344 96.0
581.364746 104.0
581.592468 168.0
581.739807 124.0
583.280823 124.0
583.414124 116.0
583.825623 172.0
584.310974 344.0
584.397827 164.0
585.311951 148.0
585.937195 112.0
586.083801 104.0
586.356934 172.0
586.392822 200.0
586.971497 116.0
587.075745 116.0
587.411194 204.0
587.581177 164.0
588.546082 148.0
589.756653 128.0
590.59436 204.0
590.746826 120.0
591.325073 164.0
594.313354 140.0
594.374023 200.0
595.273071 116.0
595.367737 124.0
595.421387 128.0
595.985291 176.0
596.167542 152.0
596.386719 2688.0
597.387756 832.0
598.159851 116.0
598.391174 576.0
599.285522 188.0
599.375671 212.0
600.423096 140.0
600.739563 132.0
601.122925 160.0
601.408447 100.0
602.403503 100.0
603.36853 136.0
604.337646 96.0
605.254089 108.0
606.38324 104.0
607.049377 140.0
607.093506 176.0
608.395935 192.0
608.891174 100.0
609.374207 112.0
611.768738 116.0
612.371338 380.0
612.420837 228.0
613.322083 124.0
613.38385 200.0
613.463074 152.0
614.357666 100.0
617.633972 140.0
617.904785 120.0
618.405823 296.0
619.383301 144.0
620.361755 96.0
620.434143 172.0
621.388733 212.0
622.24176 268.0
622.364502 11592.0
622.720459 220.0
622.882019 180.0
623.136658 108.0
623.368164 4680.0
623.510925 196.0
623.939209 148.0
624.148315 96.0
624.369263 1932.0
624.763306 120.0
625.359253 376.0
626.289429 168.0
626.383667 100.0
627.171021 100.0
627.357971 164.0
628.340942 108.0
631.130859 144.0
631.820801 160.0
632.756287 148.0
634.369385 128.0
635.175781 144.0
635.722412 116.0
636.152893 100.0
636.247253 100.0
637.054504 96.0
638.911743 160.0
638.96344 100.0
639.343262 164.0
639.478699 156.0
639.769714 156.0
639.828613 120.0
639.887329 372.0
640.035645 168.0
640.104126 176.0
640.187012 148.0
640.23999 148.0
640.375183 19396.0
640.522461 132.0
640.614075 136.0
640.780579 144.0
640.858093 96.0
641.064331 104.0
641.377258 9496.0
641.617065 100.0
642.111755 132.0
642.376343 2872.0
643.385071 512.0
643.491089 152.0
643.632385 100.0
644.307129 124.0
644.38446 420.0
644.47229 104.0
644.835205 128.0
644.986023 108.0
645.322876 96.0
645.760071 104.0
647.917542 144.0
648.755493 172.0
649.475281 140.0
649.979553 108.0
652.371826 1120.0
653.367981 572.0
654.056641 168.0
654.343628 204.0
654.3797 200.0
654.452393 104.0
655.156128 176.0
655.390381 140.0
655.504333 164.0
658.395142 104.0
659.398987 176.0
663.305298 128.0
664.221069 156.0
664.397339 128.0
664.434204 196.0
664.703125 164.0
665.432312 164.0
666.437988 140.0
666.561218 156.0
667.157166 200.0
668.359131 376.0
669.348083 236.0
669.828735 128.0
670.384033 1044.0
670.628052 168.0
671.394409 612.0
671.46991 208.0
672.061218 96.0
672.371277 212.0
672.406982 216.0
675.208069 148.0
675.419312 116.0
676.887024 108.0
679.38501 140.0
680.405334 136.0
681.390625 100.0
681.970215 132.0
682.418579 300.0
683.40625 112.0
684.432312 116.0
685.461975 176.0
686.108032 236.0
686.343811 188.0
686.389465 164.0
687.376038 280.0
688.547913 148.0
689.335815 156.0
689.630554 96.0
691.463562 116.0
691.747681 156.0
691.993652 164.0
692.365295 204.0
693.427612 328.0
693.57666 152.0
693.990356 116.0
694.453247 160.0
694.552246 148.0
695.410095 140.0
696.403503 128.0
696.505371 104.0
698.135681 184.0
698.395386 112.0
699.075195 120.0
699.669495 116.0
700.171509 188.0
701.208984 144.0
701.83075 152.0
702.537354 140.0
703.418335 96.0
704.447449 144.0
706.062317 116.0
706.439575 196.0
707.690063 136.0
708.598633 152.0
708.797607 112.0
709.418091 268.0
709.445129 108.0
709.983459 148.0
710.151245 164.0
710.440186 108.0
710.639038 160.0
711.063416 148.0
711.430542 320.0
712.246948 160.0
712.321289 168.0
712.44458 132.0
712.677124 144.0
713.349121 112.0
713.49707 184.0
714.531921 164.0
715.766235 308.0
716.820496 208.0
718.494019 144.0
719.075439 148.0
719.278198 152.0
719.464905 160.0
720.86377 148.0
721.114807 140.0
721.859985 136.0
722.183533 116.0
722.308716 128.0
723.472778 156.0
726.408264 164.0
730.602112 140.0
732.408813 104.0
734.549133 148.0
735.479431 400.0
736.690002 128.0
736.804749 148.0
737.413635 368.0
737.441956 612.0
737.582642 284.0
738.430481 548.0
738.636597 140.0
738.687622 128.0
739.433472 200.0
740.452271 116.0
741.16571 140.0
741.673096 168.0
742.480042 116.0
742.992371 156.0
744.029419 160.0
745.212952 112.0
745.940674 124.0
745.99762 212.0
746.330078 140.0
747.305725 128.0
747.389343 188.0
748.727966 176.0
748.883911 124.0
748.978394 152.0
749.07019 172.0
749.462524 2472.0
749.566528 100.0
749.634155 136.0
750.032959 144.0
750.474243 984.0
750.596375 180.0
751.058655 180.0
751.180969 136.0
751.467224 628.0
751.546814 180.0
752.471436 348.0
752.522217 236.0
752.980164 140.0
753.481506 136.0
753.975647 128.0
754.454468 96.0
754.517578 164.0
754.60791 228.0
755.43573 448.0
755.575562 144.0
756.374207 184.0
756.438599 148.0
756.516479 140.0
757.346497 112.0
757.414612 132.0
757.523682 172.0
759.450256 104.0
759.907532 152.0
761.449402 200.0
761.504272 188.0
761.611328 112.0
761.927856 164.0
763.486328 188.0
763.705139 112.0
763.927124 96.0
764.174805 168.0
764.457886 128.0
764.576355 168.0
764.871521 160.0
765.420593 104.0
765.806763 192.0
766.343811 160.0
766.39624 160.0
766.536011 176.0
767.473206 10060.0
767.646729 112.0
767.934937 148.0
768.038147 108.0
768.165283 236.0
768.242249 108.0
768.473694 5364.0
768.75061 116.0
769.034729 184.0
769.38385 104.0
769.47644 2552.0
769.89209 136.0
770.469666 684.0
770.49115 480.0
770.644836 168.0
771.397949 128.0
771.507324 136.0
771.739502 120.0
772.289612 128.0
772.46405 140.0
773.645203 148.0
773.981812 128.0
774.502136 212.0
774.743042 232.0
775.27478 160.0
775.433167 100.0
777.29248 160.0
777.558777 224.0
778.019287 152.0
778.244629 164.0
778.568726 140.0
779.474548 720.0
779.790527 140.0
779.932678 128.0
780.474304 584.0
781.068848 168.0
781.477905 144.0
781.788025 100.0
781.954712 168.0
782.512634 224.0
783.366882 148.0
783.528381 140.0
784.818604 120.0
785.481079 132.0
785.587402 100.0
785.813293 144.0
786.326477 140.0
786.468445 188.0
786.58313 180.0
788.215271 100.0
789.97113 140.0
790.582886 112.0
790.753723 136.0
790.879822 148.0
792.172791 180.0
792.480774 216.0
793.941162 148.0
794.851624 200.0
795.539551 516.0
795.662476 160.0
796.456604 164.0
796.541748 324.0
797.482727 520.0
797.683472 124.0
797.922729 152.0
798.437988 164.0
798.482117 264.0
798.749084 140.0
799.671448 144.0
800.59436 192.0
801.984985 100.0
802.528442 196.0
803.493835 128.0
803.738586 164.0
804.206787 152.0
805.188782 144.0
806.030212 156.0
807.275452 116.0
808.025269 152.0
808.319397 156.0
809.988892 140.0
810.238037 152.0
810.594849 148.0
810.890564 100.0
811.85022 132.0
813.289368 156.0
813.716492 192.0
816.565918 136.0
817.480225 228.0
818.043457 236.0
818.439209 168.0
818.544617 188.0
818.909729 140.0
819.388245 148.0
819.962158 140.0
820.267395 132.0
820.374634 152.0
820.518494 284.0
820.716003 152.0
820.774841 188.0
821.536804 220.0
821.592896 168.0
822.17981 160.0
822.549561 280.0
822.835938 164.0
823.184082 152.0
823.566589 176.0
824.528931 128.0
825.223145 172.0
827.433655 116.0
827.505127 180.0
827.610229 140.0
827.948486 148.0
828.086121 104.0
829.798157 124.0
831.329346 96.0
832.239136 156.0
834.39801 136.0
834.524292 104.0
836.196228 148.0
836.534058 100.0
836.934814 148.0
836.986633 220.0
838.06842 104.0
838.262573 128.0
838.55365 668.0
838.69696 140.0
838.874329 148.0
839.455505 136.0
839.537537 732.0
839.611328 216.0
840.529236 288.0
841.312866 108.0
841.523499 96.0
841.590027 132.0
841.793823 140.0
841.870422 148.0
842.445801 108.0
843.214417 144.0
843.979492 188.0
844.855957 164.0
845.291687 104.0
845.711975 280.0
845.912354 140.0
846.534119 124.0
847.631042 96.0
848.024231 132.0
848.371277 148.0
848.738831 96.0
848.802002 136.0
849.19281 152.0
849.323364 108.0
849.497375 120.0
849.598633 192.0
850.138062 140.0
850.877563 156.0
851.012817 132.0
851.223145 180.0
851.414734 172.0
851.586121 168.0
851.648315 140.0
852.359558 128.0
852.490906 136.0
852.930542 152.0
854.139282 100.0
854.55481 312.0
854.892029 144.0
855.052612 156.0
855.093323 148.0
856.36438 100.0
856.527893 124.0
856.726746 120.0
857.841492 160.0
858.234985 132.0
859.217224 156.0
859.37262 188.0
860.063293 100.0
860.935425 184.0
860.988525 160.0
861.493103 304.0
861.554565 176.0
861.931152 140.0
864.01825 112.0
864.177246 148.0
864.408447 140.0
864.525818 4992.0
864.698608 116.0
865.523926 3628.0
865.7229 156.0
865.915894 132.0
866.415283 148.0
866.534607 1316.0
866.733215 164.0
866.996277 96.0
867.527161 204.0
867.739075 132.0
867.889038 132.0
868.216614 104.0
868.30658 128.0
868.376099 168.0
868.441406 224.0
868.501709 116.0
868.679443 124.0
868.752625 100.0
868.895813 108.0
869.383911 188.0
869.705566 104.0
869.883484 156.0
869.953491 144.0
870.051514 136.0
870.130737 120.0
870.223511 188.0
870.404602 112.0
870.456482 172.0
870.531555 148.0
870.70752 100.0
870.784973 176.0
870.928345 192.0
870.998352 132.0
871.197449 132.0
871.30896 200.0
871.499268 220.0
871.711548 124.0
871.789246 192.0
871.849182 96.0
871.915527 128.0
872.320923 212.0
872.533142 124.0
872.7771 208.0
872.838867 168.0
872.907715 96.0
872.96991 200.0
873.02771 132.0
873.212219 204.0
873.269043 108.0
873.438538 172.0
873.497437 120.0
873.610168 116.0
873.665283 260.0
873.877991 200.0
873.939026 188.0
874.095276 144.0
874.301758 148.0
874.571655 196.0
874.639465 152.0
874.685608 168.0
874.779785 224.0
874.951355 160.0
875.058716 216.0
875.226746 196.0
875.286377 156.0
875.416626 176.0
875.481079 240.0
875.656555 220.0
875.758179 336.0
875.838562 172.0
875.974731 192.0
876.066467 140.0
876.144836 276.0
876.223206 196.0
876.314026 308.0
876.381653 152.0
876.423767 420.0
876.604675 252.0
876.698792 104.0
876.85675 288.0
876.9422 180.0
876.98407 224.0
877.005249 152.0
877.064087 136.0
877.225464 168.0
877.330933 320.0
877.415283 508.0
877.484619 100.0
877.559021 124.0
877.624207 272.0
877.759766 320.0
877.821716 164.0
877.993164 252.0
878.184509 132.0
878.230225 392.0
878.25647 168.0
878.266968 344.0
878.371948 180.0
878.420471 160.0
878.554077 220.0
878.651367 140.0
878.730713 252.0
878.784119 328.0
878.873108 188.0
878.992188 208.0
879.056946 348.0
879.110718 220.0
879.199951 256.0
879.279053 336.0
879.358093 296.0
879.424316 220.0
879.461853 476.0
879.562378 736.0
879.672607 196.0
879.764221 384.0
879.864929 524.0
879.95282 112.0
880.016602 272.0
880.143494 292.0
880.194641 276.0
880.285889 328.0
880.542664 672.0
880.711914 316.0
880.756531 264.0
880.832581 296.0
880.903198 220.0
880.966309 284.0
880.993591 180.0
881.004639 544.0
881.063171 248.0
881.127747 428.0
881.211853 372.0
881.31189 396.0
881.412537 392.0
881.472961 568.0
881.527954 436.0
881.627686 400.0
881.677612 532.0
881.739319 660.0
881.82312 608.0
881.923828 952.0
881.969299 796.0
882.047241 608.0
882.12439 668.0
882.223816 920.0
882.317322 1288.0
882.429565 1184.0
882.542175 214992.0
882.744507 380.0
882.939514 224.0
883.021362 404.0
883.093994 1828.0
883.157654 760.0
883.220276 368.0
883.295288 608.0
883.346863 420.0
883.432007 952.0
883.545532 193372.0
883.719116 416.0
883.867065 116.0
884.087891 1356.0
884.337402 220.0
884.434753 932.0
884.544006 124436.0
884.751404 156.0
885.054932 404.0
885.065308 664.0
885.270264 188.0
885.321106 228.0
885.438232 344.0
885.542969 33988.0
885.832764 136.0
885.935791 340.0
886.002686 392.0
886.110413 200.0
886.2547 192.0
886.30835 216.0
886.395447 328.0
886.42218 216.0
886.443604 232.0
886.53894 6348.0
886.725952 160.0
886.786621 176.0
886.945374 404.0
887.091248 156.0
887.223755 272.0
887.297424 180.0
887.350098 432.0
887.392273 292.0
887.466003 332.0
887.531372 656.0
887.588318 356.0
887.737244 224.0
887.80658 584.0
887.943054 452.0
887.993103 456.0
888.12384 268.0
888.196716 168.0
888.290039 344.0
888.336365 380.0
888.408569 288.0
888.483704 348.0
888.552795 128.0
888.597656 360.0
888.665527 164.0
888.828735 236.0
888.909058 200.0
888.987915 260.0
889.113953 156.0
889.171448 220.0
889.240112 172.0
889.352295 204.0
889.713623 136.0
889.771606 168.0
889.811401 236.0
889.867615 160.0
890.031372 176.0
890.16272 168.0
890.29541 248.0
890.478394 160.0
890.636108 156.0
890.763306 136.0
890.904358 184.0
891.060791 112.0
891.113525 112.0
891.237793 112.0
892.213623 152.0
892.58313 104.0
892.991272 116.0
893.062195 116.0
893.447937 144.0
894.721069 120.0
895.34436 108.0
896.956848 160.0
897.037903 144.0
897.22345 136.0
899.741699 152.0
900.273376 100.0
901.170654 176.0
901.507568 128.0
902.97583 96.0
904.242676 100.0
904.947327 112.0
905.355042 144.0
905.444092 104.0
906.249207 116.0
906.340271 116.0
907.030579 108.0
907.244507 116.0
908.232727 172.0
908.785156 104.0
909.498901 120.0
910.432983 96.0
911.24707 96.0
911.671509 108.0
912.394531 128.0
912.82074 108.0
914.756042 120.0
920.896484 104.0
922.102966 156.0
936.50592 192.0
938.901306 196.0
956.542419 104.0
961.012634 188.0
964.350647 96.0
1002.237 116.0
1019.44574 128.0
1022.455505 188.0
1029.190796 140.0
1039.248535 140.0
1044.379395 192.0
1047.937988 192.0
1064.509766 164.0
1069.715454 140.0
1073.554077 100.0
1078.727051 140.0
1081.525513 192.0
1086.293945 144.0
1093.564941 148.0
1096.033447 148.0
1099.085083 156.0
1102.74646 112.0
1107.122192 104.0
1119.591309 104.0
1119.760132 140.0
1123.71228 96.0
1130.233032 124.0
1136.378418 140.0
1138.911133 100.0
1151.039185 196.0
1151.133667 164.0
1151.812866 188.0
1152.134888 96.0
1153.470459 100.0
1153.960083 104.0
1154.038086 204.0
1159.424194 164.0
1160.515137 140.0
1161.799316 120.0
1171.87085 108.0
1183.69751 136.0
1186.060547 108.0
1188.078003 120.0
1190.855347 96.0
1191.952881 96.0
1202.224487 108.0
1207.560913 124.0
1209.466431 144.0
1211.866943 100.0
1230.256714 140.0
1235.019897 100.0
1238.612671 96.0
1241.552368 144.0
1244.964966 108.0
1248.607544 176.0
1248.978149 176.0
1250.244385 96.0
1251.632324 164.0
1251.716797 144.0
1252.663208 148.0
1256.084595 176.0
1260.873535 100.0
1262.572998 156.0
1266.276611 108.0
1274.526978 304.0
1276.483154 172.0
1280.639404 168.0
1281.24292 184.0
1287.003784 120.0
1294.792603 140.0
1300.669556 140.0
1313.335693 160.0
1325.012939 176.0
1336.926514 148.0
1339.441772 144.0
1342.596436 176.0
1345.236694 180.0
1346.92627 100.0
1349.596436 160.0
1355.724365 144.0
1357.574829 156.0
1362.865234 272.0
1365.422363 156.0
1366.209106 168.0
1366.790161 192.0
1368.228271 100.0
1369.024414 124.0
1376.043945 152.0
1379.231445 152.0
1380.312988 164.0
1384.793091 96.0
1385.129028 164.0
1392.884888 168.0
1397.068359 164.0
1399.620239 168.0
1400.739746 128.0
1403.187744 160.0
1407.16272 200.0
1412.331909 168.0
1420.605835 96.0
1427.498047 188.0
1432.809814 160.0
1441.445557 152.0
1445.671021 160.0
1447.365967 228.0
1448.362427 172.0
1460.862549 188.0
1461.531738 144.0
1462.863037 156.0
1482.077515 208.0
1487.951294 168.0
1500.509888 164.0
1500.980103 204.0
1504.450562 160.0
1513.454102 156.0
1519.334351 200.0
1526.685181 148.0
1529.027832 148.0
1534.026367 180.0
1540.102539 172.0
1545.525879 144.0
1547.700928 196.0
1548.068848 152.0
1555.859497 184.0
1556.283325 192.0
1571.47583 180.0
1576.701294 168.0
1576.864746 168.0
1586.575684 140.0
1589.295044 164.0
1594.15271 160.0
1597.140991 164.0
1598.484985 156.0
1604.894531 204.0
1607.908691 212.0
1613.458008 208.0
1618.536621 172.0
1622.981812 164.0
1629.858032 148.0
1631.821655 160.0
1637.561768 148.0
1640.46936 276.0
1643.331299 188.0
1649.830078 144.0
1650.12915 268.0
1652.336182 184.0
1661.900879 188.0
1679.718628 212.0
1682.37793 148.0
1683.026489 116.0
1684.181763 248.0
1691.317139 148.0
1695.13208 188.0
1700.050415 164.0
1701.018555 232.0
1714.469116 168.0
1724.189575 156.0
1725.291382 104.0
1727.683228 172.0
1731.120972 152.0
1736.940918 180.0
1737.924316 188.0
1741.457886 128.0
1741.612305 168.0
1743.572266 244.0
1745.998901 144.0
1749.409058 144.0
1750.424438 212.0
1756.914551 164.0
1757.682495 112.0
1759.400513 168.0
1761.654419 160.0
1767.998169 208.0
1774.428589 164.0
1776.222534 160.0
1776.297974 148.0
1776.876587 200.0
1779.443726 200.0
1788.502441 184.0
1792.745483 152.0
1793.630127 184.0
1800.68103 176.0
1802.310791 164.0
1802.800659 180.0
1803.630981 172.0
1806.071289 156.0
1816.299438 208.0
1818.34021 140.0
1822.842529 148.0
1823.360718 164.0
1824.9021 136.0
1829.35498 188.0
1833.731445 148.0
1836.094604 120.0
1836.578003 152.0
1836.751953 100.0
1838.428711 220.0
1842.034058 128.0
1849.141357 264.0
1850.484863 140.0
1853.575684 176.0
1858.615601 144.0
1860.005371 176.0
1860.528809 164.0
1864.309448 144.0
1866.145386 140.0
1869.395508 184.0
1873.587036 176.0
1876.266235 268.0
1877.395386 288.0
1888.402466 196.0
1889.120117 204.0
1893.98291 160.0
1894.084717 96.0
1897.872559 268.0
1898.953369 180.0
1900.733887 140.0
1902.278076 280.0
1903.701416 148.0
1918.120972 176.0
1926.228882 112.0
1930.60144 196.0
1932.577515 216.0
1935.377319 328.0
1949.397827 152.0
1949.670166 160.0
1953.809937 160.0
1954.71582 140.0
1958.420776 148.0
1966.476318 144.0
1966.935059 176.0
1971.534912 176.0
1971.994263 180.0
1973.788208 160.0
1975.255737 160.0
1975.456055 156.0
1982.11438 168.0
1986.057861 140.0
1995.630127 196.0
1998.854858 176.0
2001.33728 192.0
2004.899048 140.0
END IONS
