BEGIN IONS
PEPMASS=702.291
CHARGE=1
MSLEVEL=2
SOURCE_INSTRUMENT=LC-ESI-qTof
FILENAME=3b_5a_15b-O-triacetoxy-7b-O-benzoyloxy-14b-O_nicotynoyloxymyrsinol.mgf
SEQ=*..*
IONMODE=Positive
ORGANISM=GNPS-LIBRARY
NAME="3_,5_,15_-O-triacetoxy-7_-O-benzoyloxy-14_-O nicotynoyloxymyrsinol " M+H
PI=LITAUDON/TOUBOUL
DATACOLLECTOR=Esposito
SMILES=C[C@H]1C[C@@]2(OC(C)=O)[C@]([C@@H](OC(C)=O)[C@@]([C@H](OC(C3=CC=CC=C3)=O)C=C[C@@H]4C(C)=C)(CO5)[C@]4([H])[C@]5(C)[C@@H]2OC(C6=CN=CC=C6)=O)([H])[C@H]1OC(C)=O
INCHI=
INCHIAUX=
PUBMED=N/A
SUBMITUSER=lfnothias
TAGS=
LIBRARYQUALITY=1
SPECTRUMID=CCMSLIB00000840357
SCANS=1
50.015659 141.0
51.023453 706.333923
52.017532 273.157806
53.038261 209.25
54.180305 184.6875
55.018208 190.018707
55.054905 375.897797
57.070499 135.679703
59.048012 295.781708
65.037544 208.449905
69.033348 658.170593
69.070007 1140.322021
71.048561 694.763977
77.03894 3472.093018
78.033577 5667.111816
78.084778 116.144096
79.040909 209.730499
79.054405 735.905884
80.049492 2025.406982
81.070488 1403.260986
83.049614 284.009186
85.02829 140.572296
85.064804 152.158798
91.054062 1295.567993
93.070236 2952.584961
95.047279 224.627304
95.085991 837.482971
97.063164 556.16449
99.043442 125.404999
99.081184 431.049896
105.015938 128.533096
105.033569 37268.699219
105.069054 3603.666016
105.238136 152.393097
106.028885 47809.71875
106.354645 140.889099
106.479126 157.013199
106.514526 143.760605
107.031914 544.494873
107.048531 979.285706
107.085197 741.41217
108.044647 934.334778
109.050362 343.560089
109.064049 2029.574951
111.042061 147.742905
111.080544 469.352203
115.053406 309.382996
116.194809 125.160202
117.069283 294.126495
119.085739 1832.910034
120.056122 257.203186
120.087234 161.504303
121.063919 1532.484009
121.097473 189.565994
123.043968 158.050003
123.080132 556.172302
124.039558 115543.898438
124.371872 120.6492
124.56971 148.1035
125.041626 1263.939941
125.057037 588.004395
127.074486 435.638
128.060623 535.272888
129.069199 703.55957
131.085922 3724.899902
133.065735 847.669495
133.100571 1932.738037
135.041245 152.857101
135.079895 3224.093018
136.038422 206.880005
137.057678 169.197693
139.076218 142.798904
141.068634 1088.317993
142.077576 918.486572
143.085007 5247.311035
144.092026 144.347198
145.064774 876.803772
145.101151 3295.358887
146.074265 289.395996
146.103195 139.201599
147.080475 1912.312012
147.115204 300.740814
148.038223 301.355713
148.073959 135.7901
149.059677 142.347
149.096298 469.015808
150.055237 192.611404
151.076401 349.946808
153.089691 517.625916
155.085739 1913.407959
156.091492 139.962997
157.064667 413.184296
157.100861 2561.835938
158.103577 120.9552
159.079987 3459.513916
159.115356 1248.144043
160.083878 363.718994
161.096466 2811.39502
163.075058 1045.85498
163.108261 151.620697
165.071945 594.218811
166.049225 583.830505
166.078476 595.740601
167.084656 1711.516968
169.100479 2935.851074
170.106354 238.016693
171.080276 731.098572
171.117477 862.450073
172.074265 116.349197
173.095383 6336.237793
174.09729 272.693298
175.072311 143.554199
175.111435 28740.429688
175.341293 150.105698
175.528946 144.3871
176.115082 875.384827
177.0896 278.9534
177.127441 179.674103
178.077881 357.019897
179.085175 3254.479004
180.065292 1476.899048
180.091766 1565.761963
181.1008 4565.507812
182.107407 259.833313
183.079437 492.247803
183.116394 2520.419922
184.117294 126.490402
185.075119 153.064301
185.095306 5634.594238
186.104141 167.8358
187.112228 1642.963989
188.118759 139.720001
189.092392 227.0504
191.086243 416.78949
191.104034 401.962006
192.091263 525.372986
193.101105 7907.451172
194.108658 2016.462036
195.08017 197.977402
195.11676 7694.083984
196.084976 145.792297
196.122665 237.281601
197.096298 1735.677979
197.131638 2782.542969
198.134186 155.301895
199.110962 1092.317993
199.146347 164.889694
201.089844 760.808105
201.125336 134.002899
202.076431 264.019592
203.106888 1939.259033
204.09552 579.125488
205.102112 3182.678955
206.108673 2029.197998
206.297958 151.835007
207.079727 316.887604
207.116272 9821.933594
207.196152 126.166
208.087875 303.668091
208.122879 736.548584
209.095322 1295.359985
209.132065 6287.36377
210.100357 362.501495
210.135544 243.686005
211.111832 1960.041016
211.147675 1120.394043
213.096039 152.716995
213.126892 430.039093
214.093857 120.901299
215.106308 1155.607056
216.096664 483.881012
217.10054 1458.463013
217.119324 816.730225
218.109497 627.072083
219.117188 5611.37793
220.124039 3426.650879
221.096329 1110.520996
221.132278 7044.786133
222.076782 160.837097
222.102234 530.623474
222.139877 812.12262
223.111206 2272.700928
223.147659 2599.164062
224.114212 134.888901
224.153275 368.387604
225.127411 1832.792969
225.162476 2473.792969
226.12735 172.559097
226.166855 194.284103
227.1073 138.244995
227.142334 205.581696
228.06604 1629.23999
228.101273 373.066589
229.103027 825.603882
230.107986 738.536499
231.115417 1174.703003
232.12442 4300.529785
233.092468 434.381287
233.132568 5920.733887
234.104324 678.093018
234.138763 3677.529053
235.080109 141.029404
235.111893 6905.198242
235.148132 22180.919922
235.374405 135.017899
235.410095 145.718994
236.11795 436.775696
236.15152 812.470581
237.127823 3303.13208
237.163605 8747.547852
237.613937 141.677795
238.132446 268.162415
238.168045 483.336212
239.143433 3923.064941
239.176056 1006.434021
241.120041 159.960007
241.157928 305.0784
242.124985 240.1875
243.117676 286.572296
243.136673 170.248093
244.097107 1255.64502
244.122589 2061.741943
245.129593 1267.733032
246.141098 381.406189
247.148163 32525.25
248.119141 343.595703
248.152634 1768.499023
248.642487 117.778198
249.128098 821.989075
249.163895 19601.369141
249.253067 145.369995
249.55983 116.935699
249.574417 119.285698
249.773392 119.644203
250.086639 119.068802
250.128693 577.781311
250.167206 1442.708008
251.142899 2141.798096
252.108673 216.285706
252.14917 714.225281
253.121277 569.928772
253.158554 7624.297852
254.116867 350.731812
254.164963 231.2099
255.135788 338.216888
256.127228 120.088799
257.115143 244.656906
257.15451 248.560104
258.115906 218.4142
259.148438 6833.591797
260.153992 751.390625
261.129028 267.521393
261.163757 140.140594
262.134705 1768.999023
263.144348 938.028076
264.102142 357.120087
264.150696 368.369507
265.158813 22232.039062
265.252716 267.506714
266.119476 418.1875
266.162537 1591.845947
267.138245 682.452271
267.174316 7494.242188
268.132812 179.733902
268.17868 346.984497
271.134583 137.148499
271.168365 256.062103
274.106995 168.065201
274.131805 117.875
275.141998 206.336105
276.147552 319.069489
277.098999 139.7202
277.158539 34395.949219
277.666107 127.371201
278.117432 631.149414
278.161926 2382.073975
279.132965 350.430695
279.171967 302.230713
280.139008 278.279999
281.118164 578.455688
281.152405 571.138977
283.169342 1475.607056
284.090637 330.395905
285.184082 431.480194
287.135712 145.347794
288.096832 150.481003
288.136902 177.018204
289.123505 187.463699
289.159393 181.125
290.118713 357.415588
291.123016 120.986801
291.176422 141.147507
292.132416 271.041687
293.151581 240.077606
294.113708 126.293701
294.161591 670.170105
295.135559 289.184204
295.168976 14412.209961
295.243835 168.306198
295.672607 130.816696
296.171204 742.699585
296.208649 127.1026
297.149017 155.230804
298.119293 177.597794
298.158478 222.125
299.164398 195.293701
300.135101 222.134796
301.120789 198.820007
302.117676 220.422394
303.141388 217.265793
304.122894 802.142029
306.110443 128.875
307.171539 1900.494995
308.128723 2069.264893
308.171661 477.730408
309.130981 327.006805
309.184998 334.990509
310.18985 164.496597
311.165344 173.014008
313.180023 1859.19104
314.143829 138.523499
315.138458 173.0
316.131653 483.058807
317.148804 117.0317
318.146606 200.233093
319.167633 484.903992
320.126373 142.628906
328.132874 232.031403
328.165985 335.420197
329.170868 150.001404
330.149414 604.374512
330.184967 878.366028
332.16626 165.372498
337.180603 2666.139893
338.181152 148.195206
340.169647 1107.463013
341.169434 142.2043
342.147705 450.977386
342.181122 253.487305
343.168854 944.78833
346.178619 587.858215
347.143768 154.5
348.157043 335.754395
348.190338 145.347794
354.181183 335.880402
355.16037 316.816711
355.190247 1063.694946
356.165894 332.660004
357.184845 289.011505
358.143005 297.165985
358.180115 5796.188965
359.180573 523.085876
361.179779 154.598694
367.192139 124.106598
369.184052 392.685791
370.179993 14647.209961
370.289673 155.023895
371.185272 1445.362061
372.194794 825.906128
372.609741 144.367401
376.190308 1137.860962
382.180756 3199.9729
383.184601 390.553802
387.193176 152.669998
388.192078 1871.494019
389.194397 283.653107
394.161224 214.558502
397.201996 1116.905029
399.191498 586.996216
400.190918 6176.480957
401.193237 642.112488
406.197296 164.383194
415.211182 438.031311
417.200562 209.200806
418.201721 4025.350098
419.203613 908.406677
419.257751 135.9646
429.204651 241.683807
430.201263 3067.590088
431.202759 272.088013
434.194824 213.002899
436.210663 942.379517
460.211212 3328.471924
461.211243 134.679001
478.220551 1559.271973
480.220215 211.246597
492.213776 233.085693
520.232971 3808.798096
521.233643 213.782394
522.22644 169.429794
538.23999 716.001221
540.234558 406.472687
580.255005 513.903198
582.246338 159.637207
702.290466 21453.099609
702.443787 331.049591
702.788147 139.101593
702.826599 163.005707
702.879639 150.280701
702.96936 124.086304
703.074097 157.337997
703.293213 2620.414062
END IONS
