BEGIN IONS
PEPMASS=1283.65
CHARGE=1
MSLEVEL=2
SOURCE_INSTRUMENT=LC-ESI-qToF
FILENAME=P2_C5_conc_GE5_01_2423.mzXML
SEQ=*..*
IONMODE=Positive
ORGANISM=GNPS-LIBRARY
NAME=Cycloaspeptide A_130056 2M+H
PI=Cichewicz
DATACOLLECTOR=Luzzatto
SMILES=CN1[C@@H](CC2=CC=CC=C2)C(N[C@@H](CC(C)C)C(N(C)[C@@H](CC3=CC=C(O)C=C3)C(NC4=C(C=CC=C4)C(N[C@@H](C)C1=O)=O)=O)=O)=O
INCHI=N/A
INCHIAUX=N/A
PUBMED=
SUBMITUSER=tal_lk
TAGS=
LIBRARYQUALITY=2
SPECTRUMID=CCMSLIB00000478490
SCANS=1669
117.058403 412.0
119.069183 456.0
120.043518 400.0
132.078201 324.0
134.058334 392.0
134.096451 13436.0
135.067703 1160.0
135.099152 1604.0
150.054153 300.0
150.091614 58156.0
151.093658 6280.0
152.095642 460.0
162.090439 4688.0
163.089859 1104.0
164.812378 460.0
178.082184 344.0
190.085968 11584.0
191.082047 2436.0
192.086945 332.0
205.132507 5576.0
206.079178 1592.0
206.135498 528.0
231.185837 408.0
233.128464 75944.0
234.129852 8848.0
235.134796 1256.0
247.17952 3676.0
248.183441 1124.0
263.174805 552.0
266.083435 368.0
267.073334 252.0
274.142548 1716.0
275.174438 13728.0
276.177582 1940.0
277.181549 448.0
286.15213 384.0
291.167664 1828.0
292.170227 272.0
297.123199 33892.0
298.125854 7272.0
299.129181 796.0
306.218292 388.0
309.122131 1036.0
339.164886 676.0
346.212189 6924.0
347.213287 2036.0
350.145538 336.0
352.165558 41600.0
353.168793 8148.0
354.168243 1340.0
362.14798 548.0
368.159729 17308.0
369.162842 4780.0
370.166534 708.0
380.157867 1860.0
381.15451 396.0
392.193695 492.0
393.208954 508.0
394.210236 960.0
399.201843 444.0
408.259735 508.0
410.206512 2960.0
411.204803 996.0
412.207336 292.0
421.21286 2620.0
422.21698 1384.0
423.222778 488.0
424.262238 780.0
425.266541 396.0
447.23114 488.0
451.445465 272.0
452.254486 54404.0
452.959381 428.0
453.25766 16008.0
454.26062 4544.0
455.261719 636.0
465.25058 21824.0
466.25293 6268.0
467.259338 1152.0
468.269073 352.0
471.206604 400.0
481.246552 1212.0
482.238495 544.0
491.227905 324.0
498.203979 260.0
528.252808 580.0
529.244324 13436.0
530.246033 4976.0
531.250244 1652.0
532.25824 376.0
571.29126 6072.0
572.292542 2888.0
573.292297 628.0
598.347961 504.0
611.291016 616.0
614.330872 3408.0
615.336426 828.0
616.340698 412.0
624.309021 536.0
625.302856 692.0
636.913513 268.0
640.031006 272.0
640.113098 268.0
640.651978 368.0
640.722168 252.0
641.037903 348.0
641.144226 352.0
641.227539 384.0
641.743408 468.0
641.833496 252.0
641.937195 368.0
642.138245 396.0
642.330688 314856.0
642.47522 368.0
642.638367 288.0
642.699829 300.0
642.803833 656.0
642.945435 616.0
643.163818 3640.0
643.332947 194720.0
643.628845 304.0
643.663208 548.0
643.747192 412.0
643.788025 368.0
643.863708 400.0
643.935303 300.0
644.034363 552.0
644.102051 436.0
644.171631 320.0
644.211975 512.0
644.335327 29956.0
644.522827 396.0
644.616455 312.0
644.794373 344.0
644.917114 352.0
645.217346 284.0
645.334778 6548.0
645.592651 284.0
646.212769 444.0
646.261169 272.0
646.333984 1056.0
646.520996 528.0
646.728333 408.0
646.809509 604.0
646.867126 628.0
646.914001 392.0
647.052979 284.0
647.093323 256.0
647.317566 448.0
647.773804 288.0
648.22229 292.0
668.650146 268.0
END IONS
