BEGIN IONS
PEPMASS=825.0
CHARGE=1
MSLEVEL=2
SOURCE_INSTRUMENT=LC-ESI-qTof
FILENAME=4551_825.mzXML
SEQ=*..*
IONMODE=Positive
ORGANISM=GNPS-LIBRARY
NAME=Arylomycin A2 M+H
PI=Dorrestein
DATACOLLECTOR=Peng
SMILES=CC1C(NC(C(O)=O)CC2=CC(C3=C(O)C=CC(C(N(C(CNC(C(NC(C(N(C(CCCCCCCCC(C)C)=O)C)CO)=O)C)=O)=O)C)C(N1)=O)=C3)=C(O)C=C2)=O
INCHI=CC1C(NC(C(O)=O)CC2=CC(C3=C(O)C=CC(C(N(C(CNC(C(NC(C(N(C(CCCCCCCCC(C)C)=O)C)CO)=O)C)=O)=O)C)C(N1)=O)=C3)=C(O)C=C2)=O
INCHIAUX=N/A
PUBMED=ChemSpider ID: 8163611
SUBMITUSER=y6peng
TAGS=
LIBRARYQUALITY=2
SPECTRUMID=CCMSLIB00000075067
SCANS=1
236.150436 0.1897
244.184586 1.149437
247.028534 0.213752
249.889771 0.980218
252.035461 0.332532
256.095123 2.564108
266.087097 7.251352
267.05368 0.351032
280.311768 0.197287
281.375275 1.197366
282.270081 3.476373
283.011597 1.628303
284.265289 46.200752
285.953125 0.294641
291.392883 0.685345
292.253418 1.039021
294.151245 0.411537
295.029388 1.682149
298.364929 1.537031
302.094025 0.828846
305.130615 0.742128
307.356201 0.348962
309.155273 4.155873
310.492188 5.153698
311.258392 6.835384
312.116943 0.694014
314.375122 1.175131
315.278534 0.508411
318.627258 0.268686
321.060638 0.625128
326.812134 3.409995
328.222321 1.220101
337.309082 0.178737
338.151978 0.3801
339.299408 1.869935
339.998016 0.80101
341.730743 0.343854
343.169342 0.131828
349.448242 0.370795
353.220337 0.393772
353.903076 0.557639
355.161865 15.879622
356.298767 1.121518
359.553528 0.406274
365.395813 1.856261
366.127258 1.235079
380.065216 0.219046
381.37207 0.258698
383.196777 52.109261
384.147461 1.147633
385.207855 0.539652
386.27121 1.388654
389.27478 0.294772
393.398285 0.832287
394.055359 0.654534
395.429321 0.288528
398.074341 0.32961
401.313965 0.258709
403.026184 0.502159
405.048645 0.286079
406.508087 0.285394
407.56427 0.932125
410.078308 1.511262
411.638123 1.968121
412.963928 0.2633
414.112793 98.771263
415.140594 2.393403
416.073608 1.311632
419.407593 0.946576
420.537781 1.623053
421.332245 0.349057
425.166443 10.015638
439.492676 3.321317
441.106293 1.53865
443.048157 25.600925
444.114868 1.658535
447.022583 0.712434
454.176025 0.522563
455.306244 0.392043
457.076538 1.580127
458.718781 4.082833
464.328644 0.302168
466.299164 0.448324
468.454651 0.565651
471.16983 9.251122
480.152008 0.377122
484.565857 0.694914
485.240387 1.017764
485.95755 0.378599
488.833191 0.80636
492.428619 0.568237
494.715576 1.361909
497.207184 0.767451
498.28714 0.859053
499.371857 2.005864
500.271729 1.081503
503.075562 0.298911
505.303467 1.095375
506.47522 0.860489
507.161072 1.446845
510.481171 0.562022
512.295776 0.571221
513.304138 0.459161
513.947754 0.475529
515.2229 0.861915
516.948608 3.350516
521.495239 0.435547
524.236023 0.776822
526.218262 0.470169
527.255615 0.70508
528.076172 2.990687
528.677612 0.446745
529.281494 0.927728
532.386719 0.910884
533.971802 0.138072
535.332397 0.388895
537.253662 1.02658
538.148071 1.252321
542.105347 19.3612
543.521606 1.056912
544.349854 0.516831
546.237061 0.782839
547.471069 0.924173
551.934509 0.260834
552.631897 0.322294
554.398315 0.292288
555.267151 1.699131
556.54425 0.92457
559.331543 1.225696
560.458862 0.576343
564.757568 1.498385
567.207703 1.401981
567.917969 1.36587
568.726685 0.515701
572.781799 1.740444
573.407959 0.268066
574.492493 0.712489
575.36145 0.383509
577.24884 0.274236
582.096008 0.540132
584.009644 0.891073
587.843262 2.819435
588.715576 0.965706
589.528931 0.172449
590.340942 2.370035
591.828613 4.071512
593.306702 0.660382
595.181091 0.525375
596.17865 0.298028
597.747009 1.607107
599.021606 1.137641
600.283936 0.192145
601.070068 1.859503
607.631287 1.070525
608.309143 0.315656
610.848328 4.494389
611.479858 0.18498
612.712891 0.77617
614.37207 1.324113
615.246277 1.413678
617.432312 1.223514
618.957397 1.689631
619.905273 1.615716
620.95105 0.628784
622.39801 0.954889
623.780151 1.887267
624.887817 2.069516
626.42749 0.324302
629.247559 2.046886
630.231323 1.424366
631.230713 2.433242
633.188538 0.401716
634.199768 1.599109
635.270264 0.265738
636.464722 0.917777
639.313232 4.229554
640.456665 0.479754
641.553467 2.848027
642.418091 1.171984
643.404297 1.914055
644.47876 3.370819
645.499207 0.501024
647.178955 1.069582
648.303406 2.763711
649.300842 2.040704
650.300781 0.87009
651.161987 1.236405
653.182495 0.242017
655.421021 1.660179
657.459167 0.669561
659.367676 0.59632
660.042175 6.582027
660.662964 1.683642
661.932739 4.85005
662.559753 4.254487
663.512268 0.832077
664.85553 1.000006
666.435181 2.907261
667.516602 1.089823
669.493774 1.759137
670.176636 3.810344
670.959717 0.189066
672.163635 0.608934
674.281006 1.054104
675.190674 1.837535
676.1427 0.918129
676.99469 1.828337
677.937561 1.105066
678.538452 0.22548
679.393433 1.614788
680.569336 0.438485
681.182617 0.238416
682.179077 0.443601
683.518921 0.8365
684.373657 1.518815
685.173828 1.60428
687.625183 1.857604
688.436035 0.37659
690.302368 1.481194
692.227783 0.500729
693.12915 2.890184
693.873047 2.769718
695.131226 3.483565
697.501221 0.605209
699.454468 0.79762
702.542847 0.936073
704.010742 0.460845
705.44751 4.018985
706.345825 3.733818
707.270874 0.499929
708.339722 1.754288
709.519104 5.938764
710.644409 1.239429
711.291748 2.726693
713.334473 2.85678
714.466553 0.617057
718.404663 2.998044
719.252136 0.457767
721.624756 0.343006
723.552979 0.234267
724.698608 0.282308
725.401489 0.850275
726.623413 1.838241
728.158569 0.187356
731.775146 0.916867
732.962891 4.281315
735.302124 1.410388
736.372803 0.323966
737.668091 0.740168
738.879395 0.370327
742.180542 2.393166
743.223633 0.848932
745.677979 2.715847
747.604858 1.320731
750.354736 5.698675
752.172241 3.095624
753.251221 5.530457
753.991821 0.684906
755.761841 3.884494
757.064819 1.299886
759.466064 2.407599
761.918579 1.333783
763.681519 1.434598
764.568604 3.659389
765.643433 2.391341
767.864014 6.091557
768.739136 1.424356
770.331909 0.233625
771.483032 3.212043
773.536377 2.874359
774.645874 6.243922
775.497681 1.749367
776.180054 0.718672
776.864136 1.23467
778.32251 7.469735
779.416992 5.235575
780.130005 3.348803
780.946411 11.525492
782.050659 7.277308
783.015625 2.296327
783.686768 1.408303
784.511963 1.40238
785.515747 4.548287
786.940552 2.95706
787.915161 3.514141
789.12915 14.896935
789.96167 5.079818
791.928589 3.189758
793.111206 1.250207
794.243286 2.066065
795.155273 6.201819
796.170288 6.339088
797.357544 12.293351
798.279175 2.416963
799.588501 2.422991
802.210571 8.689787
803.349609 3.551505
804.112915 5.922804
805.682739 8.905701
806.552246 41.246696
807.35498 60.28265
808.350708 10.921039
809.468994 3.471535
810.459106 4.764269
812.139526 5.152892
813.258057 3.371098
814.165161 2.608869
815.318481 5.516417
816.452271 4.871691
817.346313 2.298248
822.335327 0.266297
824.587769 1.636055
825.274902 0.515949
826.463135 0.919831
828.033325 2.252974
834.864624 0.7807
END IONS
