BEGIN IONS
PEPMASS=1188.65
CHARGE=1
MSLEVEL=2
SOURCE_INSTRUMENT=LC-ESI-qTof
FILENAME=3881_1188.mzXML
SEQ=*..*
IONMODE=Positive
ORGANISM=GNPS-LIBRARY
NAME=Stenothricin I M+H
PI=Dorrestein
DATACOLLECTOR=Peng
SMILES=CC1OC(CN(C(C(NC(C(NC(C(NC(/C(NC(C(NC(C(NC(C1NC(C(NC(CC(CCCCCCCCC(C)CCCCCC)=O)=O)CS(O)(=O)=O)=O)=O)CO)=O)CN)=O)=C/C)=O)C(C)C)=O)CO)=O)CCCCN)=O)C)=O
INCHI=InChI=1S/C53H93N11O17S/c1-8-10-11-16-21-33(5)22-17-14-12-13-15-18-23-35(67)26-42(68)56-41(31-82(78,79)80)50(74)63-45-34(6)81-43(69)28-64(7)53(77)37(24-19-20-25-54)58-48(72)39(29-65)60-51(75)44(32(3)4)62-46(70)36(9-2)57-47(71)38(27-55)59-49(73)40(30-66)61-52(45)76/h9,32-34,37-41,44-45,65-66H,8,10-31,54-55H2,1-7H3,(H,56,68)(H,57,71)(H,58,72)(H,59,73)(H,60,75)(H,61,76)(H,62,70)(H,63,74)(H,78,79,80)/b36-9-
INCHIAUX=N/A
PUBMED=N/A
SUBMITUSER=y6peng
TAGS=
LIBRARYQUALITY=2
SPECTRUMID=CCMSLIB00000075077
SCANS=1
340.206329 0.553749
362.966949 0.705822
365.178314 0.430245
380.192505 3.024379
381.326599 0.760644
386.361176 0.24829
388.211029 1.548283
389.171875 0.500679
405.235229 0.550884
407.212891 1.524414
407.904633 0.342528
419.253998 0.704807
420.354492 3.403209
436.101196 1.254868
440.143921 0.373621
443.498596 0.936623
450.138977 0.836986
462.22937 0.352549
464.095215 0.393702
480.060852 1.567329
481.390015 2.036134
485.357666 0.36657
487.005066 0.264878
494.161255 0.196349
501.379089 0.298207
506.186157 0.731506
508.304047 2.806575
509.743591 2.421954
510.484589 1.45559
511.356171 3.470463
515.11615 2.17918
517.438843 2.21209
526.114075 1.736632
529.270386 2.408643
536.206299 1.243246
542.767639 2.290054
548.369873 0.246325
551.140869 0.700058
554.395996 0.824008
555.392883 0.4246
556.540771 0.737764
559.501953 0.698313
568.169983 1.579405
572.321411 2.508862
576.505737 0.924206
582.057495 1.155728
585.216797 1.924146
586.278687 1.060353
587.977173 1.522573
590.308838 0.305543
592.330566 1.827699
594.386719 0.504394
596.266235 1.701974
603.083374 1.763364
607.369507 0.839324
611.416504 1.1177
613.279175 0.586876
619.586426 0.653431
620.20874 3.823246
625.118958 3.39135
631.380615 1.951233
633.232056 0.471514
637.425903 0.836709
639.35614 1.361609
640.235291 0.986416
644.473389 4.257829
648.395203 0.983301
650.426147 1.495379
651.296448 0.251288
652.244751 0.39623
653.361511 0.614896
655.296021 2.159764
660.184387 1.108646
665.306885 0.527775
669.226929 2.666441
670.087646 0.995156
672.343262 1.113809
675.741394 1.71077
676.590576 0.540402
678.357056 1.203103
679.394714 2.177931
680.305054 1.753274
682.35376 0.744493
685.933228 0.433149
687.097656 0.712673
688.27301 3.292494
693.363831 1.025845
696.563477 0.992004
699.342773 0.379084
700.472046 0.371294
703.138916 0.715008
708.569824 0.697348
709.633057 3.380839
710.922974 3.557593
712.415649 1.777588
713.309082 0.690279
714.305542 6.998652
716.52594 1.256303
720.159119 0.565106
724.601929 1.842708
727.586426 3.307099
729.081482 0.409264
733.399536 0.258171
740.610229 1.242116
743.35022 0.522367
745.152466 1.313774
751.437622 1.534054
752.870605 0.917683
754.268555 0.434663
757.226318 6.599778
759.038818 1.557187
760.934326 0.77745
761.714844 0.344049
764.397095 0.841795
766.386475 1.866579
769.456787 5.70054
770.318604 1.41834
771.574646 0.870206
772.602173 2.22335
773.333862 3.555002
780.296631 0.825519
783.404297 1.354358
784.645203 2.436289
785.364746 2.337195
790.729248 5.210349
791.531433 3.15992
792.596924 0.496501
796.127991 0.634022
801.371216 1.326203
809.327515 0.68322
810.436584 3.516331
811.604126 1.831691
812.410034 2.163743
813.101196 0.704229
819.301758 6.907731
820.536499 0.793967
821.504639 1.028863
824.544189 1.74972
826.313721 0.497976
827.318115 1.459593
828.128174 1.393072
829.38501 1.031252
830.612793 4.817039
831.525635 7.68195
836.39209 1.214253
837.319702 1.960633
838.294556 1.895559
840.30957 1.703066
842.500244 1.31827
843.178345 1.554505
844.4104 2.453503
845.46167 0.779237
846.536133 0.371663
847.850342 2.728867
848.46936 4.44486
849.831177 3.673557
850.764893 2.113214
852.892944 0.998134
854.26062 28.179859
855.459229 8.773236
856.139282 9.883502
859.354614 1.774496
860.243286 2.572371
862.571655 1.586195
863.542114 1.554032
865.379272 23.962437
869.345093 0.891001
871.559082 2.653027
872.464966 16.506895
873.537109 8.577068
874.430298 2.193456
877.486938 1.4722
879.167725 2.06776
880.353271 0.379906
882.445312 2.094193
883.160767 2.702778
884.500244 11.85004
885.295044 1.862009
890.387695 17.561172
891.383301 6.382982
893.095337 0.866031
894.37854 2.306855
895.519897 0.631629
896.455322 0.894596
899.809814 0.812228
900.658447 1.225933
903.296387 4.651014
904.434326 2.021202
905.553955 2.807414
908.235962 73.743721
909.416626 5.805671
911.432007 2.2225
915.508423 0.418721
916.921631 1.470336
918.298706 5.348786
919.301758 5.587908
920.490356 17.947763
921.503296 8.010221
922.443848 10.524476
924.545776 2.505621
925.551636 0.430626
926.452881 0.537751
930.415161 9.337219
932.294189 1.126583
933.222778 1.856204
934.251831 13.171756
935.317749 13.360706
936.444458 5.654946
937.468506 1.475718
940.397949 0.769521
942.04126 0.538457
943.404053 2.036236
944.193481 0.711256
945.639893 1.406885
948.042603 2.779071
949.139038 0.25319
951.009521 4.072565
951.720093 1.845982
952.716187 1.832233
956.201904 4.352952
959.307861 1.737664
962.208862 2.461289
965.506714 3.032767
969.29895 27.519632
970.247803 8.059696
971.105347 5.261656
972.498169 8.080799
973.618286 2.773189
975.449341 4.122748
977.098389 1.971572
978.229736 2.19692
979.740356 4.279103
980.450928 1.230694
987.46814 2.7764
988.5979 5.327207
990.460938 0.792678
992.787476 3.796751
994.623169 0.842303
996.497314 3.354625
997.437988 3.590629
999.406616 2.12646
1002.656006 1.056086
1004.245361 0.632668
1005.82959 1.28685
1007.168823 3.422559
1010.432617 1.536137
1012.603638 0.458693
1016.680298 2.54566
1017.491455 2.184474
1018.367188 5.991088
1022.85022 0.828122
1023.634888 0.992712
1024.415771 3.052723
1027.685913 2.207501
1028.616089 0.416518
1036.458496 33.65329
1037.586182 4.369561
1038.38147 5.638814
1038.984009 3.163551
1040.370483 4.353882
1041.56665 0.249136
1042.498169 0.836962
1045.494751 2.308248
1046.242432 3.774508
1052.146362 5.994388
1053.104858 9.604643
1053.748535 1.062533
1054.385498 0.856573
1055.18457 1.87447
1055.899658 3.113542
1058.229004 1.225817
1059.675049 2.502769
1060.731812 1.869411
1061.813354 2.528731
1063.398682 1.890204
1069.509277 1.091355
1070.901855 32.351269
1071.767578 13.877824
1072.6698 3.326101
1075.366333 0.220077
1077.903687 3.565265
1080.247803 2.22817
1081.241089 2.13956
1082.088257 1.206951
1085.148315 1.574984
1086.474487 2.570775
1087.224487 2.85744
1088.682251 4.088596
1090.826538 5.26129
1094.544312 12.975859
1095.654541 1.407665
1097.36731 3.537322
1098.28186 10.015016
1099.178467 9.339027
1100.332275 5.713347
1102.879517 3.859678
1103.640137 13.685248
1104.50415 8.067388
1105.634399 4.767562
1107.286743 14.66493
1107.953003 2.124146
1109.751953 2.55947
1110.378052 1.006351
1112.073486 17.264435
1112.776733 15.642841
1113.745728 2.673026
1114.623901 1.477806
1116.383057 2.63251
1119.607056 5.803728
1121.571289 147.860413
1122.955566 11.755113
1123.672607 0.573513
1124.369019 0.79794
1125.750854 5.214582
1126.733276 2.519835
1127.581299 6.722159
1128.999023 4.913567
1130.2771 6.788918
1131.058838 4.081114
1132.401123 12.207203
1133.341431 3.282885
1134.625488 0.604007
1135.503052 0.436929
1136.481689 1.51945
1137.705322 0.348703
1138.799927 4.507811
1139.850708 3.633995
1140.575806 9.06669
1141.409668 3.875464
1142.645874 5.884605
1143.456787 19.194231
1144.333252 13.946978
1145.569336 42.258244
1146.507935 8.513876
1147.1427 1.199629
1150.487183 4.292437
1151.587524 9.924891
1152.600464 40.481102
1153.541382 3.087799
1155.222168 0.985068
1156.514648 3.722283
1157.311523 2.141447
1158.295654 4.070556
1159.588379 7.279955
1161.093994 58.74234
1162.109985 5.687847
1163.620239 0.607495
1164.949097 9.621629
1165.845215 8.407454
1166.535522 1.736221
1168.404785 28.489752
1169.68811 93.785507
1170.674805 104.121674
1173.945068 1.365091
1178.078857 2.791832
1179.24646 1.700634
1198.395996 2.98456
1205.544922 1.534067
1207.33728 3.419602
1225.379395 16.447027
1226.594727 3.661868
1227.343018 2.462998
1241.934326 3.064108
1243.307129 2.539338
1244.395386 1.872161
1262.331665 0.851962
1276.090698 2.836177
1282.703735 1.035655
1298.451172 1.590094
1307.221069 0.345292
1317.308472 1.047377
1323.435791 0.337288
1341.62439 1.778948
1342.973999 0.847503
1351.809937 1.473698
1353.387817 1.162634
1359.651367 0.59117
1361.336182 1.887732
1363.172607 2.635007
1371.447144 0.289112
1388.345215 53.722637
1389.369873 22.664127
1390.317017 4.262149
1404.175903 3.716265
1406.215088 5.037824
1407.359497 5.523152
1418.507568 1.642699
1425.298218 1.149299
1426.890381 0.92861
1471.540405 0.999349
1493.842163 0.542462
1513.519653 1.145864
1518.877319 0.532893
1537.315674 0.365057
1562.053711 2.533726
1640.360718 0.275803
1656.910034 0.494105
1675.040527 1.252984
1697.453247 0.220651
1709.821411 4.570743
1748.008301 0.339055
1764.903809 2.406063
1770.743164 1.842289
1838.73584 0.569527
1888.113892 0.276234
1959.39856 0.974436
1960.606934 0.946406
1973.420532 0.615819
1975.859497 1.270981
END IONS
