BEGIN IONS
PEPMASS=1964.15
CHARGE=1
MSLEVEL=2
SOURCE_INSTRUMENT=LC-ESI-qTof
FILENAME=f.amcaraballor/DorresteinLab_AMCR_2019/20190425_alamethicin/20190410_Alamethicin_MS2_mzXML/Alamethicin_1x_MS2_RB5_01_21756.mzXML;
SEQ=*..*
IONMODE=Positive
ORGANISM=GNPS-LIBRARY
NAME=Alamethicin M+H
PI=Dorrestein
DATACOLLECTOR=amcaraballor
SMILES=CC(CC(NC(CNC(C(C)(NC(C(NC(C(C)(NC(C(NC(C(NC(C(C)(NC(C(NC(C(C)(NC(C1CCCN1C(C(C)(NC(C)=O)C)=O)=O)C)=O)C)=O)C)=O)C)=O)CCC(N)=O)=O)C)=O)C(C)C)=O)C)=O)=O)C(NC(C)(C(N2CCCC2C(NC(C(NC(C)(C(NC(C)(C(NC(C(NC(C(NC(CO)CC3=CC=CC=C3)=O)CCC(N)=O)=O)CCC(O)=O)=O)C)=O)C)=O)C(C)C)=O)=O)C)=O)C
INCHI=InChI=1S/C92H150N22O25/c1-47(2)43-58(72(127)108-92(24,25)84(139)113-41-29-33-59(113)73(128)103-65(48(3)4)75(130)111-90(20,21)82(137)112-89(18,19)80(135)102-56(37-40-64(120)121)70(125)101-55(35-38-61(93)117)69(124)98-54(46-115)44-53-31-27-26-28-32-53)99-63(119)45-95-77(132)85(10,11)110-76(131)66(49(5)6)104-81(136)88(16,17)107-71(126)57(36-39-62(94)118)100-67(122)50(7)96-78(133)86(12,13)106-68(123)51(8)97-79(134)87(14,15)109-74(129)60-34-30-42-114(60)83(138)91(22,23)105-52(9)116/h26-28,31-32,47-51,54-60,65-66,115H,29-30,33-46H2,1-25H3,(H2,93,117)(H2,94,118)(H,95,132)(H,96,133)(H,97,134)(H,98,124)(H,99,119)(H,100,122)(H,101,125)(H,102,135)(H,103,128)(H,104,136)(H,105,116)(H,106,123)(H,107,126)(H,108,127)(H,109,129)(H,110,131)(H,111,130)(H,112,137)(H,120,121)
INCHIAUX=
PUBMED=
SUBMITUSER=amcaraballor
TAGS=
LIBRARYQUALITY=3
SPECTRUMID=CCMSLIB00005435775
SCANS=1578
94.897934 69.0
94.915382 69.0
94.938934 71.0
94.96389 84.0
95.032906 73.0
95.060707 82.0
95.137466 57.0
95.164009 113.0
95.202972 53.0
95.234093 98.0
95.268784 101.0
95.285744 53.0
95.326057 69.0
95.349281 79.0
95.391075 134.0
95.407684 61.0
95.424522 51.0
95.449959 74.0
95.473267 66.0
95.523743 106.0
95.54702 82.0
95.583122 84.0
95.623901 101.0
95.647583 66.0
95.670235 54.0
95.740479 54.0
95.755806 77.0
95.780983 85.0
95.815842 125.0
95.84137 119.0
95.879852 58.0
95.900917 79.0
95.915077 90.0
95.947441 77.0
96.009026 74.0
96.140244 115.0
96.160217 76.0
96.216263 51.0
96.254593 125.0
96.290077 73.0
96.304214 65.0
96.339775 49.0
96.361221 69.0
96.400452 54.0
96.436325 61.0
96.51664 52.0
96.532135 56.0
96.629013 73.0
96.739334 95.0
96.815521 53.0
96.849586 63.0
96.900749 113.0
96.920113 85.0
96.965652 50.0
97.008675 67.0
97.028793 54.0
97.173393 60.0
97.185722 85.0
97.226212 97.0
97.246468 67.0
97.286423 145.0
97.333794 75.0
97.354561 92.0
97.447578 137.0
97.539032 72.0
97.567039 69.0
97.604858 78.0
97.653473 56.0
97.710777 80.0
97.757942 109.0
97.779015 48.0
97.817207 85.0
97.836884 61.0
97.867973 84.0
97.883499 58.0
97.91671 78.0
97.982986 52.0
98.031975 79.0
98.096779 72.0
98.134148 58.0
98.157959 60.0
98.171356 73.0
98.211784 98.0
98.25425 117.0
98.279724 66.0
98.320915 77.0
98.365074 122.0
98.414871 78.0
98.432045 50.0
98.45311 134.0
98.546822 75.0
98.574478 140.0
98.606667 50.0
98.664894 94.0
98.687523 91.0
98.758713 61.0
98.781097 53.0
98.794647 59.0
98.847206 70.0
98.877029 72.0
98.917969 81.0
99.020325 48.0
99.07283 98.0
99.099678 71.0
99.130127 81.0
99.150536 53.0
99.173431 66.0
99.213425 54.0
99.254044 63.0
99.31855 67.0
99.349602 51.0
99.391434 86.0
99.474472 50.0
99.498009 98.0
99.513939 141.0
99.543526 65.0
99.5746 108.0
99.637054 114.0
99.690659 113.0
99.746452 62.0
99.771812 123.0
99.817986 80.0
99.851524 70.0
99.892738 62.0
99.918884 77.0
99.966721 51.0
99.993683 47.0
100.021011 78.0
100.0746 48.0
100.125229 76.0
100.242729 71.0
100.302101 56.0
100.335747 60.0
100.369682 51.0
100.400795 71.0
100.434776 86.0
100.466278 48.0
100.505531 50.0
100.531235 63.0
100.581306 57.0
100.627388 85.0
100.644966 54.0
100.660683 55.0
100.738731 69.0
100.785751 57.0
100.8041 61.0
100.842148 71.0
100.87233 78.0
100.899025 48.0
100.932495 53.0
100.970726 53.0
100.985344 70.0
101.094666 57.0
101.107735 53.0
101.162048 62.0
101.234451 106.0
101.279938 64.0
101.318886 58.0
101.34713 105.0
101.403671 57.0
101.432335 87.0
101.529472 87.0
101.581017 54.0
101.627251 76.0
101.674088 59.0
101.718048 69.0
101.73925 66.0
101.788742 113.0
101.815361 69.0
101.876091 52.0
101.89653 86.0
101.913925 98.0
101.983101 72.0
102.009254 53.0
102.057617 58.0
102.110954 75.0
102.13958 98.0
102.181038 107.0
102.214882 61.0
102.242226 67.0
102.272842 75.0
102.293297 89.0
102.336983 61.0
102.379219 50.0
102.39814 65.0
102.435921 80.0
102.48185 78.0
102.527855 63.0
102.564377 90.0
102.581871 108.0
102.605072 129.0
102.618774 120.0
102.674301 62.0
102.728294 122.0
102.805649 101.0
102.848618 92.0
102.873436 81.0
102.888298 77.0
102.915352 72.0
102.930183 83.0
102.99704 110.0
103.035286 63.0
103.048775 48.0
103.176689 109.0
103.233017 48.0
103.274017 111.0
103.332413 98.0
103.369507 55.0
103.393173 52.0
103.463554 91.0
103.544624 53.0
103.565208 74.0
103.617859 120.0
103.635612 56.0
103.670166 96.0
103.689308 117.0
103.706238 61.0
103.754013 56.0
103.79731 66.0
103.827438 65.0
103.879379 49.0
103.904465 54.0
103.924316 56.0
103.990891 66.0
104.108208 66.0
104.152657 101.0
104.178787 92.0
104.208771 107.0
104.245842 53.0
104.27874 74.0
104.313889 82.0
104.360596 68.0
104.377876 127.0
104.408806 59.0
104.454109 58.0
104.492638 88.0
104.568115 67.0
104.586655 74.0
104.624313 93.0
104.663254 61.0
104.702278 49.0
104.787018 66.0
104.834633 88.0
104.875771 62.0
104.940857 50.0
104.965683 62.0
105.03006 99.0
105.067566 70.0
105.164452 66.0
105.178711 105.0
105.206238 80.0
105.272247 51.0
105.296074 48.0
105.315948 68.0
105.341957 86.0
105.389091 61.0
105.443703 61.0
105.503601 178.0
105.546478 98.0
105.571075 65.0
105.620522 76.0
105.666931 73.0
105.708809 77.0
105.733421 75.0
105.758331 103.0
105.7827 74.0
105.80748 76.0
105.839958 87.0
105.867477 85.0
105.930191 56.0
105.944061 72.0
105.971603 124.0
105.989037 74.0
106.050903 73.0
106.093781 58.0
106.117935 49.0
106.140831 85.0
106.186615 48.0
106.200005 82.0
106.286545 96.0
106.343063 103.0
106.362465 76.0
106.378098 58.0
106.415184 79.0
106.441414 59.0
106.472343 68.0
106.522858 52.0
106.552177 62.0
106.578918 55.0
106.622742 93.0
106.656609 96.0
106.676216 62.0
106.702942 54.0
106.738846 53.0
106.767876 114.0
106.789299 89.0
106.884895 71.0
106.944382 91.0
106.96563 86.0
107.041939 100.0
107.098351 119.0
107.142349 73.0
107.166603 48.0
107.229416 88.0
107.24472 98.0
107.261642 83.0
107.335144 52.0
107.35466 94.0
107.383904 82.0
107.428864 78.0
107.476059 63.0
107.499977 128.0
107.550156 84.0
107.56826 102.0
107.672516 64.0
107.711777 49.0
107.745056 74.0
107.798294 107.0
107.824532 62.0
107.860031 55.0
107.885605 83.0
107.940254 102.0
108.034569 56.0
108.077667 115.0
108.119843 53.0
108.156563 54.0
108.183304 72.0
108.198418 75.0
108.224167 91.0
108.274986 112.0
108.307671 68.0
108.343307 77.0
108.35939 80.0
108.431671 101.0
108.449745 52.0
108.535934 54.0
108.567009 87.0
108.586357 84.0
108.657471 61.0
108.677223 48.0
108.712326 58.0
108.746964 86.0
108.790352 117.0
108.824486 70.0
108.860825 63.0
108.906731 74.0
108.984627 58.0
109.027687 68.0
109.044708 89.0
109.133362 70.0
109.202942 108.0
109.234573 49.0
109.28183 94.0
109.33918 56.0
109.381386 83.0
109.397263 91.0
109.43676 92.0
109.518944 97.0
109.538979 80.0
109.566078 52.0
109.587173 62.0
109.606331 51.0
109.684471 89.0
109.763397 87.0
109.794006 59.0
109.841019 64.0
109.881966 60.0
109.911522 59.0
109.982094 58.0
110.001892 111.0
110.027878 48.0
110.056908 93.0
110.100548 90.0
110.146294 84.0
110.188904 48.0
110.35569 64.0
110.375504 55.0
110.390388 90.0
110.418686 77.0
110.481773 86.0
110.588264 50.0
110.605774 98.0
110.665245 69.0
110.701225 58.0
110.751991 51.0
110.832237 59.0
110.846931 52.0
110.860573 84.0
110.892342 72.0
110.922386 60.0
110.980873 59.0
111.023911 60.0
111.193207 47.0
111.235046 48.0
111.272346 61.0
111.305046 60.0
111.365456 72.0
111.391029 81.0
111.457756 89.0
111.487411 49.0
111.518234 47.0
111.607536 103.0
111.630745 63.0
111.774704 57.0
111.794708 67.0
111.834244 48.0
112.005157 60.0
112.039055 70.0
112.062469 53.0
112.108559 50.0
112.1894 76.0
112.211357 52.0
112.378792 96.0
112.446434 60.0
112.471878 54.0
112.535721 60.0
112.554253 49.0
112.594246 58.0
112.611099 63.0
112.696335 87.0
112.777817 75.0
112.825493 53.0
112.947556 58.0
113.060799 57.0
113.16832 68.0
113.243584 65.0
113.263641 65.0
113.294281 94.0
113.363289 53.0
113.443146 62.0
113.501984 55.0
113.548561 93.0
113.580574 65.0
113.643532 52.0
113.685165 62.0
113.722321 58.0
113.804504 52.0
113.828758 73.0
113.882561 51.0
113.949257 91.0
113.974014 51.0
114.153351 58.0
114.28614 48.0
114.460938 50.0
114.564415 54.0
114.72467 47.0
114.741776 64.0
114.852325 53.0
115.112007 70.0
115.147469 47.0
115.229965 51.0
115.339165 77.0
115.581909 61.0
115.640915 49.0
115.871002 50.0
116.756386 52.0
116.773247 61.0
116.802864 63.0
117.786522 87.0
117.94178 53.0
118.663101 48.0
121.276939 49.0
124.612312 50.0
125.473808 74.0
125.797218 52.0
126.792694 53.0
129.11937 50.0
131.556259 52.0
133.626205 55.0
135.116821 50.0
135.72406 59.0
136.573502 104.0
137.564102 48.0
140.352448 47.0
144.005051 71.0
146.006241 48.0
147.127167 57.0
147.523682 51.0
149.88353 67.0
150.658951 52.0
154.806625 61.0
155.097824 66.0
155.118271 92.0
156.521042 49.0
157.606796 53.0
169.106003 100.0
170.84465 58.0
171.237381 48.0
171.875031 54.0
174.725433 49.0
176.282028 68.0
179.790482 49.0
183.075439 57.0
183.110352 258.0
186.232925 52.0
188.210358 49.0
189.099045 47.0
190.035431 55.0
190.694046 55.0
192.062775 58.0
193.172272 49.0
196.652649 54.0
197.093658 82.0
197.123215 103.0
197.212357 49.0
197.445801 54.0
198.128784 67.0
201.371506 64.0
201.419266 56.0
202.092499 51.0
203.681564 68.0
206.758392 66.0
211.272629 58.0
211.426941 59.0
212.22847 56.0
212.427734 48.0
214.638138 48.0
214.75209 54.0
216.563843 64.0
217.495468 51.0
217.651352 49.0
219.437973 48.0
222.035706 88.0
224.120468 49.0
225.124878 437.0
226.128784 47.0
227.758942 86.0
228.173035 69.0
229.007309 49.0
229.817459 63.0
231.500977 61.0
233.936478 81.0
233.973969 51.0
241.554794 49.0
242.492218 84.0
243.973953 51.0
252.373871 57.0
253.471542 52.0
254.092484 71.0
254.147552 392.0
255.144623 120.0
256.146149 65.0
256.50589 54.0
258.131897 53.0
258.323303 71.0
264.335419 54.0
271.47049 48.0
271.9823 59.0
273.692261 47.0
274.975464 50.0
275.88205 63.0
277.277252 60.0
280.156616 68.0
281.217163 51.0
281.549408 50.0
282.184998 228.0
282.384827 47.0
283.19046 85.0
289.369202 61.0
291.234985 59.0
293.154083 51.0
293.744843 54.0
299.270569 50.0
300.19165 56.0
304.887695 49.0
306.134125 48.0
307.170105 56.0
307.297577 67.0
309.600861 48.0
310.175812 485.0
311.173492 119.0
317.809143 67.0
318.270233 54.0
318.848328 62.0
319.409454 53.0
322.922028 71.0
323.260132 52.0
325.182587 82.0
328.594025 51.0
337.185272 47.0
337.622528 49.0
339.020233 51.0
339.137115 64.0
339.193848 186.0
340.206085 64.0
341.180481 50.0
342.119781 48.0
345.754974 56.0
353.189178 64.0
356.176819 56.0
357.311279 64.0
359.442413 52.0
360.11969 53.0
365.177795 56.0
365.220703 50.0
367.174927 50.0
367.235107 206.0
368.244446 106.0
369.206024 47.0
369.624023 56.0
370.205841 74.0
370.24588 50.0
371.203033 68.0
371.656525 50.0
381.2117 1058.0
382.212799 310.0
383.083252 52.0
383.223572 61.0
384.209503 60.0
386.981537 58.0
393.210999 53.0
395.459473 60.0
403.916412 51.0
406.700409 64.0
407.89389 65.0
408.227844 115.0
410.240631 320.0
411.044922 77.0
411.244934 62.0
413.460632 47.0
418.55661 58.0
424.218109 49.0
424.775635 50.0
427.228302 91.0
427.853485 50.0
429.420013 48.0
429.824982 59.0
432.257599 58.0
432.92627 54.0
437.591278 58.0
438.15802 48.0
440.255981 48.0
440.800232 59.0
441.241821 69.0
441.289581 54.0
443.779999 65.0
449.243439 77.0
454.23288 60.0
459.140717 52.0
466.154175 58.0
466.262207 3459.0
467.150421 80.0
467.267609 903.0
468.264801 137.0
468.425171 78.0
469.270721 173.0
473.778168 48.0
478.262299 67.0
478.368896 61.0
478.953674 53.0
479.442993 64.0
482.484711 61.0
483.738342 109.0
484.049286 57.0
486.285339 49.0
495.291107 566.0
496.199982 58.0
496.2836 89.0
504.733673 62.0
505.3862 56.0
506.666534 47.0
509.768616 55.0
510.306763 111.0
511.026794 48.0
512.882568 65.0
517.555786 51.0
518.752686 47.0
520.302246 61.0
523.924622 48.0
525.918945 53.0
526.287598 53.0
527.286621 55.0
532.426392 49.0
536.522522 62.0
537.174744 60.0
537.300598 3066.0
538.026306 67.0
538.201904 47.0
538.30365 967.0
539.303284 443.0
540.298889 136.0
543.641113 58.0
545.033447 47.0
545.511841 52.0
547.156006 54.0
551.320435 74.0
552.306274 49.0
552.587219 50.0
554.331909 237.0
554.622498 66.0
559.550903 53.0
560.257019 56.0
562.436768 49.0
563.791138 49.0
565.604187 52.0
571.104675 58.0
574.774902 47.0
575.745056 59.0
577.97583 47.0
578.344177 70.0
588.664734 68.0
590.487549 47.0
595.365356 66.0
599.084839 63.0
602.662964 67.0
611.374146 51.0
612.068604 48.0
613.530334 51.0
616.797852 73.0
620.687073 49.0
622.382385 72.0
623.102051 75.0
623.199707 74.0
623.286926 237.0
623.347961 1434.0
624.262512 86.0
624.352905 511.0
625.35083 191.0
626.351562 56.0
627.046082 50.0
627.337524 59.0
628.366577 48.0
628.791382 49.0
629.257202 71.0
631.706055 100.0
633.914734 55.0
636.205566 72.0
638.065857 53.0
639.39386 69.0
641.636169 84.0
642.996094 49.0
643.554382 81.0
647.35022 49.0
653.403137 705.0
654.398743 414.0
657.208008 50.0
659.143982 47.0
660.894409 55.0
662.845032 48.0
665.013245 47.0
665.1474 48.0
665.188049 87.0
665.277466 199.0
665.3573 1129.0
665.774902 65.0
666.183838 56.0
666.311829 141.0
666.367981 170.0
667.24939 49.0
667.379272 138.0
668.274475 48.0
673.395691 59.0
674.039429 47.0
679.624756 66.0
682.800903 52.0
686.68042 60.0
688.396301 71.0
690.314209 57.0
691.514343 50.0
691.9823 64.0
692.623901 58.0
696.094727 53.0
707.395447 67.0
707.45282 93.0
707.760254 48.0
707.927795 47.0
708.839722 62.0
709.456238 48.0
714.600769 58.0
717.096436 52.0
718.005554 47.0
721.41748 57.0
721.498596 64.0
722.412598 721.0
723.414734 220.0
724.248657 55.0
724.314941 69.0
724.436768 593.0
725.309021 58.0
725.427979 210.0
725.471008 169.0
726.156006 64.0
726.348938 62.0
726.461975 76.0
727.793091 49.0
727.880676 63.0
728.297729 61.0
729.929993 48.0
734.931641 57.0
738.096741 51.0
740.836182 51.0
743.444702 55.0
743.675476 63.0
743.932434 68.0
745.49231 51.0
748.735718 54.0
749.041138 48.0
749.539368 56.0
749.657166 52.0
749.87323 50.0
750.023865 81.0
750.101013 154.0
750.411255 15059.0
751.023315 50.0
751.130249 98.0
751.1745 115.0
751.213806 143.0
751.287903 162.0
751.4151 5645.0
751.933044 52.0
752.184937 70.0
752.244019 115.0
752.311218 85.0
752.42157 1301.0
753.269104 47.0
753.410278 367.0
753.821716 51.0
754.436584 47.0
756.067383 63.0
756.305969 57.0
756.418457 279.0
757.422302 465.0
758.428284 245.0
759.416321 107.0
759.444458 120.0
760.43512 88.0
763.179688 63.0
764.409973 54.0
765.389709 53.0
765.712769 50.0
767.695984 69.0
768.410278 84.0
769.328735 47.0
769.627014 70.0
770.452087 49.0
770.71344 78.0
772.232117 54.0
772.431641 151.0
772.545532 49.0
773.045532 50.0
773.276794 77.0
773.362183 49.0
773.414124 121.0
773.489929 64.0
773.787476 66.0
773.85022 73.0
773.934998 131.0
774.038208 191.0
774.086609 265.0
774.168579 457.0
774.44812 73430.0
774.620605 47.0
774.803223 68.0
774.847961 98.0
774.924805 75.0
775.000977 82.0
775.049072 58.0
775.102417 67.0
775.145142 133.0
775.451782 32992.0
775.689941 82.0
775.789124 68.0
775.995178 61.0
776.045715 108.0
776.122681 48.0
776.173035 141.0
776.235413 206.0
776.307068 318.0
776.455078 8085.0
776.635315 63.0
776.761658 48.0
776.820007 64.0
776.873901 73.0
777.460388 1922.0
777.595032 78.0
777.734619 56.0
778.249573 67.0
778.360229 108.0
778.450195 310.0
778.578186 47.0
778.801819 49.0
779.430359 95.0
779.510925 48.0
779.652161 61.0
779.693665 50.0
780.117737 51.0
780.230713 52.0
780.341125 52.0
781.693787 53.0
784.066162 57.0
784.635254 96.0
787.327026 60.0
788.243347 51.0
788.473083 366.0
789.335327 72.0
789.455933 155.0
790.465637 125.0
793.803528 61.0
794.269531 48.0
796.421814 71.0
797.394287 57.0
800.710999 58.0
800.788086 66.0
804.323059 52.0
804.446167 58.0
807.305664 82.0
807.47113 1268.0
808.34436 108.0
808.462708 484.0
809.486816 172.0
810.48999 81.0
811.475098 50.0
813.160767 48.0
817.287109 48.0
818.992554 50.0
820.027771 75.0
820.947693 59.0
821.472534 112.0
821.956543 50.0
822.493469 54.0
822.637695 51.0
823.804077 50.0
824.810364 95.0
825.243469 50.0
825.524658 59.0
827.459656 55.0
830.246887 68.0
830.717224 50.0
835.508728 64.0
835.562561 69.0
835.649292 48.0
836.363892 49.0
836.881348 51.0
838.026489 48.0
839.889648 79.0
842.408142 50.0
843.726196 63.0
848.232788 56.0
848.857422 49.0
849.056641 47.0
849.227783 298.0
849.479614 12471.0
849.975891 72.0
850.119446 54.0
850.165344 53.0
850.275085 241.0
850.356934 344.0
850.483215 6715.0
850.748352 60.0
851.040222 64.0
851.24823 166.0
851.347717 90.0
851.390869 146.0
851.485657 1708.0
851.570007 72.0
851.629578 71.0
851.728516 62.0
852.140564 84.0
852.304321 62.0
852.427917 69.0
852.495361 376.0
853.462646 91.0
856.858398 59.0
859.397034 65.0
859.430115 90.0
859.504028 394.0
860.517334 247.0
864.47644 108.0
865.500793 71.0
866.491943 59.0
866.705505 51.0
867.677856 47.0
870.005676 48.0
872.677551 59.0
873.04834 81.0
874.660156 68.0
875.295837 48.0
876.489929 60.0
876.770508 54.0
878.344666 64.0
878.416016 204.0
878.507202 440.0
879.51886 211.0
880.513245 274.0
880.66156 57.0
881.118591 52.0
881.511108 96.0
882.526001 54.0
890.494507 51.0
890.936584 54.0
892.970398 57.0
893.378113 53.0
895.497131 60.0
897.513489 56.0
898.183044 47.0
899.27417 89.0
900.928589 58.0
901.0672 47.0
901.599304 48.0
901.962219 56.0
902.85144 60.0
906.48877 48.0
906.733337 73.0
907.489319 62.0
908.137024 47.0
910.197998 64.0
913.048279 50.0
916.511902 63.0
916.697998 47.0
918.497314 82.0
919.047791 60.0
919.314575 47.0
920.299377 61.0
920.544495 49.0
920.592407 55.0
923.384155 52.0
924.365234 68.0
928.61145 51.0
929.37854 65.0
930.000488 74.0
930.072144 52.0
930.870361 55.0
931.170532 48.0
931.270508 70.0
931.409729 48.0
931.803772 56.0
931.905579 60.0
932.105652 55.0
932.143799 69.0
932.2453 79.0
932.346069 74.0
932.569153 48.0
932.677307 53.0
932.82019 78.0
933.021667 77.0
933.0802 59.0
933.185059 84.0
933.23877 64.0
933.485596 78.0
933.619141 84.0
933.71106 96.0
933.799866 121.0
933.89447 166.0
933.980652 152.0
934.073425 317.0
934.161987 542.0
934.260986 1247.0
934.533325 122702.0
934.761292 80.0
934.825439 76.0
934.910217 82.0
935.003296 179.0
935.087646 327.0
935.154907 363.0
935.335571 1593.0
935.536133 64489.0
935.674316 170.0
935.754883 128.0
935.87323 59.0
935.93988 84.0
936.024719 64.0
936.134521 317.0
936.221252 160.0
936.53949 19863.0
936.697021 60.0
936.868286 77.0
936.988892 61.0
937.055115 154.0
937.098206 91.0
937.151672 98.0
937.325378 97.0
937.376343 155.0
937.545898 4612.0
937.756104 69.0
937.894043 51.0
938.084717 73.0
938.238159 54.0
938.374512 61.0
938.427917 129.0
938.535339 768.0
939.347534 49.0
939.546753 195.0
939.965637 65.0
940.095032 94.0
940.444275 74.0
940.49469 71.0
940.554932 63.0
940.855286 99.0
940.97113 62.0
941.092957 49.0
941.174805 49.0
941.475647 70.0
941.682556 47.0
942.241638 67.0
944.247314 54.0
945.370056 55.0
945.90918 53.0
947.604919 59.0
948.558472 313.0
949.061279 65.0
949.578125 96.0
950.587341 96.0
953.003723 47.0
953.234924 66.0
953.498169 55.0
955.558289 57.0
956.692261 63.0
958.254944 67.0
963.582031 126.0
963.997925 47.0
964.546082 66.0
964.704651 73.0
965.661194 65.0
970.274048 48.0
972.100464 55.0
972.348694 103.0
972.40564 98.0
972.588745 1207.0
973.413696 66.0
973.57843 663.0
974.27417 52.0
974.604187 294.0
975.590942 130.0
977.437927 62.0
977.579956 138.0
977.938416 47.0
978.540649 52.0
978.607483 50.0
979.54657 70.0
979.830139 48.0
980.297241 47.0
982.074951 84.0
982.578308 81.0
983.08197 73.0
983.263611 59.0
985.631348 68.0
986.633972 67.0
987.433777 47.0
989.193237 53.0
989.674927 47.0
991.043762 68.0
991.112793 204.0
991.305786 270.0
991.391418 508.0
991.557007 14515.0
991.70929 91.0
991.817078 71.0
992.004211 52.0
992.09198 114.0
992.180054 49.0
992.233154 67.0
992.559387 8026.0
992.858948 68.0
992.939636 47.0
993.005615 48.0
993.110596 48.0
993.19873 51.0
993.465576 476.0
993.562134 2699.0
993.725952 77.0
994.125977 66.0
994.415344 73.0
994.499817 169.0
994.57019 595.0
995.464355 57.0
995.567627 120.0
995.767517 57.0
996.744507 50.0
996.857483 77.0
999.762024 86.0
999.830688 54.0
1000.008423 49.0
1001.067627 134.0
1001.456482 54.0
1002.323792 50.0
1002.422729 59.0
1002.579773 63.0
1002.953308 56.0
1003.996521 83.0
1004.288086 52.0
1005.312927 51.0
1005.567932 69.0
1005.834839 62.0
1007.66864 100.0
1008.539429 79.0
1012.206482 67.0
1012.588318 82.0
1013.58252 48.0
1014.485535 47.0
1015.445862 49.0
1018.889343 49.0
1020.678162 48.0
1021.042847 89.0
1021.748108 113.0
1022.0979 47.0
1022.380981 74.0
1023.015564 71.0
1025.302124 51.0
1028.01123 65.0
1028.647461 58.0
1029.160034 115.0
1029.30249 92.0
1029.401611 321.0
1029.607178 12520.0
1029.753784 92.0
1029.846924 55.0
1030.167847 101.0
1030.35437 281.0
1030.449097 428.0
1030.608154 7576.0
1031.038574 59.0
1031.278564 77.0
1031.345337 50.0
1031.412476 71.0
1031.460815 155.0
1031.618774 2661.0
1032.350708 62.0
1032.518188 136.0
1032.608521 648.0
1033.616455 183.0
1033.835449 47.0
1034.60437 88.0
1035.830078 55.0
1036.717285 48.0
1039.509644 48.0
1041.648804 51.0
1042.125732 60.0
1043.374756 47.0
1045.227783 60.0
1045.689209 81.0
1046.616821 54.0
1048.339111 53.0
1052.17395 55.0
1053.545654 47.0
1055.035645 52.0
1056.161377 68.0
1058.870117 63.0
1059.144043 57.0
1061.259033 54.0
1061.980103 52.0
1062.282227 60.0
1062.334961 130.0
1062.433594 105.0
1062.505981 252.0
1062.629028 2740.0
1063.002563 52.0
1063.3573 55.0
1063.425903 48.0
1063.534668 177.0
1063.629761 1491.0
1064.627808 674.0
1065.627075 179.0
1065.802856 60.0
1066.552734 47.0
1066.672729 64.0
1067.751953 48.0
1070.864624 53.0
1072.072754 64.0
1073.05835 56.0
1075.105225 60.0
1076.02417 52.0
1076.539429 51.0
1076.641357 418.0
1076.708862 129.0
1077.424927 86.0
1077.484619 57.0
1077.63916 129.0
1077.693726 158.0
1077.883057 48.0
1077.953247 49.0
1078.511963 66.0
1078.622192 56.0
1078.75769 50.0
1079.150513 49.0
1081.588379 52.0
1083.386597 67.0
1084.233276 55.0
1087.641479 124.0
1088.124756 69.0
1089.452759 70.0
1089.630859 58.0
1090.202026 50.0
1090.65271 164.0
1092.263794 47.0
1092.612305 49.0
1093.860718 50.0
1094.091919 48.0
1094.842651 56.0
1095.963379 60.0
1097.457153 51.0
1097.805908 55.0
1099.727173 64.0
1100.476074 78.0
1101.687378 47.0
1102.175781 47.0
1102.588989 51.0
1103.329102 72.0
1103.591064 88.0
1103.869263 54.0
1103.930298 72.0
1103.993652 61.0
1104.053467 87.0
1104.116943 79.0
1104.223999 93.0
1104.273682 92.0
1104.503418 1025.0
1104.643799 18356.0
1104.814209 72.0
1104.881104 101.0
1105.002563 95.0
1105.039062 91.0
1105.244873 100.0
1105.363525 316.0
1105.455811 447.0
1105.6427 10701.0
1105.812378 107.0
1106.374634 69.0
1106.510986 316.0
1106.64563 4108.0
1106.875977 52.0
1107.063354 70.0
1107.139038 70.0
1107.338501 53.0
1107.394531 86.0
1107.545898 91.0
1107.651489 1097.0
1108.178711 49.0
1108.577637 59.0
1108.665039 197.0
1108.740601 57.0
1109.277222 52.0
1110.421997 91.0
1110.592651 72.0
1110.656982 70.0
1111.451416 58.0
1112.944702 58.0
1113.952759 58.0
1114.314575 53.0
1114.372314 79.0
1114.481812 56.0
1114.657837 1450.0
1115.147827 56.0
1115.54834 127.0
1115.651733 1197.0
1115.860962 57.0
1116.477295 61.0
1116.664062 228.0
1116.967041 58.0
1117.518311 52.0
1117.684692 350.0
1118.630981 75.0
1119.150635 54.0
1120.178833 53.0
1120.659668 64.0
1121.980469 52.0
1122.521851 62.0
1123.494385 67.0
1125.021973 93.0
1128.440308 51.0
1130.361206 68.0
1130.953491 78.0
1131.105591 48.0
1131.350098 61.0
1132.584839 65.0
1133.10144 59.0
1133.260498 62.0
1133.626953 70.0
1133.988525 53.0
1134.20166 67.0
1134.520996 52.0
1134.901978 52.0
1135.39624 58.0
1136.597046 65.0
1136.798828 58.0
1136.901367 65.0
1137.466431 63.0
1140.568604 56.0
1141.117432 81.0
1142.512573 55.0
1143.268555 53.0
1143.504883 74.0
1144.484253 52.0
1145.870239 50.0
1146.05249 112.0
1146.210693 71.0
1146.303101 102.0
1146.502441 56.0
1146.562134 60.0
1146.890747 49.0
1147.631226 72.0
1148.421387 51.0
1148.563477 54.0
1148.700317 60.0
1149.216797 71.0
1149.325195 59.0
1149.794556 51.0
1150.675537 76.0
1151.962891 48.0
1155.754517 58.0
1156.288452 58.0
1158.360962 58.0
1159.038086 60.0
1159.687012 61.0
1160.706421 62.0
1160.820435 55.0
1161.081909 75.0
1161.822144 49.0
1162.108887 65.0
1162.868652 63.0
1163.174438 51.0
1163.566284 59.0
1163.661499 70.0
1164.318848 51.0
1164.716309 47.0
1167.866211 49.0
1168.218018 56.0
1168.284058 58.0
1168.462646 57.0
1168.789673 82.0
1169.03064 52.0
1169.38562 72.0
1169.60437 58.0
1169.654419 66.0
1170.669922 61.0
1170.897705 58.0
1171.016846 55.0
1171.239746 48.0
1171.436401 68.0
1171.481934 84.0
1171.679688 596.0
1171.857544 81.0
1172.061401 47.0
1172.144653 61.0
1172.326172 87.0
1172.446899 107.0
1172.670776 491.0
1172.776855 107.0
1172.851562 54.0
1172.931152 93.0
1173.042358 74.0
1173.255371 103.0
1173.3479 75.0
1173.566895 112.0
1173.647827 217.0
1173.872437 67.0
1173.912354 94.0
1173.986328 94.0
1174.070312 82.0
1174.155029 102.0
1174.297729 143.0
1174.423828 65.0
1174.488159 72.0
1174.552124 150.0
1174.604736 88.0
1174.692017 158.0
1174.741211 145.0
1174.84021 96.0
1174.894287 78.0
1174.954956 116.0
1175.006592 120.0
1175.166138 64.0
1175.233154 142.0
1175.32605 99.0
1175.404175 111.0
1175.508301 434.0
1175.572266 562.0
1175.678833 4954.0
1175.882568 94.0
1175.999634 75.0
1176.079712 105.0
1176.157471 64.0
1176.23291 84.0
1176.307617 57.0
1176.412476 147.0
1176.545288 222.0
1176.683838 3028.0
1176.823853 113.0
1176.918701 78.0
1177.016113 90.0
1177.132202 100.0
1177.180786 110.0
1177.270142 109.0
1177.327637 92.0
1177.416992 133.0
1177.539307 78.0
1177.68103 1199.0
1177.832031 61.0
1177.90625 89.0
1177.994385 85.0
1178.106812 86.0
1178.211914 101.0
1178.339966 54.0
1178.4646 103.0
1178.660889 365.0
1178.772827 94.0
1179.041382 60.0
1179.108032 115.0
1179.277222 127.0
1179.504028 70.0
1179.608887 81.0
1179.682251 65.0
1179.838501 85.0
1179.931763 76.0
1180.105103 66.0
1180.455078 69.0
1180.52771 73.0
1180.712524 144.0
1180.84436 63.0
1180.961426 70.0
1181.027588 81.0
1181.141602 85.0
1181.251587 120.0
1181.408081 73.0
1181.526855 94.0
1181.662231 135.0
1181.809204 74.0
1181.871338 121.0
1181.960449 61.0
1182.034668 50.0
1182.085083 69.0
1182.21228 147.0
1182.47583 70.0
1182.683838 135.0
1182.764526 55.0
1182.834473 51.0
1182.901489 105.0
1183.136963 96.0
1183.223755 52.0
1183.294434 135.0
1183.372925 98.0
1183.468872 66.0
1183.566895 80.0
1183.706055 89.0
1183.785889 68.0
1183.901245 62.0
1183.989258 122.0
1184.053223 93.0
1184.174438 59.0
1184.266968 72.0
1184.380859 82.0
1184.590454 72.0
1184.664673 66.0
1184.733398 121.0
1184.796631 171.0
1184.879883 119.0
1185.026123 113.0
1185.072632 94.0
1185.123901 106.0
1185.169556 88.0
1185.278931 124.0
1185.366577 94.0
1185.444824 211.0
1185.546997 106.0
1185.658203 238.0
1185.722046 233.0
1185.783569 184.0
1185.847656 137.0
1186.005615 100.0
1186.074707 119.0
1186.171387 204.0
1186.255981 289.0
1186.346558 209.0
1186.456787 216.0
1186.491699 216.0
1186.56665 167.0
1186.625366 236.0
1186.797363 285.0
1186.872559 170.0
1186.971069 311.0
1187.049561 270.0
1187.12207 122.0
1187.176025 234.0
1187.325806 351.0
1187.408936 322.0
1187.47876 388.0
1187.621704 365.0
1187.687012 385.0
1187.85144 425.0
1187.924438 342.0
1187.993408 342.0
1188.100098 437.0
1188.216919 519.0
1188.268433 552.0
1188.335571 427.0
1188.395508 533.0
1188.464478 434.0
1188.577148 526.0
1188.655151 632.0
1188.724365 648.0
1188.825562 978.0
1188.921997 951.0
1188.994995 1192.0
1189.121338 1933.0
1189.694214 1036146.0
1189.890015 92.0
1189.976318 69.0
1190.352173 8690.0
1190.697388 708289.0
1190.925659 169.0
1190.982178 90.0
1191.04126 125.0
1191.09668 131.0
1191.371216 4527.0
1191.699463 248825.0
1191.928955 302.0
1191.956665 328.0
1192.035767 310.0
1192.083862 281.0
1192.175049 376.0
1192.701782 58508.0
1192.956909 314.0
1193.022339 453.0
1193.273315 254.0
1193.380127 208.0
1193.704102 12753.0
1193.921997 181.0
1194.037354 186.0
1194.164062 263.0
1194.336548 143.0
1194.379761 176.0
1194.462158 158.0
1194.561157 319.0
1194.700439 2333.0
1194.946655 141.0
1195.059814 116.0
1195.145386 179.0
1195.196167 149.0
1195.30603 176.0
1195.391235 202.0
1195.544922 248.0
1195.644653 301.0
1195.699829 524.0
1195.785645 254.0
1195.869629 273.0
1195.99231 305.0
1196.115845 351.0
1196.243042 215.0
1196.340698 203.0
1196.393799 124.0
1196.487183 157.0
1196.556274 134.0
1196.656372 226.0
1196.700317 195.0
1196.768799 190.0
1196.855103 176.0
1197.013794 272.0
1197.099243 177.0
1197.185669 134.0
1197.253296 247.0
1197.380249 135.0
1197.476318 124.0
1197.563477 164.0
1197.651489 90.0
1197.748779 104.0
1197.815308 128.0
1197.926636 88.0
1197.991821 113.0
1198.028931 128.0
1198.12146 97.0
1198.167847 143.0
1198.220459 81.0
1198.282593 137.0
1198.373169 126.0
1198.533936 102.0
1198.673828 86.0
1198.802734 48.0
1198.95166 112.0
1199.05542 125.0
1199.194092 128.0
1199.286743 92.0
1199.388184 85.0
1199.51001 48.0
1199.847046 59.0
1200.078857 70.0
1200.307983 56.0
1200.877808 99.0
1201.067993 65.0
1201.459473 63.0
1201.744507 51.0
1201.932129 72.0
1202.06604 51.0
1202.284912 53.0
1202.680664 60.0
1202.940063 56.0
1203.109375 50.0
1203.263916 88.0
1203.343262 95.0
1203.515869 118.0
1203.717041 1205.0
1204.13501 66.0
1204.550171 80.0
1204.705811 1223.0
1204.961914 57.0
1205.099731 47.0
1205.708496 581.0
1205.956299 53.0
1206.069702 60.0
1206.136108 47.0
1206.411499 60.0
1206.563843 47.0
1206.699219 98.0
1206.82373 72.0
1207.02832 84.0
1207.210327 47.0
1207.703735 173.0
1208.040283 61.0
1209.707153 54.0
1209.805908 47.0
1210.044189 90.0
1211.417114 47.0
1212.490112 55.0
1212.736206 57.0
1213.410522 75.0
1213.47876 49.0
1213.587036 140.0
1213.664185 122.0
1213.742188 921.0
1214.535889 48.0
1214.589722 93.0
1214.723755 349.0
1215.053223 58.0
1215.28064 51.0
1215.684814 106.0
1215.741089 153.0
1216.143677 67.0
1216.721436 100.0
1217.594604 59.0
1217.714844 102.0
1218.774536 61.0
1219.043945 54.0
1219.364014 52.0
1219.437866 55.0
1219.69873 60.0
1221.564453 48.0
1221.824707 77.0
1222.23999 71.0
1222.605225 74.0
1224.550049 52.0
1224.829712 61.0
1228.603149 48.0
1230.947632 58.0
1233.224121 79.0
1234.880371 49.0
1235.558228 54.0
1240.939819 50.0
1242.389526 55.0
1242.871948 50.0
1244.352783 48.0
1247.355103 72.0
1250.067749 70.0
1250.406738 49.0
1251.815552 83.0
1255.434326 71.0
1264.708496 51.0
1279.042725 63.0
1286.759277 793.0
1287.596558 85.0
1287.734863 388.0
1288.38562 49.0
1288.612915 56.0
1288.738525 122.0
1288.828491 78.0
1289.640991 62.0
1289.761108 64.0
1289.824585 50.0
1290.709473 51.0
1298.811768 213.0
1299.743652 114.0
1299.829834 111.0
1300.770264 84.0
1300.825562 105.0
1301.734131 52.0
1301.792969 56.0
1306.285278 56.0
1318.575439 57.0
1324.39624 47.0
1325.297729 50.0
1326.583862 50.0
1336.569214 72.0
1340.694092 59.0
1351.678467 48.0
1353.418701 47.0
1359.607544 48.0
1362.522461 56.0
1363.275757 49.0
1368.687866 48.0
1369.490356 48.0
1375.351074 50.0
1378.992188 65.0
1383.878784 55.0
1384.761108 60.0
1385.438477 103.0
1385.615601 109.0
1385.821167 3339.0
1386.502319 109.0
1386.662231 169.0
1386.817017 2655.0
1387.454102 47.0
1387.634399 87.0
1387.82373 1161.0
1388.817749 388.0
1388.933838 61.0
1389.646729 51.0
1389.771484 93.0
1389.911743 60.0
1391.789551 63.0
1391.867188 56.0
1393.115845 56.0
1395.99292 78.0
1403.670532 52.0
1409.382324 55.0
1409.594604 55.0
1412.751343 50.0
1413.422241 99.0
1425.993408 68.0
1426.852417 260.0
1426.999512 67.0
1427.835693 242.0
1427.919189 104.0
1428.86377 188.0
1429.418335 57.0
1429.80957 67.0
1429.891724 74.0
1431.984131 48.0
1435.842773 66.0
1436.13147 55.0
1436.437378 75.0
1437.676147 62.0
1438.6698 48.0
1446.800293 54.0
1450.0979 52.0
1450.996216 59.0
1451.083496 58.0
1451.837036 55.0
1456.528931 50.0
1464.487549 54.0
1470.461304 83.0
1470.553833 131.0
1470.61084 191.0
1470.688477 511.0
1470.869629 5007.0
1471.522339 124.0
1471.618896 127.0
1471.711304 434.0
1471.87146 4969.0
1472.18042 70.0
1472.587036 81.0
1472.879028 2082.0
1473.620483 87.0
1473.7229 110.0
1473.875854 831.0
1474.906372 264.0
1475.540527 51.0
1475.913818 75.0
1479.992432 62.0
1484.145508 53.0
1485.615479 63.0
1487.795898 55.0
1490.747681 58.0
1491.460815 49.0
1497.851685 169.0
1498.686401 50.0
1498.759033 72.0
1498.902954 190.0
1498.992798 62.0
1499.887817 107.0
1502.161987 62.0
1502.292603 60.0
1509.894897 67.0
1510.189331 48.0
1515.822388 57.0
1516.95813 54.0
1520.536255 52.0
1520.59082 47.0
1524.536743 49.0
1525.433105 52.0
1526.02356 61.0
1534.877808 49.0
1537.374023 51.0
1538.687866 50.0
1540.192383 58.0
1542.583618 51.0
1546.672607 56.0
1552.648193 47.0
1553.563721 58.0
1553.785034 65.0
1554.412109 50.0
1554.59314 50.0
1554.849976 97.0
1555.035645 63.0
1555.161621 49.0
1555.22937 128.0
1555.316895 149.0
1555.44165 174.0
1555.617065 430.0
1555.925903 18535.0
1556.148682 97.0
1556.244263 79.0
1556.356079 89.0
1556.444092 203.0
1556.5802 340.0
1556.927856 15997.0
1557.321167 133.0
1557.419067 103.0
1557.526855 249.0
1557.929932 8136.0
1558.187134 71.0
1558.45166 112.0
1558.547852 51.0
1558.621704 106.0
1558.731689 255.0
1558.93335 2582.0
1559.203857 64.0
1559.283569 59.0
1559.454834 48.0
1559.672607 81.0
1559.739258 108.0
1559.83313 229.0
1559.939941 782.0
1560.681641 62.0
1560.920898 203.0
1561.042725 108.0
1561.966187 50.0
1562.341431 50.0
1562.994873 64.0
1563.678467 57.0
1564.209839 58.0
1564.899414 48.0
1565.797485 50.0
1567.872681 47.0
1569.959229 85.0
1570.918945 77.0
1571.970337 69.0
1572.856323 47.0
1575.717773 54.0
1576.025513 61.0
1578.180542 53.0
1579.60376 68.0
1579.921509 71.0
1582.893311 91.0
1583.024902 58.0
1583.933594 54.0
1585.005859 53.0
1585.258789 54.0
1585.975342 47.0
1591.52417 59.0
1598.068481 47.0
1599.433105 50.0
1603.502441 54.0
1605.227905 70.0
1605.724609 47.0
1606.523682 52.0
1607.137695 48.0
1608.023438 55.0
1609.622192 77.0
1611.438599 87.0
1612.004272 55.0
1613.949951 55.0
1614.950195 86.0
1615.748535 60.0
1616.871948 52.0
1619.960083 53.0
1621.758179 50.0
1622.793823 55.0
1622.854736 51.0
1623.537964 55.0
1626.172729 75.0
1626.465332 49.0
1627.202271 62.0
1632.799927 48.0
1632.953735 68.0
1640.086426 53.0
1641.834717 69.0
1642.995728 75.0
1645.232178 83.0
1646.634888 58.0
1648.285645 50.0
1648.967407 54.0
1649.810547 56.0
1650.389038 48.0
1650.63501 49.0
1653.523193 72.0
1653.915283 89.0
1654.79248 79.0
1654.97522 153.0
1655.068359 89.0
1655.325317 68.0
1655.970459 68.0
1656.665405 63.0
1656.74585 59.0
1658.005859 99.0
1658.587891 50.0
1661.797363 51.0
1663.627319 56.0
1664.07605 52.0
1669.138184 102.0
1669.240723 69.0
1670.559082 51.0
1671.975952 59.0
1672.550537 64.0
1675.96936 64.0
1677.741333 56.0
1678.118774 68.0
1680.585327 55.0
1682.348267 64.0
1683.134888 61.0
1683.309326 91.0
1683.438232 128.0
1683.52124 106.0
1683.593506 122.0
1683.704712 192.0
1683.978516 6437.0
1684.268799 59.0
1684.495117 165.0
1684.56897 98.0
1684.984863 6494.0
1685.305664 51.0
1685.38562 68.0
1685.458008 99.0
1685.587036 88.0
1685.776245 276.0
1685.980957 3403.0
1686.251221 65.0
1686.552246 47.0
1686.64502 57.0
1686.734009 85.0
1686.834473 111.0
1686.982788 1287.0
1687.812256 81.0
1687.984253 380.0
1688.968262 178.0
1689.048584 219.0
1689.98877 73.0
1690.475708 49.0
1693.954712 62.0
1695.064819 49.0
1695.331543 48.0
1696.321655 59.0
1697.289185 58.0
1697.397827 58.0
1698.738892 62.0
1699.111328 48.0
1700.608032 49.0
1701.020386 291.0
1702.034912 166.0
1702.884888 70.0
1703.050415 110.0
1703.942261 57.0
1704.054688 82.0
1704.24939 85.0
1705.063721 47.0
1707.148438 57.0
1707.33728 58.0
1707.851074 52.0
1715.68103 59.0
1715.908691 50.0
1717.082397 59.0
1721.111938 83.0
1721.238647 61.0
1721.651123 67.0
1721.727173 79.0
1725.070557 54.0
1727.794067 67.0
1731.316162 58.0
1731.433228 100.0
1732.368286 47.0
1734.770752 48.0
1738.775269 53.0
1739.8125 66.0
1740.468018 57.0
1742.854004 48.0
1744.283203 50.0
1745.144287 51.0
1749.690308 49.0
1752.390015 53.0
1754.057983 53.0
1754.116699 50.0
1757.575317 49.0
1759.629517 63.0
1760.000488 60.0
1760.262207 54.0
1762.05835 50.0
1763.452026 65.0
1764.906738 62.0
1765.528564 55.0
1766.759033 53.0
1774.34436 47.0
1775.44104 55.0
1776.598389 48.0
1777.511353 50.0
1779.852051 56.0
1780.902588 52.0
1781.821167 47.0
1784.742065 50.0
1785.05896 51.0
1787.622925 50.0
1789.005249 51.0
1791.60791 71.0
1794.581665 77.0
1795.060547 81.0
1795.623169 114.0
1796.004761 89.0
1797.112061 63.0
1797.733765 49.0
1799.941895 48.0
1800.295654 65.0
1800.946289 63.0
1801.021606 63.0
1802.7146 67.0
1803.88623 49.0
1804.142334 51.0
1804.74353 48.0
1804.861938 49.0
1805.564331 51.0
1808.62085 85.0
1808.720581 51.0
1809.297729 49.0
1809.691406 73.0
1809.772583 69.0
1809.851929 89.0
1810.714355 71.0
1810.810059 85.0
1810.988892 60.0
1811.085938 109.0
1811.214233 159.0
1811.279785 150.0
1811.474609 166.0
1811.53772 243.0
1812.04126 31383.0
1812.413818 205.0
1812.570312 347.0
1813.045532 31139.0
1813.43811 95.0
1813.509277 147.0
1813.586792 357.0
1813.786011 826.0
1814.045776 16959.0
1814.272949 133.0
1814.373047 61.0
1814.525635 75.0
1814.671143 197.0
1814.834595 429.0
1815.051758 7303.0
1815.288574 54.0
1815.502075 105.0
1815.62854 56.0
1815.69165 83.0
1815.773193 180.0
1816.060425 2167.0
1816.22998 84.0
1816.533325 66.0
1816.754395 48.0
1817.081177 407.0
1817.388672 85.0
1817.709839 67.0
1817.859863 55.0
1817.997681 126.0
1818.085938 105.0
1818.427368 63.0
1818.787964 49.0
1819.595215 67.0
1819.636719 79.0
1819.795288 61.0
1820.26001 52.0
1820.920044 52.0
1820.973511 90.0
1821.147461 80.0
1821.306885 54.0
1821.72229 54.0
1823.028198 47.0
1824.702637 59.0
1824.83313 58.0
1825.013672 83.0
1825.780884 55.0
1826.032104 66.0
1826.093994 62.0
1826.876465 61.0
1827.040039 87.0
1827.127441 69.0
1828.026367 82.0
1828.538452 70.0
1828.892822 61.0
1830.165039 81.0
1830.708618 75.0
1831.141357 69.0
1835.333618 91.0
1835.501343 57.0
1835.792847 67.0
1835.897705 84.0
1836.086426 1750.0
1836.462524 67.0
1836.531128 60.0
1836.59375 102.0
1836.681885 60.0
1836.847534 129.0
1836.925293 194.0
1837.076294 2474.0
1837.472656 58.0
1837.925781 104.0
1838.098511 1357.0
1838.439575 68.0
1838.70752 69.0
1838.870239 103.0
1838.940674 130.0
1839.094238 519.0
1839.998901 94.0
1840.097534 306.0
1840.971802 51.0
1841.024048 60.0
1844.339966 81.0
1844.691895 61.0
1844.795898 56.0
1845.036621 48.0
1845.115845 52.0
1846.492676 61.0
1848.03894 54.0
1849.03479 67.0
1850.831421 68.0
1851.671753 70.0
1853.49646 50.0
1853.850464 49.0
1855.021484 55.0
1855.594971 59.0
1860.439209 88.0
1865.353149 91.0
1865.623535 68.0
1870.758911 62.0
1871.675415 47.0
1871.842651 55.0
1873.584473 88.0
1873.945435 54.0
1874.497925 50.0
1876.024536 76.0
1877.14917 47.0
1880.476318 76.0
1883.869995 70.0
1885.532715 58.0
1885.605103 47.0
1886.141479 49.0
1887.77832 72.0
1888.4729 92.0
1890.647461 49.0
1890.804321 78.0
1891.109131 64.0
1891.850464 48.0
1892.460693 75.0
1893.547852 49.0
1894.993896 56.0
1896.059448 57.0
1897.290161 56.0
1898.262695 52.0
1899.587524 52.0
1900.272705 73.0
1900.918091 90.0
1902.898438 88.0
1904.18689 48.0
1904.467407 64.0
1905.000122 50.0
1905.233398 47.0
1905.624512 52.0
1905.905396 62.0
1907.807495 58.0
1908.078003 62.0
1908.97644 48.0
1909.91748 50.0
1910.147583 48.0
1910.330322 54.0
1914.12793 50.0
1916.131958 49.0
1916.633057 63.0
1917.031494 51.0
1917.141357 47.0
1917.459839 53.0
1919.610107 71.0
1919.871582 53.0
1920.121704 73.0
1920.821411 57.0
1921.238647 71.0
1921.714722 50.0
1922.453247 47.0
1922.505127 56.0
1922.813232 48.0
1923.00415 90.0
1924.921875 48.0
1925.060303 68.0
1926.479492 52.0
1927.16687 53.0
1927.429688 61.0
1927.850464 47.0
1928.077148 52.0
1928.896851 61.0
1929.002808 56.0
1929.15332 196.0
1929.270508 51.0
1929.665283 60.0
1930.115967 94.0
1930.394409 67.0
1930.876465 78.0
1931.151733 131.0
1931.634155 64.0
1931.849854 116.0
1931.986084 77.0
1932.03772 129.0
1932.186768 85.0
1933.54895 69.0
1933.6604 77.0
1933.972046 104.0
1934.125 63.0
1934.181519 71.0
1934.440308 62.0
1934.629028 47.0
1935.154907 55.0
1935.268921 72.0
1935.570679 85.0
1936.115601 53.0
1936.208496 60.0
1936.300049 49.0
1937.044678 76.0
1937.105835 93.0
1937.439453 49.0
1937.705444 61.0
1937.779175 64.0
1938.087524 96.0
1938.187256 84.0
1938.252686 62.0
1938.532104 52.0
1938.797852 62.0
1938.86853 64.0
1938.977051 59.0
1939.120239 72.0
1939.246338 51.0
1939.319458 59.0
1939.441406 81.0
1939.536133 100.0
1940.056763 68.0
1940.170044 54.0
1940.62561 52.0
1941.103638 73.0
1941.171387 52.0
1941.230713 88.0
1941.605713 73.0
1941.713867 69.0
1941.886475 50.0
1942.731079 72.0
1943.057739 138.0
1943.191895 78.0
1943.59436 109.0
1943.681885 68.0
1943.972168 60.0
1944.112061 93.0
1944.243042 75.0
1944.407471 104.0
1944.561401 89.0
1944.671753 118.0
1944.82251 257.0
1945.12915 5409.0
1945.427612 86.0
1945.490967 94.0
1945.651733 169.0
1945.808594 190.0
1946.134766 6671.0
1946.351929 154.0
1946.484863 94.0
1946.575928 110.0
1946.699219 122.0
1946.773804 119.0
1946.869263 355.0
1947.132935 5482.0
1947.580444 154.0
1947.658813 118.0
1947.731323 102.0
1947.82605 189.0
1947.893921 196.0
1948.131958 2024.0
1948.41272 214.0
1948.534302 89.0
1948.668457 76.0
1948.789673 230.0
1948.885742 116.0
1949.142456 1306.0
1949.366455 103.0
1949.461182 104.0
1949.556396 62.0
1949.706543 62.0
1949.88501 217.0
1949.961304 104.0
1950.133667 492.0
1950.274292 163.0
1950.448486 68.0
1950.570923 77.0
1950.914673 52.0
1951.132324 145.0
1951.25293 160.0
1951.406982 69.0
1951.500366 63.0
1951.612183 112.0
1951.772461 138.0
1951.910522 59.0
1952.084351 123.0
1952.142456 206.0
1952.435303 126.0
1952.594482 76.0
1952.844604 117.0
1952.91748 71.0
1953.001587 126.0
1953.096924 113.0
1953.226929 105.0
1953.361206 70.0
1953.514893 91.0
1953.603394 71.0
1953.851318 62.0
1953.907227 80.0
1953.997192 73.0
1954.133057 119.0
1954.219482 127.0
1954.427368 139.0
1954.562988 104.0
1954.696899 87.0
1954.820068 96.0
1954.898926 114.0
1955.039551 107.0
1955.126465 86.0
1955.325562 72.0
1955.499878 92.0
1955.668213 92.0
1955.799438 59.0
1955.900513 69.0
1956.086182 130.0
1956.174561 136.0
1956.27356 171.0
1956.329956 151.0
1956.407593 103.0
1956.463745 71.0
1956.579834 70.0
1956.688965 121.0
1956.732178 123.0
1956.817139 145.0
1956.918823 142.0
1957.059082 98.0
1957.203979 154.0
1957.360229 137.0
1957.427124 137.0
1957.540283 155.0
1957.621704 136.0
1957.654663 137.0
1957.876953 177.0
1958.087769 183.0
1958.204712 131.0
1958.299805 74.0
1958.449707 179.0
1958.555054 168.0
1958.660156 108.0
1958.739258 118.0
1958.824829 236.0
1958.929565 208.0
1959.0448 142.0
1959.120728 127.0
1959.218262 150.0
1959.264526 162.0
1959.518433 210.0
1959.706055 140.0
1959.826538 262.0
1959.943848 210.0
1960.023682 222.0
1960.112305 257.0
1960.269775 238.0
1960.448853 355.0
1960.606934 442.0
1960.717773 483.0
1960.802002 329.0
1960.930664 339.0
1961.116333 1158.0
1961.269653 379.0
1961.340088 455.0
1961.473267 488.0
1961.58252 612.0
1961.761353 659.0
1961.82666 914.0
1961.887329 728.0
1961.988403 862.0
1962.107788 1779.0
1962.147827 1611.0
1962.26123 1307.0
1962.338745 1269.0
1963.146606 537299.0
1963.489136 162.0
1963.554199 140.0
1964.149414 569586.0
1964.445557 120.0
1965.151489 357577.0
1965.561646 146.0
1965.768433 1010.0
1966.152466 149265.0
1966.495728 128.0
1966.617676 401.0
1966.755127 581.0
1966.842407 614.0
1967.15625 42878.0
1967.448242 205.0
1967.526123 271.0
1967.652222 254.0
1967.736084 338.0
1967.920532 480.0
1968.159424 9653.0
1968.411133 217.0
1968.467529 134.0
1968.556396 126.0
1968.680298 249.0
1968.825439 247.0
1968.891113 283.0
1969.161499 1758.0
1969.455933 189.0
1969.543579 159.0
1969.677002 161.0
1969.770386 182.0
1969.976929 165.0
1970.151367 453.0
1970.395996 124.0
1970.474243 154.0
1970.606079 139.0
1970.756104 136.0
1970.868896 171.0
1971.01062 203.0
1971.135986 234.0
1971.240723 161.0
1971.444824 238.0
1971.576172 250.0
1971.724731 104.0
1971.794067 202.0
1971.85498 206.0
1971.925415 115.0
1972.009033 173.0
1972.078979 155.0
1972.182373 170.0
1972.258057 136.0
1972.351685 140.0
1972.477539 256.0
1972.538574 217.0
1972.60791 125.0
1972.690552 111.0
1972.769043 186.0
1972.848755 112.0
1972.972168 90.0
1973.031372 82.0
1973.123291 92.0
1973.220215 162.0
1973.27417 179.0
1973.448853 63.0
1973.587891 153.0
1973.674561 51.0
1973.729492 98.0
1973.825684 113.0
1973.921997 159.0
1974.016602 108.0
1974.127563 116.0
1974.194702 89.0
1974.279175 122.0
1974.334473 101.0
1974.452026 122.0
1974.545898 146.0
1974.639404 226.0
1974.703125 133.0
1974.878662 110.0
1975.12085 402.0
1975.49353 97.0
1975.612061 87.0
1975.678467 185.0
1975.756714 94.0
1975.885376 76.0
1976.14917 607.0
1976.428955 98.0
1976.641113 87.0
1976.736084 104.0
1976.924683 81.0
1977.014526 95.0
1977.176025 348.0
1977.663086 47.0
1977.790527 65.0
1977.909546 120.0
1978.069946 92.0
1978.152832 332.0
1978.225952 136.0
1978.42749 69.0
1978.515991 54.0
1978.749878 48.0
1979.029053 54.0
1979.150024 182.0
1979.303711 97.0
1979.620728 55.0
1980.122559 62.0
1980.201416 60.0
1980.276001 85.0
1980.402588 121.0
1980.931763 50.0
1981.146606 53.0
1981.269531 70.0
1981.446289 51.0
1981.913574 47.0
1981.993164 75.0
1982.118286 458.0
1982.208496 211.0
1982.412964 103.0
1982.653687 776.0
1982.812378 118.0
1982.960327 66.0
1983.109375 868.0
1983.455811 75.0
1983.630371 803.0
1983.895142 50.0
1984.088257 297.0
1984.140869 244.0
1984.302612 109.0
1984.430176 92.0
1984.681763 359.0
1984.800049 166.0
1985.125854 4777.0
1985.559082 101.0
1985.704224 179.0
1985.768188 136.0
1986.138184 5373.0
1986.369019 73.0
1986.432007 55.0
1986.593628 98.0
1986.741821 98.0
1986.884644 173.0
1987.133789 2616.0
1987.539185 48.0
1987.664062 66.0
1987.797607 114.0
1987.909546 146.0
1988.141479 1038.0
1988.430176 69.0
1988.587036 72.0
1989.127686 375.0
1989.696899 50.0
1989.993896 52.0
1990.132202 75.0
1990.180054 104.0
1990.612793 57.0
1991.008789 56.0
1991.114502 101.0
1992.156738 103.0
1992.56897 96.0
1992.919312 57.0
1993.149414 259.0
1993.350708 86.0
1994.157104 176.0
1995.215576 109.0
1995.316528 69.0
1996.146118 65.0
1996.742554 55.0
1998.096436 74.0
1998.578369 52.0
1999.274902 47.0
1999.498413 61.0
1999.996338 56.0
2000.263428 50.0
2001.072388 53.0
2001.446899 66.0
2001.587646 47.0
2003.11438 101.0
2003.42334 47.0
END IONS
