BEGIN IONS
PEPMASS=693.284
CHARGE=1
MSLEVEL=2
SOURCE_INSTRUMENT=LC-ESI-qTof
FILENAME=euphodendroidin_J.mgf
SEQ=*..*
IONMODE=Positive
ORGANISM=GNPS-LIBRARY
NAME=euphodendroidin J M+H
PI=LITAUDON/TOUBOUL
DATACOLLECTOR=Esposito
SMILES=C[C@@]1(O)C[C@](O)(C([C@@H](C)/C=C/C(C)(C)[C@H](OC(C)=O)[C@H](OC(C)=O)[C@@H](OC(C2=CC=CC=C2)=O)C([C@@H]3O)=C)=O)[C@]3([H])[C@H]1OC(C4=CC=CC=C4)=O
INCHI=
INCHIAUX=
PUBMED=N/A
SUBMITUSER=lfnothias
TAGS=
LIBRARYQUALITY=1
SPECTRUMID=CCMSLIB00000840318
SCANS=1
50.096485 20.81818
57.032661 131.129593
69.069244 286.596008
83.008926 305.424194
93.067871 209.542404
93.096275 21.148809
95.084351 30.1875
97.025101 161.363205
97.06398 107.207603
97.564026 29.13587
99.042412 115.1082
105.032578 732.69989
105.070564 66.025002
105.089439 18.225
105.194038 19.11364
105.235535 16.625
105.517807 43.56105
107.08493 216.543503
109.026123 116.420502
111.042984 221.098907
117.317039 35.6875
119.084717 116.125
133.09816 80.130432
141.055389 60.680561
142.708893 32.44643
143.084061 231.430695
145.061188 54.78241
145.099503 220.824997
145.150375 18.05921
145.440155 21.875
145.481888 22.816669
149.096344 133.847794
157.097488 83.657608
159.079849 175.152405
163.069824 155.041107
165.071899 266.347595
166.012466 17.25
167.083359 64.181824
169.100418 167.005295
171.111069 19.91848
173.128128 38.007351
173.352844 21.008329
179.086304 61.008339
179.505005 30.26667
179.661804 16.680559
180.088989 159.046494
181.098877 37.83696
183.077377 202.487305
183.115891 226.315903
185.093338 81.454536
187.074173 93.805
187.107864 102.960197
187.656754 51.76862
187.671326 21.56818
189.771271 28.890631
193.101105 89.111267
194.106857 166.421494
195.114532 483.321014
196.122925 258.059204
196.336884 53.125
196.67572 21.375
197.094269 50.46154
197.131653 94.756104
198.13475 83.449471
207.118454 486.266296
209.131775 246.688904
210.10289 176.342407
210.131287 27.56818
211.069321 107.254501
211.109787 222.010406
213.124481 112.048103
220.124008 306.226013
220.171204 16.28409
221.09314 49.367649
221.128571 58.029411
221.470245 28.03409
222.098312 89.810707
222.135239 147.319794
222.17543 16.049999
223.110199 51.27174
224.115753 221.796707
225.124893 155.628601
225.161835 239.256195
226.942856 59.43919
227.139069 145.680099
234.135315 61.633339
235.114197 102.408798
235.144302 131.227097
235.802719 34.573978
237.120651 202.844101
237.16217 191.588196
239.103348 115.141899
239.178619 68.480263
240.156403 25.009609
242.059143 45.80645
243.175461 29.066669
245.113358 78.041656
249.127441 160.641998
249.162949 745.320984
249.572037 70.248528
249.615891 29.084459
249.645569 18.777781
250.162079 99.513893
250.743439 29.75
251.143738 161.795105
251.178558 314.0401
253.12941 125.456802
253.157501 631.893188
253.690491 40.25
253.740677 31.787161
254.127457 204.236801
254.157944 107.307701
257.147003 44.875
259.147003 329.005188
262.133087 58.111839
265.157867 79.032143
265.413025 21.1875
267.174988 1039.073975
267.264557 19.04167
267.502014 29.694441
267.554749 32.027439
267.660614 47.160709
268.114471 51.57143
268.172791 142.257004
270.299835 20.004311
271.16449 29.347219
274.389587 22.23077
277.158264 925.937988
278.160858 74.001923
278.206879 17.0
278.613342 34.18182
280.143158 51.133339
285.445374 30.026159
287.138458 108.109596
289.15799 76.945312
289.435089 22.32143
293.921234 17.405001
295.167206 1772.350952
295.390472 39.044998
295.576843 25.04167
296.027802 18.225
296.164154 37.56403
298.220703 24.140631
304.141785 87.102531
311.142242 66.246948
313.179596 327.510193
317.149689 538.532593
317.315765 27.57095
317.520721 45.934319
317.9245 20.360291
318.637573 25.680559
319.377258 26.0
322.327087 16.56818
325.177216 88.680817
327.195496 75.887657
327.523438 39.285709
331.191711 21.32143
334.174377 52.689659
335.158966 124.3853
335.773956 18.777781
337.177582 114.57
341.208618 51.5
341.439484 26.04167
343.480316 45.04348
349.175903 115.355103
354.02652 20.5625
355.190186 274.085388
357.513672 16.027781
369.203766 254.1418
377.170074 355.126801
379.368317 20.02083
381.628906 61.0
387.214691 24.89286
389.095825 20.032141
391.186584 1475.488037
391.269867 30.408331
391.827698 16.242649
392.185364 55.036018
407.206573 99.481003
409.197632 819.058472
409.265167 33.450001
410.176697 36.939522
417.203827 88.595718
429.225861 75.755432
429.958588 27.07622
435.358704 21.01786
437.192535 351.004211
437.469421 32.520161
437.510803 25.68145
438.1922 47.599998
439.196198 24.242649
439.668121 49.694229
443.38324 41.0
451.209076 1699.001953
451.645935 39.939522
451.66922 58.69397
451.887024 23.21121
451.984375 21.33333
452.021423 17.0625
452.206482 90.646507
452.978363 30.31579
455.202911 796.003784
456.002197 22.15
456.19577 24.066669
459.823425 31.17308
469.219025 286.753113
470.217712 79.581398
477.223663 26.728451
481.190887 51.289291
483.234497 101.198502
484.127716 19.0
484.771942 36.529411
485.020935 35.205002
499.209473 252.079697
508.658417 30.43214
511.228241 2544.114014
511.369324 18.14286
511.442871 85.102943
511.993164 27.5625
512.094116 18.11574
512.23114 284.117493
512.719666 20.53125
513.225647 1548.426025
513.323364 20.1
513.433777 22.004999
513.7146 31.480261
513.763855 24.08333
513.861267 37.223679
514.120605 34.714291
514.229553 439.222412
515.154907 26.605
515.225281 29.07692
515.889099 38.471149
516.529602 16.02273
525.909424 16.5
531.232117 54.326611
532.021912 47.355389
543.255737 36.816669
546.090454 30.85227
551.257202 644.493408
559.228882 373.104095
559.409119 27.160721
570.626648 18.595591
571.24646 170.348801
573.080383 30.55603
573.111633 21.25
573.195312 30.140631
573.245117 5773.472168
573.380493 59.56403
573.411987 31.5
573.449463 26.5
573.483337 37.285709
573.553406 18.125
573.625671 82.061272
573.738464 27.778219
573.805359 82.083344
573.903687 32.005001
573.948914 61.456902
574.010437 19.339279
574.112305 34.097832
574.162231 49.052971
574.247375 515.451172
574.351318 21.242649
574.820984 22.03125
574.934082 105.5625
575.004395 36.048908
575.8703 59.003201
586.43866 17.654409
591.248901 24.11574
605.272827 620.25531
629.093445 29.605
630.169739 18.005951
631.243469 34.066669
631.366089 17.226851
632.682007 52.35577
633.266479 15961.040039
633.436829 81.778061
633.469299 96.380737
633.511169 47.654072
633.565735 64.245689
633.614014 65.625
633.67511 44.285709
633.763611 101.113602
633.855957 40.23214
633.922241 89.0
633.964661 59.409088
634.003052 47.599998
634.053406 71.030403
634.120422 60.67046
634.186951 41.450001
634.270081 1847.824951
634.419861 24.13587
634.458435 87.541656
634.525208 32.360291
634.561768 21.107759
634.65332 19.32143
634.692322 16.240391
634.754639 49.05682
634.913452 42.061279
635.02063 31.16667
635.169006 25.125
635.289612 30.40909
635.501465 46.390629
635.589539 18.111839
635.859009 18.025
636.149902 20.94231
636.240479 29.69397
636.361877 44.333328
636.41272 111.0298
636.656677 63.114281
637.616577 19.48214
638.37207 29.00543
639.683594 21.0
648.391968 47.80278
693.287048 5949.217773
693.421448 41.284088
693.495239 55.228779
693.584961 34.125
693.63147 161.040802
693.717468 70.656807
693.7948 58.00544
693.898804 20.33333
694.050232 73.046638
694.159729 27.04891
694.179993 35.028851
694.288574 433.271912
694.426575 60.190479
694.494751 29.55682
694.530945 32.11364
694.588623 49.637199
694.809998 33.391129
694.877075 28.387819
694.943726 24.92308
694.978027 34.727268
695.102478 58.625
695.776367 20.326611
695.924133 29.575001
696.023621 21.56818
696.181824 60.375
696.672913 31.66667
696.945923 23.778851
724.87146 78.556824
735.317993 28.055559
737.802002 42.23148
765.209961 26.04891
786.807373 21.10227
790.143921 39.200001
798.390259 36.125
799.074402 26.04167
944.62323 26.01786
970.572693 28.6
END IONS
