BEGIN IONS
PEPMASS=494.26
CHARGE=2
MSLEVEL=2
SOURCE_INSTRUMENT=LC-ESI-Orbitrap
FILENAME=f.Rolandoo1/20190519 Moroidin paper GNPS/Moroidin.mzXML;
SEQ=*..*
IONMODE=Positive
ORGANISM=GNPS-LIBRARY
NAME=Moroidin M+H
PI=Jing-Ke Weng
DATACOLLECTOR=Roland Kersten
SMILES=O=C1CC[C@@H](C(N[C@H](C(N[C@@H](CC(C)C)C(N[C@@H](C(C)C)C(N[C@@](C(N[C@H](C(NCC(N[C@@H](CC2=CN3C=N2)C(O)=O)=O)=O)CCCNC(N)=N)=O)([H])CC4=C3NC5=C4C=CC6=C5)=O)=O)=O)[C@@H]6C(C)C)=O)N1
INCHI=
INCHIAUX=
PUBMED=
SUBMITUSER=Rolandoo1
TAGS=
LIBRARYQUALITY=3
SPECTRUMID=CCMSLIB00005435899
SCANS=1
69.068024 0.166624
69.068565 351.412048
69.069107 887.115784
69.069656 1251.267578
69.070198 1194.85022
69.07074 769.852173
69.071289 187.479126
69.747917 1765.080078
69.748466 4110.66748
69.749016 5882.916016
69.749573 5697.204102
69.750122 3741.93042
69.750679 1459.943359
69.751228 47.39679
70.062706 234.845581
70.063263 2779.785645
70.06382 7641.291504
70.064377 17588.443359
70.064934 29127.705078
70.065483 31518.216797
70.06604 21398.28125
70.066597 9155.352539
70.067154 2770.642578
70.067711 0.857649
72.075844 39.077202
72.076424 4743.499023
72.077003 6599.648926
72.077583 16528.046875
72.078163 21644.326172
72.078743 60287.1875
72.079323 208218.8125
72.079903 476836.28125
72.080482 766514.0625
72.081062 844446.9375
72.081642 577940.25
72.082222 302057.65625
72.082809 87179.671875
72.083389 23813.300781
72.083969 15450.157227
72.084549 11558.458008
72.085129 3879.769287
73.082512 81.85952
73.083107 896.081238
73.083694 1567.736816
73.08429 1838.501709
73.084885 1510.12439
73.085472 825.819275
73.086067 235.522568
81.573822 60.12537
81.574524 588.371033
81.575226 963.551453
81.57592 1105.693237
81.576622 911.494751
81.577316 481.620148
84.038528 505.930939
84.039253 10009.581055
84.039986 7926.641113
84.040718 10460.367188
84.041451 19169.251953
84.042175 65681.726562
84.042908 203335.734375
84.04364 370047.71875
84.044373 513438.21875
84.045097 444260.0
84.04583 268481.15625
84.046562 109498.3125
84.047295 28538.525391
84.048027 8140.837891
84.048752 5962.790527
84.049484 1633.069092
84.050217 1100.603149
84.050949 344.653015
85.046112 112.342026
85.046852 945.650696
85.0476 1268.194336
85.04834 1233.188354
85.049088 862.373352
85.049828 384.653198
86.08934 200.767548
86.090103 2675.376465
86.090858 11538.912109
86.091614 30905.146484
86.092369 49818.277344
86.093132 74805.046875
86.093887 235535.140625
86.094643 724863.75
86.095406 1456413.75
86.096161 2151443.0
86.096916 2127409.75
86.097672 1373418.625
86.098434 668683.875
86.09919 194150.765625
86.099945 63136.375
86.100708 43863.613281
86.101463 25992.644531
86.102219 8489.885742
86.102974 3914.719727
87.092514 88.366966
87.093285 858.7854
87.094055 1310.192749
87.094826 1540.190063
87.095596 1314.277344
87.096367 487.994507
87.097137 3800.37915
87.097908 12787.925781
87.098679 25489.630859
87.099449 37202.519531
87.10022 34714.84375
87.10099 20482.435547
87.101761 7598.891602
87.102531 848.86499
87.103302 344.761627
92.381439 68.327858
92.382278 1100.562622
92.383125 5476.66748
92.383965 10523.624023
92.384804 10487.581055
92.385651 3639.302246
98.434265 70.072655
98.435188 524.644714
98.436119 967.289978
98.437042 1118.485229
98.437973 870.669189
98.438896 408.396881
99.882645 356.654572
99.883591 2906.786133
99.884537 4132.731934
99.885483 4510.649902
99.886429 3844.002686
99.887375 2327.749512
100.073174 144.024475
100.07412 894.12854
100.075073 1420.416992
100.076019 1499.783325
100.076973 1057.017334
100.077919 435.835663
102.05085 51.531075
102.051826 417.090118
102.052811 1067.394775
102.053787 1730.447754
102.054764 1978.162354
102.05574 1608.307373
102.056717 875.404968
102.057693 274.072693
110.068329 343.716614
110.069427 2723.004883
110.070518 4837.958496
110.071617 5670.605469
110.072708 4537.334961
110.073807 2224.828857
112.081825 104.882179
112.082954 1011.820679
112.084076 4550.776367
112.085205 10996.932617
112.086327 17468.126953
112.087456 19411.328125
112.088577 14955.12207
112.089706 8296.303711
112.090828 2956.39624
112.689621 402.094025
112.690758 2592.509033
112.691895 4570.408203
112.693031 5331.467773
112.69416 4288.207031
112.695297 2135.636963
114.051697 155.650681
114.052849 858.864868
114.054001 1220.483154
114.055161 1227.303223
114.056313 862.276489
114.057472 348.581726
115.083076 542.031921
115.084251 3759.849365
115.085419 6912.285156
115.086594 8629.047852
115.087761 7587.400391
115.088936 4543.693848
115.090103 1562.404907
129.060837 1199.350098
129.062225 6469.827637
129.063614 15942.179688
129.065002 28799.982422
129.066391 31770.326172
129.067795 22658.998047
129.069183 11707.250977
129.070572 3503.512207
129.416092 109.159302
129.41748 553.632202
129.418884 1061.598999
129.420273 1335.747192
129.421677 1170.98291
129.423065 608.164185
138.990768 676.269409
138.992325 2887.224121
138.993881 4697.544922
138.995438 5432.422363
138.996994 4585.492676
138.99855 2313.52002
140.138306 215.213715
140.139877 887.237061
140.141449 1609.146851
140.143021 1984.863892
140.144608 1724.092773
140.146179 1022.15979
140.147751 332.294891
140.902786 966.297302
140.904373 3492.318359
140.90596 4622.25293
140.907547 4651.400391
140.909134 3570.933594
140.910721 1734.900513
141.061508 160.298569
141.06311 642.53949
141.064697 1101.574463
141.066284 1207.564941
141.067871 871.54364
141.069458 342.932526
143.27478 201.759293
143.276398 739.014526
143.27803 1108.623047
143.279648 1174.505859
143.281281 919.400208
143.282898 435.960388
156.072418 237.898239
156.074265 827.843445
156.076111 1322.814575
156.077972 1442.384888
156.079819 1093.763062
156.081665 444.513733
158.778687 387.495636
158.780594 1103.523682
158.782486 1493.560547
158.784378 2437.676758
158.786285 5056.458984
158.788177 8466.814453
158.79007 10391.624023
158.791977 9303.96582
158.793869 6124.693359
158.795776 2305.658203
158.845108 957.715027
158.847015 3567.043945
158.848907 6162.974609
158.850815 7300.296387
158.852707 6094.807617
158.854599 3455.269775
158.856506 1087.474854
171.989319 309.78952
171.991455 851.526794
171.993591 1243.981689
171.995743 1383.663818
171.997879 1249.35498
172.000015 918.630615
172.002151 365.607391
173.193314 989.086914
173.19548 3180.418213
173.197632 5037.952148
173.199799 5643.040039
173.201965 4642.117188
173.204117 1827.089722
183.379822 333.1987
183.382187 838.965393
183.384537 1140.554688
183.386887 1109.212158
183.389252 735.539307
183.391602 197.610641
185.151535 335.844147
185.153931 1462.411255
185.156311 12026.50293
185.158707 51891.539062
185.161087 115702.226562
185.163483 184660.984375
185.165863 199031.421875
185.168259 146945.671875
185.170654 78015.335938
185.173035 29659.361328
185.17543 9924.979492
185.177811 6223.855469
185.180206 8784.853516
185.182602 6690.808594
185.184982 1433.989624
186.421768 512.327454
186.424194 1161.136353
186.426605 1408.341064
186.429016 1214.110962
186.431427 705.129761
186.433838 198.270447
197.095139 545.790161
197.097763 3124.091553
197.100372 6212.980469
197.102997 7850.320801
197.105621 7554.51123
197.108246 5598.910156
197.11087 1872.965576
213.15036 3099.94873
213.15332 12237.558594
213.156265 23564.40625
213.15921 31788.478516
213.16217 27958.558594
213.165115 17538.871094
213.168076 7466.250488
213.171021 1700.969482
213.173981 119.691376
215.105347 490.901672
215.108337 1128.938477
215.111328 1554.499146
215.114319 1496.688599
215.11731 967.132812
215.1203 227.344772
226.383438 2046.839722
226.386673 4347.590332
226.389908 5403.125488
226.393127 4675.988281
226.396362 2803.277344
226.399597 675.798828
232.133194 672.882935
232.136551 1277.998779
232.139908 1541.020264
232.14325 1349.314209
232.146606 834.244141
232.149963 146.613434
253.873138 538.641968
253.876968 1115.751953
253.880798 1367.973999
253.884644 1119.547729
253.888474 597.397095
253.892319 70.869324
294.167297 26.24098
294.172089 592.054077
294.176849 1124.817017
294.181641 1386.80127
294.186432 1199.939697
294.191223 700.346924
294.195984 35.771572
299.648804 63.545185
299.653717 1697.863525
299.65863 4677.958008
299.663544 7826.638672
299.668457 8901.467773
299.673401 7079.346191
299.678314 3747.859375
304.13501 115.388962
304.140045 2575.290771
304.145081 7523.6875
304.150085 18385.810547
304.155121 31260.507812
304.160156 38057.917969
304.165192 27632.560547
304.170227 14604.182617
304.175262 4197.940918
304.180267 221.74855
304.573029 67.430321
304.578064 801.648438
304.58313 1292.612549
304.588165 1432.807129
304.593201 1111.135254
304.598236 571.236938
308.126953 218.49762
308.13208 3026.257568
308.137207 4431.076172
308.142334 4991.731445
308.147461 4454.376465
308.152588 2912.050781
308.157715 267.143707
308.162842 3681.759033
308.167969 8736.604492
308.173096 18315.8125
308.178223 27472.824219
308.18338 26718.501953
308.188507 16803.546875
308.193634 6780.759766
308.198761 2334.095459
310.136902 14.442089
310.14209 607.905579
310.147278 5750.816895
310.152435 11624.34082
310.157623 16540.400391
310.162811 16212.631836
310.167999 11341.416992
310.173157 5464.243164
310.178345 435.454071
316.681305 118.73365
316.686646 1066.439209
316.691986 1745.037598
316.697327 1818.378296
316.702698 1274.769043
316.708038 557.402161
318.64621 42.332424
318.651611 719.602539
318.657013 5581.572754
318.662384 19257.386719
318.667786 33357.574219
318.673187 40857.113281
318.678589 29912.308594
318.68396 16164.734375
318.689362 4699.332031
318.694763 168.023529
319.646362 80.980034
319.651794 693.967407
319.657196 1309.329956
319.662628 1687.276367
319.66806 1537.253296
319.673462 916.602417
322.159241 146.694809
322.164703 1172.582275
322.170197 2125.18042
322.17569 2659.476807
322.181152 2380.116455
322.186646 1517.887939
322.192139 609.976685
322.669739 59.120087
322.675262 527.039612
322.680756 1367.831177
322.686249 2308.640625
322.691742 2763.703369
322.697235 2351.636475
322.702728 1341.012451
322.708221 434.915283
328.157867 85.213074
328.163513 657.246399
328.169128 1493.173096
328.174774 2165.123535
328.18042 2138.162842
328.186066 1421.379761
328.191681 556.683167
330.669312 158.94548
330.675018 1755.987183
330.680725 7067.79834
330.686401 11767.862305
330.692108 13464.173828
330.697815 9639.348633
330.703522 4271.743652
330.709229 383.633698
331.160187 92.683044
331.165924 697.987793
331.171631 1692.04895
331.177338 3083.75293
331.183044 4859.351562
331.188782 2860.91748
331.194489 1931.925659
331.200195 884.46228
332.645203 92.926117
332.65094 1321.457397
332.656708 6203.794922
332.662445 12773.02832
332.668213 17955.658203
332.67395 16733.775391
332.679718 10730.131836
332.685486 4517.680664
332.691223 306.492188
333.683136 84.646568
333.688904 588.128784
333.694702 1250.966064
333.70047 1644.145996
333.706268 1448.877197
333.712036 773.439453
334.360413 103.410904
334.366211 692.449036
334.372009 1358.89917
334.377808 1578.608398
334.383606 1215.411621
334.389404 578.674438
336.66806 757.618958
336.67392 5603.046875
336.679779 13214.272461
336.685638 23252.347656
336.691498 28978.451172
336.697327 22562.501953
336.703186 12090.743164
336.709045 3476.07373
337.166504 571.509155
337.172363 3962.941895
337.178223 7710.785156
337.184113 9946.637695
337.189972 9429.808594
337.195862 6660.936035
337.201721 3108.057129
340.156738 500.448853
340.162689 3608.556885
340.16864 7001.52002
340.174591 9310.46582
340.180542 8700.578125
340.186462 5559.635254
340.192413 2125.430176
342.194397 753.002441
342.200378 4916.30127
342.20639 8270.696289
342.212402 8843.584961
342.218384 6243.746582
342.224396 2633.323242
343.144745 167.20993
343.150757 938.100647
343.156799 1433.942993
343.162811 1574.77771
343.168854 1208.821167
343.174866 531.199219
344.171692 773.994385
344.177734 4716.291992
344.183777 7074.819824
344.18985 7404.237793
344.195892 5427.741211
344.201965 2471.36499
345.184998 129.578247
345.191101 1324.71106
345.197174 5070.727051
345.203247 8414.353516
345.20932 9081.354492
345.215424 6703.128418
345.221497 2795.731445
345.672028 1391.633667
345.678101 9437.107422
345.684204 25043.068359
345.690308 42432.050781
345.696381 49521.0625
345.702484 38773.5
345.708588 21902.794922
345.714691 8649.680664
345.720764 2219.614502
347.169922 222.399277
347.176056 1181.283569
347.18219 1774.493164
347.188324 1802.035278
347.194458 1226.750488
347.200592 477.715454
350.661591 152.011383
350.667816 862.544739
350.674042 1755.658569
350.680267 2671.108398
350.686493 3054.591309
350.692719 2558.721924
350.698944 1450.27124
350.70517 463.036102
351.160248 908.338379
351.166473 5425.194824
351.172729 10486.27832
351.178955 14571.027344
351.185211 14817.481445
351.191437 10275.970703
351.197693 4174.230957
351.203918 395.583954
352.15448 145.90892
352.160736 788.604553
352.167023 1429.223999
352.173279 1743.32605
352.179535 1459.86438
352.185822 726.686157
352.681427 82.263069
352.687714 1408.181763
352.694 6163.612793
352.700287 9526.889648
352.706543 9998.342773
352.71283 7390.352051
352.719116 3415.569092
352.725403 425.40448
353.178101 84.851044
353.184387 560.790466
353.190704 1413.55188
353.196991 2108.677002
353.203278 2107.080811
353.209564 1420.406738
353.215881 558.125305
353.656921 101.190689
353.663208 2312.329834
353.669525 15102.740234
353.675842 57089.929688
353.682129 129847.242188
353.688446 198368.21875
353.694763 216408.625
353.70105 157102.84375
353.707367 83570.476562
353.713684 28825.214844
353.719971 8370.946289
353.726288 2110.345703
354.168274 420.726807
354.174622 3459.931396
354.180939 11860.199219
354.187256 22780.388672
354.193573 31918.251953
354.19989 31298.716797
354.206207 17399.089844
354.212524 8867.149414
354.218842 2827.665283
359.660339 715.579529
359.666809 5264.343262
359.673279 22088.701172
359.679749 58247.761719
359.686218 100855.765625
359.692688 126380.523438
359.699158 105347.71875
359.705627 61694.527344
359.712097 25640.318359
359.718567 6780.510254
359.725037 1350.109741
360.171844 1081.25061
360.178314 5725.949707
360.184784 10621.65918
360.191284 14862.739258
360.197754 15959.182617
360.204254 11050.678711
360.210724 5853.578613
360.217194 1900.177856
362.189545 164.475555
362.196075 846.600403
362.202606 1640.082642
362.209137 2055.160156
362.215698 1709.536377
362.222229 752.414551
363.671204 706.570618
363.677795 2971.703613
363.684357 6165.76123
363.690948 8946.291016
363.69751 9134.30957
363.704102 6424.012207
363.710663 3241.36377
363.717255 1109.268433
363.723846 326.893036
364.184692 149.481659
364.191284 778.679504
364.197876 1608.235107
364.204468 2268.471436
364.21106 2367.025635
364.217651 1894.274658
364.224243 1167.689453
364.230835 478.228027
364.705872 244.585419
364.712494 1117.000977
364.719086 1668.688354
364.725708 1718.145386
364.7323 1193.421143
364.738892 463.960419
365.201721 488.334412
365.208313 2804.482422
365.214935 5726.464355
365.221558 7616.793945
365.22818 7222.474609
365.234802 4820.593262
365.241425 1925.457764
368.16452 582.484131
368.171204 2316.039795
368.177917 10574.850586
368.184601 60169.375
368.191315 167381.0625
368.197998 313063.09375
368.204712 422016.78125
368.211395 385137.4375
368.218109 239669.140625
368.224823 110723.617188
368.231506 32863.0625
368.23822 12087.672852
368.244904 8142.009766
368.251617 3827.383057
368.258301 1085.395752
368.265015 142.747574
368.674133 60.965591
368.680847 1791.640381
368.687561 12110.133789
368.694275 30497.902344
368.700989 50199.246094
368.707703 56568.15625
368.714417 43582.820312
368.72113 24576.392578
368.727844 10072.529297
368.734558 2825.733398
369.17807 212.087585
369.184784 902.740967
369.191528 1300.853271
369.198242 1437.724609
369.204987 1230.35498
369.2117 656.746704
370.696106 167.488831
370.702881 1936.80603
370.709656 7376.491211
370.716431 12591.585938
370.723175 13916.259766
370.72995 10106.712891
370.736725 4453.210938
370.7435 560.123901
371.699768 171.184082
371.706543 769.448181
371.713348 1273.209473
371.720154 1471.745483
371.726959 1195.414551
371.733734 562.582764
372.182678 110.434654
372.189484 1534.582886
372.19632 6135.155273
372.203125 11490.115234
372.20993 14987.808594
372.216736 12226.780273
372.223541 7558.692383
372.230347 2756.050781
373.178711 760.634827
373.185547 3969.664795
373.192383 7998.910156
373.199219 10704.617188
373.206055 10175.266602
373.212891 6820.357422
373.219727 2716.789307
374.151276 283.556396
374.158142 2622.89209
374.165009 14595.054688
374.171875 44211.324219
374.178741 86270.414062
374.185608 117996.835938
374.192474 110525.023438
374.199341 71336.601562
374.206207 33909.6875
374.213043 9804.686523
374.21991 1875.340454
374.226776 137.769058
374.666504 1038.339844
374.67337 5334.492188
374.680267 10609.225586
374.687134 14289.046875
374.694 13571.374023
374.700897 9033.474609
374.707764 3579.186279
377.668915 197.835175
377.675873 933.21283
377.682831 1828.161987
377.689789 2487.375732
377.696747 2402.286621
377.703705 1628.763184
377.710663 603.204346
378.17746 402.196564
378.184448 3619.408203
378.191406 14195.392578
378.198395 29970.46875
378.205353 42467.789062
378.212341 41992.484375
378.219299 28244.746094
378.226288 14009.125
378.233276 3479.52417
379.204681 244.733765
379.21167 2559.109375
379.218689 10323.550781
379.225677 22424.585938
379.232666 32254.837891
379.239685 31169.554688
379.246674 19419.060547
379.253693 8650.108398
379.260681 2239.605957
379.702301 814.550293
379.70932 4324.276855
379.716339 9562.845703
379.723358 14521.038086
379.730377 16413.533203
379.737396 13126.248047
379.744385 7246.272949
379.751404 2509.590088
379.758423 433.248016
380.214966 256.45163
380.222015 1183.432983
380.229034 2806.218506
380.236053 5076.089355
380.243103 5449.300781
380.250122 3623.599365
380.257141 1490.670654
380.264191 470.06897
381.194031 1049.6604
381.20108 4292.549316
381.20813 6090.128906
381.21521 6794.791016
381.22226 6107.987793
381.229309 4226.402832
381.236389 1805.467407
382.17688 160.104004
382.18396 770.160583
382.19104 1593.039185
382.19812 2251.282959
382.2052 2325.833252
382.212311 1768.675049
382.219391 806.625916
386.693909 310.017548
386.701141 1183.268066
386.708344 1807.053345
386.715546 2110.908691
386.722748 1970.442017
386.72998 1488.568359
386.737183 703.068115
387.69812 268.566223
387.705353 2168.849121
387.712585 6990.905762
387.719849 12808.482422
387.727081 15958.800781
387.734314 13650.454102
387.741547 8556.338867
387.74881 3496.073242
387.756042 133.3069
388.154541 140.019226
388.161804 1953.398438
388.169067 9727.491211
388.1763 24352.994141
388.183563 37141.175781
388.190826 38560.285156
388.198059 26249.367188
388.205322 13166.483398
388.212555 3407.143555
388.219818 1461.155029
388.227081 2990.77124
388.234344 4702.70459
388.241577 5288.794922
388.24884 3736.25293
388.256104 1467.024048
388.263336 505.204559
388.669922 1403.483521
388.677185 5561.430664
388.684448 8301.725586
388.691711 8924.486328
388.698975 7142.177734
388.706238 3424.631836
392.173737 777.795654
392.181091 5058.768555
392.188477 15600.836914
392.195831 31245.607422
392.203186 44377.722656
392.210571 44176.84375
392.217926 29728.816406
392.225281 14434.085938
392.232666 3763.720947
392.240021 476.606354
392.689758 365.889954
392.697113 2715.842041
392.704498 6692.711914
392.711884 7655.879883
392.719269 7030.923828
392.726654 4875.850586
392.734009 2048.313232
393.199371 231.073318
393.206757 2851.912598
393.214172 11890.773438
393.221558 26318.439453
393.228943 37690.140625
393.236359 36538.710938
393.243744 23919.890625
393.251129 11450.248047
393.258545 2735.616699
393.26593 47.716724
393.69519 752.791382
393.702606 4246.011719
393.709991 12010.09082
393.717407 24431.583984
393.724823 33914.523438
393.732239 31287.044922
393.739624 18756.615234
393.74704 7587.941406
393.754456 2146.642822
394.206787 311.593109
394.214203 1174.98291
394.221619 1774.134644
394.229034 1899.134521
394.236481 1398.746948
394.243896 576.097717
395.188263 140.729004
395.195709 1744.951782
395.203156 6138.028809
395.210602 10263.177734
395.218048 11682.456055
395.225525 9454.462891
395.232971 4847.993164
395.240417 642.579163
396.173401 159.574371
396.180878 781.635986
396.188354 1756.066284
396.195831 2632.043213
396.203308 2755.045654
396.210815 2031.391846
396.218292 1007.23175
396.225769 306.207458
400.682922 23.96085
400.690521 1732.527466
400.69812 6498.007812
400.70575 16109.438477
400.713348 29338.140625
400.720947 38275.503906
400.728546 31980.779297
400.736176 18063.386719
400.743774 5895.924316
400.751373 874.49939
401.177704 588.56604
401.185333 7220.178711
401.192963 26998.529297
401.200592 52677.367188
401.208191 73982.71875
401.21582 69470.757812
401.22345 47065.207031
401.231049 23396.759766
401.238678 8413.679688
401.246307 2350.771729
401.719238 414.488892
401.726868 1238.919189
401.734497 1452.190552
401.742157 1669.02356
401.749786 1669.717163
401.757416 1280.955811
401.765045 576.101257
402.193024 260.109924
402.200653 2210.340088
402.208313 10594.917969
402.215973 39702.164062
402.223602 98870.351562
402.231262 166232.296875
402.238892 203006.203125
402.246552 164685.5
402.254211 94049.789062
402.261841 36944.179688
402.269501 9959.397461
402.277161 2811.614014
402.705933 111.456924
402.713593 1598.918823
402.721252 7004.669922
402.728912 17009.941406
402.736603 27135.085938
402.744263 25391.064453
402.751923 13841.608398
402.759583 6784.407227
402.767242 1989.629639
406.223083 1523.99707
406.230865 5275.790527
406.238617 6866.54248
406.246399 6223.680664
406.25415 3923.572021
406.261902 1401.348389
407.195282 660.865112
407.203064 3316.017334
407.210846 9412.397461
407.218658 19527.507812
407.22644 27431.505859
407.234222 26159.609375
407.242035 16143.864258
407.249817 6547.965332
407.257599 2026.639404
407.694397 205.238602
407.702179 2284.90625
407.709991 7080.567383
407.717804 10730.3125
407.725616 11447.823242
407.733429 8869.305664
407.741211 5069.174316
407.749023 1849.374146
408.20224 1411.177856
408.210052 5614.1875
408.217865 9389.666992
408.225677 10561.894531
408.233521 8317.477539
408.241333 4543.793457
408.249146 1466.098999
410.203735 197.945007
410.211609 893.8927
410.219513 2246.102295
410.227386 4229.681152
410.23526 5331.685059
410.243134 4345.583496
410.251007 2316.391846
410.258881 621.972778
414.691254 404.902222
414.699249 1881.962646
414.707275 4120.273926
414.715271 5589.256348
414.723267 4336.196777
414.731293 1712.981079
414.739288 409.041504
415.180145 1486.365845
415.188171 6706.654785
415.196198 15028.639648
415.204193 25021.775391
415.212219 28158.214844
415.220245 20225.841797
415.228271 9343.613281
415.236298 2982.38208
415.244324 255.484619
416.176636 123.101051
416.184662 2383.358887
416.192719 7064.422363
416.200775 21429.455078
416.208832 82436.914062
416.216888 223361.421875
416.224915 419280.625
416.232971 562127.0
416.241028 517281.84375
416.249084 329173.34375
416.257141 154390.390625
416.265198 47506.535156
416.273254 16831.724609
416.281311 9290.305664
416.289337 3527.295898
416.692352 142.437714
416.700409 2086.923828
416.708466 11172.595703
416.716522 36537.5625
416.724609 76123.023438
416.732666 109983.65625
416.740723 109880.9375
416.74881 74451.703125
416.756866 36571.597656
416.764923 11240.097656
416.77301 2486.160645
420.214966 1078.342896
420.223145 3872.627197
420.231323 6103.023438
420.239471 6671.109375
420.24765 5127.771973
420.255829 2186.951904
420.721863 754.46698
420.730042 3101.753906
420.73822 6006.944824
420.746399 8202.376953
420.754578 8339.734375
420.762756 6246.870605
420.770966 2665.137939
421.205048 1253.395386
421.213257 4632.029297
421.221436 7609.369141
421.229645 8481.331055
421.237854 6457.646973
421.246033 2666.294434
423.17923 1292.327637
423.1875 4340.28418
423.19574 6751.459473
423.20401 7795.985352
423.21225 6479.984375
423.22052 3680.393799
423.22876 1453.580444
423.23703 704.647156
423.666687 2153.515625
423.674957 6620.381348
423.683228 14305.586914
423.691498 49840.132812
423.699768 171278.90625
423.708038 386544.84375
423.716309 609217.9375
423.724579 684488.75
423.732849 517930.34375
423.741119 280822.0
423.74939 103484.523438
423.75766 28935.066406
423.76593 11040.936523
423.7742 6292.232422
423.782471 1529.177734
424.17981 893.272095
424.18811 4953.008789
424.196381 17879.039062
424.204681 49375.011719
424.212952 96218.21875
424.221252 133509.6875
424.229523 127310.078125
424.237823 81685.9375
424.246094 38277.574219
424.254395 10655.204102
424.262665 2202.249268
424.702179 110.827003
424.71048 1182.755981
424.718781 8653.180664
424.727081 33704.914062
424.735382 73416.679688
424.743683 110401.976562
424.751984 114935.789062
424.760284 81056.859375
424.768585 40512.777344
424.776886 12893.385742
424.785187 2904.614014
424.793488 120.839203
425.217194 941.875
425.225525 4836.806152
425.233826 11661.092773
425.242157 20901.089844
425.250458 24246.560547
425.258789 15552.886719
425.26709 7772.058105
425.275421 1942.444092
426.216675 1210.421265
426.225037 3937.914795
426.233368 5701.836426
426.24173 6187.518555
426.250061 5183.566406
426.258392 2500.630371
428.680359 879.350647
428.688782 3916.75708
428.697174 9277.045898
428.705597 16460.664062
428.71402 17960.251953
428.722443 11021.523438
428.730865 5776.080566
428.739288 2265.55127
428.747681 1537.078735
428.756104 2000.618286
428.764526 1688.607056
428.772949 942.346558
428.781372 283.934998
429.700531 287.121643
429.708954 1062.288086
429.717407 3605.229492
429.725861 9050.524414
429.734314 14375.432617
429.742767 15973.118164
429.75119 12355.131836
429.759644 6546.383301
429.768097 1706.707031
430.190826 374.886658
430.19928 5459.006836
430.207733 25361.552734
430.216217 61568.804688
430.22467 102485.078125
430.233124 120154.984375
430.241577 95671.296875
430.250061 54562.9375
430.258514 22183.076172
430.266968 6063.640137
430.275452 1266.944214
430.698914 1286.564819
430.707397 6596.87793
430.715851 17352.291016
430.724335 31539.523438
430.732819 37482.007812
430.741302 29977.365234
430.749756 16718.646484
430.75824 6314.70166
430.766724 1480.656738
434.710266 63.822769
434.718842 1479.240479
434.727448 5254.932617
434.736053 11515.712891
434.744629 17995.875
434.753235 21315.980469
434.761841 17395.951172
434.770416 10020.504883
434.779022 2766.409912
435.217773 243.996658
435.226379 1019.703369
435.234985 2021.079224
435.243591 2625.576416
435.252197 2437.900146
435.260834 1667.904785
435.26944 651.266113
435.734802 381.748932
435.743408 1150.365356
435.752045 1568.051514
435.760681 1464.716187
435.769287 891.457825
435.777924 275.736481
437.196045 2766.516602
437.204712 13271.53418
437.213379 28623.068359
437.222046 43374.722656
437.230713 44499.46875
437.23938 31772.548828
437.248047 16147.696289
437.256714 5825.267578
437.265381 1500.493652
437.655823 309.718262
437.66449 1071.065674
437.673187 1623.778809
437.681854 7556.968262
437.690552 36311.410156
437.699219 110399.625
437.707916 219998.640625
437.716583 310273.9375
437.725281 303579.28125
437.733948 204621.8125
437.742645 100373.828125
437.751312 31976.873047
437.76001 9885.645508
437.768707 3259.74292
437.777374 349.551636
438.185883 330.40271
438.19458 3740.803223
438.203278 13954.232422
438.211975 29141.941406
438.220673 39105.898438
438.22937 35263.820312
438.238068 21962.556641
438.246765 9756.223633
438.255463 2119.8396
438.699493 2079.423828
438.708191 5837.835938
438.716919 15125.4375
438.725616 42361.378906
438.734344 82933.570312
438.743042 114091.71875
438.75177 107295.007812
438.760498 68686.851562
438.769196 31274.060547
438.777924 8229.910156
438.786621 1435.847534
439.213989 365.339081
439.222717 3133.743652
439.231445 8508.136719
439.240173 13096.678711
439.248932 14164.880859
439.25766 10632.788086
439.266388 4903.861816
439.275116 666.489441
443.230133 301.205078
443.238983 2196.950928
443.247833 6639.414551
443.256683 10909.487305
443.265533 11200.852539
443.274384 7619.112305
443.283234 3139.50415
443.292084 446.681091
443.726044 1579.504272
443.734924 8695.917969
443.743774 20489.900391
443.752655 31252.207031
443.761505 33605.800781
443.770355 24394.617188
443.779236 12134.045898
443.788086 2438.81665
444.24057 261.377167
444.24942 879.035339
444.258301 1513.476685
444.267181 1911.325806
444.276062 1813.986572
444.284943 1299.482544
444.293823 558.299805
444.684814 118.001152
444.693695 3084.602295
444.702606 16497.0
444.711487 38544.796875
444.720367 61385.511719
444.729279 64589.777344
444.738159 46085.917969
444.74707 23031.580078
444.755951 8647.898438
444.764862 2269.584717
445.200989 348.059784
445.2099 1160.216919
445.218811 1879.918213
445.227722 2089.378662
445.236603 1640.608521
445.245514 899.605469
445.254425 200.729477
448.713287 388.101562
448.72229 4364.874512
448.731323 11758.901367
448.740326 18220.839844
448.749359 19614.875
448.758362 15147.286133
448.767365 8564.232422
448.776398 2982.30127
448.7854 293.278961
449.218445 458.05896
449.227478 1380.885254
449.236511 2019.718262
449.245514 2069.071777
449.254547 1490.218018
449.26358 564.055969
451.729706 396.363892
451.738831 1113.341431
451.747925 1471.410889
451.757019 1385.632935
451.766144 986.714539
451.775238 398.829529
452.705414 1531.562988
452.714539 8978.995117
452.723694 24612.439453
452.732819 44747.644531
452.741943 57715.570312
452.751099 50628.757812
452.760223 30780.685547
452.769348 13055.286133
452.778503 2392.567871
453.217316 313.628632
453.226471 1002.72522
453.235626 1553.239746
453.244781 1591.095215
453.253906 1058.092407
453.263062 364.000061
457.214203 1568.067261
457.22348 7174.140625
457.232758 26178.693359
457.242035 64850.433594
457.251282 114069.09375
457.260559 141857.375
457.269836 118982.148438
457.279114 70030.242188
457.288391 29598.789062
457.297668 8034.458008
457.306915 1619.84314
457.71521 949.531372
457.724487 8021.334473
457.733795 27828.880859
457.743073 56417.460938
457.75235 82092.53125
457.761658 85325.3125
457.770935 61998.175781
457.780212 32654.423828
457.78952 10791.884766
457.798798 1828.517822
458.217041 55.002399
458.226349 1103.848633
458.235657 6198.620117
458.244934 19009.078125
458.254242 38723.113281
458.26355 55836.078125
458.272858 56648.84375
458.282166 38918.21875
458.291473 19522.912109
458.300751 4855.124023
458.310059 163.155975
458.74765 967.547607
458.756958 3434.322754
458.766296 5981.404785
458.775604 7039.899902
458.784912 5793.978027
458.79422 2418.825439
462.714233 513.73999
462.723694 4034.339355
462.733124 9921.265625
462.742554 13998.068359
462.751984 13809.072266
462.761444 9465.696289
462.770874 3778.090576
462.780304 433.283295
465.701599 373.492096
465.711151 1059.102173
465.720673 1457.219116
465.730194 1394.338989
465.739716 955.723999
465.749268 349.297241
471.19104 456.409424
471.200745 1378.929077
471.210449 3621.558105
471.220154 13619.009766
471.229858 52888.960938
471.239532 131006.507812
471.249237 228966.046875
471.258942 281929.28125
471.268646 234164.109375
471.278351 137368.046875
471.288055 57631.152344
471.29776 15736.963867
471.307465 3813.976318
471.317169 612.965393
471.705505 2.26477
471.71521 3510.790039
471.724915 17915.248047
471.73465 51214.304688
471.744354 98779.335938
471.754059 136920.890625
471.763794 131418.96875
471.773499 87592.453125
471.783234 42139.667969
471.792938 12269.324219
471.802643 2039.575195
472.220795 2176.858887
472.230499 6634.217773
472.240234 11491.177734
472.249969 16182.859375
472.259705 17763.800781
472.26944 14628.066406
472.279175 8944.860352
472.28891 3277.076172
472.298645 231.401093
473.224609 357.023499
473.234375 1053.289551
473.244141 1537.627197
473.253906 1523.151489
473.263641 1044.412354
473.273407 362.049957
480.172211 233.182175
480.18219 1107.970703
480.192169 1944.688599
480.202148 2932.961914
480.212128 3983.94873
480.222107 24196.228516
480.232086 108745.226562
480.242065 297639.40625
480.252045 552953.875
480.262024 731573.0
480.272003 656499.75
480.281982 416844.53125
480.291962 189328.8125
480.301941 59240.652344
480.31192 21346.398438
480.321899 11325.05957
480.331879 4161.541016
480.341888 290.210297
480.711426 198.805862
480.721436 2573.34668
480.731415 16451.582031
480.741425 55168.464844
480.751404 107928.453125
480.761414 151555.265625
480.771393 144812.015625
480.781403 97929.578125
480.791412 46686.570312
480.801392 14311.685547
480.811401 2542.691162
485.199951 175.900681
485.210083 1503.296509
485.220215 8925.511719
485.230347 32335.783203
485.240479 68251.789062
485.25061 102016.367188
485.260742 104169.078125
485.270905 72563.882812
485.281036 35767.167969
485.291168 11108.774414
485.3013 2215.061523
485.717194 2718.170898
485.727356 12891.124023
485.737518 29572.486328
485.74765 47339.195312
485.757812 53936.636719
485.767944 42068.632812
485.778107 23404.421875
485.788269 8439.897461
485.798431 1089.480469
486.723663 318.727905
486.733856 1038.187988
486.744019 1762.990112
486.754211 2054.17041
486.764404 1686.460083
486.774567 931.41687
486.78476 256.430298
493.23349 475.966034
493.243866 1399.285156
493.254272 2156.84668
493.264648 2273.03833
493.275024 1655.521484
493.285431 792.404785
493.295807 188.873566
494.138397 25019.896484
494.148804 24206.667969
494.159241 1561.564087
494.169647 7686.120605
494.180054 31642.501953
494.190491 91810.890625
494.200897 165410.65625
494.211304 237443.59375
494.221741 597189.3125
494.232147 2016356.625
494.242554 4596141.5
494.252991 7596985.5
494.263397 8823985.0
494.273834 6966603.0
494.284241 3925847.0
494.294678 1583007.375
494.305084 474410.84375
494.315521 220112.6875
494.325928 151172.28125
494.336365 72587.492188
494.346771 22697.324219
494.357208 4203.265137
494.670013 527.573242
494.68045 3572.805664
494.690887 16214.504883
494.701324 35506.421875
494.711761 54304.136719
494.722198 140648.90625
494.732635 486353.25
494.743042 1131615.875
494.753479 1909307.75
494.763916 2265893.25
494.774353 1823252.75
494.78479 1050077.125
494.795227 434658.96875
494.805664 130375.1875
494.816101 57234.554688
494.826538 38656.058594
494.836975 19004.755859
494.847412 4898.06543
494.857849 347.739014
570.239502 410.710114
570.25238 1346.350952
570.26532 3351.442627
570.278259 4887.175781
570.291138 4426.268555
570.304077 2511.155029
570.316956 1081.664429
570.329895 375.3461
607.250671 325.381378
607.264893 3156.060547
607.279053 8841.408203
607.293274 15993.584961
607.307434 20518.527344
607.321655 18353.234375
607.335815 11364.022461
607.350037 4669.535156
607.364197 683.968628
619.259888 3159.332764
619.274475 10135.72168
619.289062 21468.615234
619.303711 33022.335938
619.318298 32566.966797
619.332947 22328.693359
619.347534 9706.523438
619.362183 2141.505127
619.37677 154.955704
635.150696 2632.701904
635.165894 5597.721191
635.181091 7133.088379
635.196289 6278.02832
635.211426 3636.844971
635.226624 710.630737
636.275391 461.508972
636.290649 1402.731567
636.305847 7176.407715
636.321106 12972.02832
636.336304 15428.337891
636.351501 12729.109375
636.36676 7461.799805
636.381958 2053.575439
636.397156 174.896942
664.287537 810.573181
664.303772 1575.739746
664.320007 2098.062744
664.336243 2130.445557
664.352478 1600.608887
664.368713 824.219543
664.384949 124.68782
687.339539 904.112549
687.356628 1598.192017
687.373718 1911.167847
687.390808 1710.193848
687.407898 1083.224243
687.424988 151.516159
701.303955 434.752899
701.321533 1223.694458
701.339172 2127.032715
701.35675 2550.731689
701.37439 2154.48877
701.391968 1256.902954
701.409607 154.895782
702.308777 652.907532
702.326477 1455.19165
702.344116 1919.011963
702.361755 1688.356445
702.379395 981.415955
702.397034 119.793007
706.332153 3468.489502
706.349976 7266.923828
706.367798 10151.405273
706.385559 10147.772461
706.403381 7084.828125
706.421204 1638.273682
706.438965 103.510414
712.279175 3270.068359
712.29718 7888.302246
712.315186 12397.921875
712.333252 13741.561523
712.351257 10703.619141
712.369263 5560.349609
712.387329 683.114807
718.319763 4001.866211
718.338074 11390.916016
718.356323 22649.830078
718.374573 29271.171875
718.392822 19595.435547
718.411072 11823.421875
718.429321 5126.047363
718.447571 571.316528
719.343201 839.42511
719.36145 1602.633057
719.379761 1955.991943
719.398071 1686.299805
719.416382 1046.008423
719.434631 112.958855
729.306091 392.978088
729.324768 1156.653931
729.343445 1979.638916
729.362122 2268.93042
729.380859 1771.461792
729.399536 893.206726
729.418213 336.626099
730.259521 152.824203
730.278198 2952.844971
730.296936 11282.333008
730.315674 23387.755859
730.334351 35182.699219
730.353088 33415.203125
730.371826 21018.003906
730.390503 9126.005859
730.409241 602.396667
735.319275 99.835258
735.338196 2774.59082
735.357117 9323.71582
735.375977 18010.238281
735.394897 31346.835938
735.413818 27879.554688
735.432739 17126.111328
735.45166 7561.119141
735.470581 1647.007568
735.489441 83.488129
747.260864 780.097534
747.280212 4709.953125
747.299561 15417.896484
747.31897 48158.910156
747.338318 99607.34375
747.357666 155970.390625
747.377075 165312.8125
747.396423 118870.507812
747.415833 60765.589844
747.435181 19197.261719
747.45459 2727.104004
747.473938 21.99527
748.307922 3052.233887
748.327332 9772.786133
748.346741 21168.513672
748.36615 30091.884766
748.385559 27100.9375
748.404968 16921.070312
748.424377 6015.131348
748.443787 781.100952
758.266663 516.278198
758.286438 1861.500732
758.306213 3749.158691
758.32605 5672.602051
758.345825 5777.066406
758.365662 3782.958984
758.385437 1630.07605
758.405273 625.184448
758.425049 40.1022
771.362671 819.326538
771.382996 1421.187378
771.40332 1616.312866
771.423584 1312.198242
771.443909 709.949402
771.464233 38.858532
774.337097 893.694458
774.357544 1768.607056
774.377991 2235.212402
774.398438 1918.013306
774.418823 1091.238892
774.43927 204.51123
775.257385 439.308563
775.277832 4470.949219
775.298279 19960.808594
775.318787 60982.992188
775.339233 110328.078125
775.359741 149389.78125
775.380188 127713.523438
775.400635 79466.210938
775.421143 31015.537109
775.441589 7063.044922
775.462097 297.049713
776.302307 992.86554
776.322815 7261.402832
776.343323 12980.135742
776.363831 15194.392578
776.384338 12002.181641
776.404846 6397.614258
776.425354 883.106079
776.445862 26.982857
791.345947 5677.832031
791.367065 10433.947266
791.388184 13478.105469
791.409302 12723.335938
791.43042 8569.708008
791.451477 3826.657227
791.472595 183.372406
792.317871 974.701538
792.338989 1530.191772
792.360168 1642.778076
792.381287 1310.942505
792.402466 794.594604
792.423584 28.317068
801.361145 523.937622
801.382629 1271.407837
801.404114 1798.915771
801.425659 1776.570923
801.447144 1291.870117
801.468689 665.127808
801.490173 18.197376
811.370361 5065.598633
811.392273 7830.307617
811.414185 8062.721191
811.436096 5795.935547
811.458008 2799.438721
811.479919 95.412903
819.406616 3293.008057
819.428833 5364.939941
819.451111 6380.038086
819.473328 6138.653809
819.495544 4819.731445
819.517822 132.477997
828.353516 2788.214111
828.376099 6690.678711
828.398743 11425.731445
828.421326 14046.053711
828.443909 12159.866211
828.466553 6014.78125
828.489136 1118.964233
828.51178 1.580872
829.326416 2586.734131
829.34906 8967.709961
829.371765 21745.128906
829.394409 35319.625
829.417053 37807.257812
829.439697 25390.292969
829.462341 12943.474609
829.484985 3246.001221
829.507629 433.844818
846.318909 3144.215332
846.342285 9258.907227
846.365601 32170.824219
846.388977 88335.609375
846.412292 154140.796875
846.435669 196643.1875
846.458984 157640.921875
846.482361 94048.28125
846.505737 32836.144531
846.529053 5762.339355
846.552429 35.005569
847.347107 480.996765
847.370483 7154.267578
847.39386 22877.824219
847.417236 37851.429688
847.440674 43260.550781
847.46405 29187.509766
847.487427 14036.832031
847.510803 1762.869263
847.534241 106.926048
857.327759 32.800869
857.351562 1317.236572
857.375366 7418.544922
857.39917 13499.022461
857.422974 15574.905273
857.446777 11950.327148
857.470581 6190.357422
857.494446 216.828613
860.334839 24.32634
860.358765 2588.928711
860.38269 8513.589844
860.406616 21257.576172
860.430542 34882.328125
860.454468 40418.601562
860.478455 28859.515625
860.50238 14762.402344
860.526306 2523.738525
860.550232 154.451355
871.35083 34.772812
871.375244 927.665955
871.399658 1760.869751
871.424011 2070.276367
871.448425 1620.617798
871.472839 818.309875
874.211426 2.918004
874.235962 163.413788
874.260437 2280.853516
874.284973 5684.842773
874.309509 7630.919922
874.333984 16170.870117
874.358521 49111.035156
874.383057 128679.054688
874.407532 220729.640625
874.432068 276839.21875
874.456604 216844.234375
874.48114 125935.46875
874.505615 42710.0625
874.530151 9201.4375
874.554688 2166.404053
874.579224 310.423279
875.31543 585.148926
875.339966 4131.760742
875.364563 14662.854492
875.389099 32887.070312
875.413635 53888.609375
875.438232 60437.394531
875.462769 43501.292969
875.487366 22705.289062
875.511902 5870.743652
875.536438 274.423523
888.32605 364.565521
888.351196 5181.716309
888.376282 19485.302734
888.401367 45086.511719
888.426514 73959.226562
888.451599 83707.601562
888.476746 59487.332031
888.501831 31947.859375
888.526978 9086.072266
888.552063 465.016571
889.331177 26.394285
889.356323 533.038818
889.38147 1567.346069
889.406616 7045.012207
889.431763 12159.923828
889.456909 13232.214844
889.482056 9203.378906
889.507202 3930.593018
889.532349 466.791473
889.557556 36.393627
904.356323 105.254143
904.382141 3067.897461
904.407898 9553.787109
904.433716 23137.746094
904.459534 37230.535156
904.485291 42333.445312
904.511108 30402.648438
904.536865 16407.507812
904.562683 4912.162598
904.588501 48.392078
END IONS
