BEGIN IONS
PEPMASS=609.925
CHARGE=2
MSLEVEL=2
SOURCE_INSTRUMENT=LC-ESI-Orbitrap
FILENAME=f.lfnothias/1901_fungal_symbiont_annotation_confirmation/Pure_compounds/Pure_compounds_mzML/LeucinostatinAandB_1uL_sensitive.mzML;
SEQ=*..*
IONMODE=Positive
ORGANISM=GNPS-LIBRARY
NAME=Leucinostatin A reference standard M+2H
PI=Dorrestein
DATACOLLECTOR=lfnothias
SMILES=CC[C@@H](C)/C=C/C(=O)N1C[C@H](C[C@H]1C(=O)N[C@@H](C[C@H](C)CC(CC(=O)CC)O)C(=O)N[C@@H]([C@@H](C(C)C)O)C(=O)NC(C)(C)C(=O)N[C@@H](CC(C)C)C(=O)N[C@@H](CC(C)C)C(=O)NC(C)(C)C(=O)NC(C)(C)C(=O)NCCC(=O)N[C@@H](C)CN(C)C)C
INCHI=InChI=1S/C62H111N11O13/c1-21-38(9)23-24-49(77)73-33-40(11)31-47(73)55(82)66-46(30-39(10)29-43(75)32-42(74)22-2)53(80)68-50(51(78)37(7)8)56(83)70-61(15,16)58(85)67-44(27-35(3)4)52(79)65-45(28-36(5)6)54(81)69-62(17,18)59(86)71-60(13,14)57(84)63-26-25-48(76)64-41(12)34-72(19)20/h23-24,35-41,43-47,50-51,75,78H,21-22,25-34H2,1-20H3,(H,63,84)(H,64,76)(H,65,79)(H,66,82)(H,67,85)(H,68,80)(H,69,81)(H,70,83)(H,71,86)/b24-23+/t38-,39-,40+,41+,43?,44+,45+,46+,47+,50+,51-/m1/s1
INCHIAUX=FOAIGCPESMNWQP-QJMNAQKNSA-N
PUBMED=
SUBMITUSER=lfnothias
TAGS=
LIBRARYQUALITY=3
SPECTRUMID=CCMSLIB00005435705
SCANS=1287
81.070053 192027.734375
83.085503 139867.515625
84.080841 12489601.0
85.083931 355128.0625
86.096458 2631136.25
87.099632 79544.75
93.069786 310406.75
95.085579 208075.109375
96.080566 108722.59375
100.075592 809978.6875
101.078766 59050.046875
102.091293 282739.21875
103.086418 236526.09375
103.12281 144708.515625
111.080345 12367511.0
112.075798 2754786.0
112.083611 513702.53125
113.07917 134929.015625
123.116783 882995.125
124.119751 67263.804688
125.096817 93567.5
129.102097 1260107.5
130.105423 67092.09375
143.117798 226264.359375
157.133423 985032.8125
168.138504 439484.9375
169.121918 449771.375
169.134277 124700.507812
171.112686 290225.21875
171.148575 522821.5625
174.160004 2376078.25
187.143936 1172212.625
188.13945 75248.171875
194.153763 23647156.0
195.157227 1860690.125
197.12883 173622.703125
199.14389 1175776.0
199.180374 1066388.625
207.148956 111290.023438
214.156708 576119.75
215.139114 1675501.375
216.142258 117238.898438
222.148743 13966954.0
223.152451 1229868.25
225.12265 148708.9375
225.159866 191796.875
227.175217 1166502.625
228.178802 127263.25
235.143845 260186.625
239.176056 98137.296875
259.212738 2563948.0
259.239929 128373.359375
260.214996 332130.96875
279.207703 131734.890625
282.17981 128141.703125
284.197113 157857.21875
292.202332 94303.09375
297.218628 121253.992188
299.20639 155760.765625
307.200623 139813.015625
310.212067 108492.914062
312.227966 2322992.5
313.231079 257981.546875
320.197052 229376.859375
325.212128 400756.65625
328.223511 798255.5625
338.205658 94520.773438
344.265656 1196064.25
345.266785 135556.921875
382.270447 109615.75
397.280273 504317.875
410.264435 233596.5625
412.290253 184326.53125
417.274445 337919.59375
418.271606 108194.695312
423.294525 86298.070312
428.276031 115867.023438
435.284973 759846.0625
436.286438 198393.296875
441.306213 222943.109375
457.350067 1306898.75
458.350281 200439.125
492.306641 434624.46875
508.350647 88998.015625
518.357971 115896.421875
525.374023 403656.125
526.361389 129581.414062
528.339355 233883.359375
546.353027 1926323.25
547.354553 518780.53125
564.362854 722035.4375
565.36908 259543.46875
570.432922 7813183.5
571.436707 1601073.25
591.916016 393112.59375
592.411926 157977.75
600.920593 1028452.9375
601.421204 805179.875
601.924988 86091.609375
613.397156 322099.1875
631.405884 2019591.75
632.407104 542343.125
649.417786 298671.78125
655.485352 578812.375
656.483643 176281.9375
686.206055 71405.296875
763.497253 83809.5625
784.564819 566140.9375
785.567566 193837.4375
979.691772 210776.640625
997.686462 155449.625
END IONS
