BEGIN IONS
PEPMASS=1343.67
CHARGE=1
MSLEVEL=2
SOURCE_INSTRUMENT=LC-ESI-qToF
FILENAME=P2_C6_conc_GE6_01_2424.mzXML
SEQ=*..*
IONMODE=Positive
ORGANISM=GNPS-LIBRARY
NAME=Cycloaspeptide H_130057 2M+H
PI=Cichewicz
DATACOLLECTOR=Luzzatto
SMILES=CN1[C@@H](CC2=CC=C(OC)C=C2)C(N[C@@H](CC(C)C)C(N(C)[C@@H](CC3=CC=C(O)C=C3)C(NC4=C(C=CC=C4)C(N[C@@H](C)C1=O)=O)=O)=O)=O
INCHI=N/A
INCHIAUX=N/A
PUBMED=
SUBMITUSER=tal_lk
TAGS=
LIBRARYQUALITY=2
SPECTRUMID=CCMSLIB00000478492
SCANS=1657
135.077255 780.0
150.091263 36052.0
151.093475 3472.0
152.099396 296.0
164.106598 15872.0
165.108948 3076.0
178.087051 448.0
191.080856 1240.0
192.101334 3680.0
193.105133 1256.0
206.081726 856.0
207.10611 392.0
220.096298 5588.0
221.101898 764.0
222.117279 388.0
229.139404 260.0
235.144302 5548.0
236.145081 1008.0
261.199432 352.0
263.139374 53876.0
264.14209 8800.0
265.143463 864.0
266.145813 372.0
274.144836 584.0
277.189575 4316.0
278.19635 800.0
279.196472 284.0
291.169067 2072.0
292.16684 440.0
297.122528 24748.0
298.125305 4956.0
299.130432 1120.0
305.185608 11232.0
306.189453 1740.0
307.186829 592.0
309.120728 536.0
336.228699 280.0
364.172791 296.0
368.1604 15408.0
369.16214 3068.0
369.251923 256.0
370.166229 840.0
376.222778 5516.0
377.225159 1516.0
378.227142 400.0
382.175964 26660.0
383.17923 4388.0
384.176575 796.0
392.192993 564.0
393.197205 324.0
399.204071 352.0
410.170837 1580.0
410.204834 2716.0
411.197906 624.0
412.172882 376.0
424.224762 904.0
451.224609 3148.0
452.225861 408.0
453.229187 268.0
454.269623 800.0
463.235809 616.0
464.200165 252.0
464.241638 256.0
481.241577 1008.0
482.265167 57320.0
483.268005 13920.0
484.27063 2628.0
485.272034 276.0
491.229584 340.0
494.637207 300.0
495.259003 17748.0
496.263214 4684.0
497.266449 1160.0
500.210907 432.0
505.243927 292.0
523.257935 680.0
531.266479 256.0
558.279236 308.0
559.255554 10764.0
560.260193 3264.0
561.263733 736.0
587.240845 312.0
601.300659 2716.0
602.303528 1556.0
603.309021 424.0
609.896484 388.0
641.262573 268.0
644.348816 1596.0
645.336609 600.0
646.326477 256.0
654.324829 296.0
655.320923 308.0
656.32074 616.0
668.853333 508.0
668.941711 356.0
670.089905 268.0
670.177002 536.0
670.351318 260.0
670.461975 316.0
670.860046 336.0
671.227844 356.0
671.277954 252.0
671.368713 548.0
671.56427 344.0
671.657715 356.0
671.706116 292.0
671.751831 284.0
671.803711 400.0
671.929138 276.0
671.984375 336.0
672.122009 352.0
672.172058 396.0
672.342041 298652.0
672.513306 528.0
672.67926 400.0
672.777283 396.0
672.832153 460.0
672.893555 284.0
672.970154 324.0
673.132629 632.0
673.192139 1916.0
673.254944 832.0
673.343933 146400.0
673.591553 288.0
673.741821 388.0
673.85376 280.0
673.982971 284.0
674.076233 404.0
674.137817 560.0
674.207581 436.0
674.345093 32436.0
674.493896 392.0
674.547058 460.0
674.940186 304.0
675.213562 340.0
675.345215 5292.0
675.485596 304.0
675.861572 284.0
676.147949 252.0
676.349426 652.0
676.421143 332.0
676.633545 300.0
676.780823 360.0
676.854431 344.0
677.041321 444.0
677.162292 252.0
677.610229 276.0
677.752625 524.0
677.808044 384.0
677.964172 292.0
691.320251 292.0
691.820312 280.0
END IONS
