BEGIN IONS
PEPMASS=618.371
CHARGE=2
MSLEVEL=2
SOURCE_INSTRUMENT=LC-ESI-qTof
FILENAME=f.philipwi/0_WilliamsFreshwaterCyanosStandardsConvertedTo_mzXML_v2/PW-10_v5_P1-B-1_Puwainaphycin_A_1234amu_01_15616_Scan564-587.mzXML;
SEQ=*..*
IONMODE=Positive
ORGANISM=GNPS-LIBRARY
NAME=Puwainaphycin A M+H
PI=Philip Williams
DATACOLLECTOR=Williams
SMILES=CCCCC(=O)CCCCCCCCCC(C)C1C(C(=O)NC(C(=O)NC(=CC)C(=O)NC(C(=O)NC(C(=O)NC(C(=O)NCC(=O)NC(C(=O)N(C(C(=O)N2CCCC2C(=O)N1)CC(=O)N)C)C(C)OC)CCC(=O)N)C(C)O)C(C)O)C(C)C)O
INCHI=
INCHIAUX=
PUBMED=
SUBMITUSER=philipwi
TAGS=
LIBRARYQUALITY=3
SPECTRUMID=CCMSLIB00000424830
SCANS=574
132.543701 44.0
137.110153 64.0
142.072876 44.0
156.388489 32.0
164.085556 72.0
166.272888 152.0
167.087601 120.0
168.086075 176.0
168.574005 120.0
168.673325 36.0
169.060181 152.0
170.100235 80.0
170.974274 124.0
172.88826 88.0
174.097275 36.0
175.108017 92.0
177.070389 48.0
178.091278 128.0
178.464188 44.0
179.086349 108.0
180.09433 84.0
181.076111 104.0
183.126633 104.0
183.929718 32.0
184.016174 36.0
184.34491 44.0
185.00325 32.0
185.966873 104.0
186.088593 72.0
186.994003 40.0
190.998703 48.0
191.139679 56.0
194.13324 144.0
195.078629 192.0
195.179382 80.0
197.068741 80.0
198.174057 168.0
200.135086 148.0
201.354324 28.0
202.913086 52.0
205.116409 52.0
206.097565 68.0
206.222534 36.0
207.0979 76.0
207.180817 92.0
207.653 28.0
207.735687 32.0
208.106171 104.0
209.100494 124.0
209.355804 36.0
210.125565 156.0
210.593521 164.0
211.111862 92.0
212.094742 64.0
212.921753 88.0
216.002243 48.0
220.901276 28.0
223.133286 88.0
224.101776 152.0
225.960632 100.0
226.085205 68.0
226.229004 36.0
226.843018 60.0
227.929184 72.0
229.935287 72.0
230.118973 148.0
232.11525 112.0
232.708023 152.0
232.926239 104.0
234.08493 112.0
234.500671 56.0
234.760757 44.0
236.100067 84.0
236.192429 44.0
237.114197 64.0
238.111435 144.0
238.234482 40.0
239.23909 220.0
239.929749 36.0
240.128479 128.0
240.235931 108.0
240.987396 48.0
241.119217 188.0
241.234848 36.0
242.129333 76.0
242.483932 28.0
243.144913 132.0
243.945267 204.0
244.084671 32.0
245.091537 48.0
245.790588 28.0
246.098831 120.0
246.230515 76.0
247.703949 780.0
247.93811 76.0
248.235077 44.0
248.727432 92.0
248.908417 56.0
250.12793 152.0
250.94632 88.0
251.12117 620.0
251.236954 64.0
252.102921 896.0
252.319214 32.0
252.430603 32.0
252.552139 36.0
252.775055 28.0
253.004822 84.0
253.119751 44.0
253.251602 128.0
254.104431 132.0
254.267029 92.0
254.389023 84.0
254.955154 92.0
255.159744 120.0
256.120758 92.0
257.939392 60.0
258.605286 120.0
261.339172 36.0
262.11261 52.0
262.200592 120.0
262.329376 48.0
262.701172 36.0
263.119019 112.0
263.238831 308.0
264.097809 188.0
265.091156 60.0
265.944946 68.0
266.13208 96.0
266.695831 44.0
266.917145 64.0
266.988464 28.0
267.156219 120.0
267.583191 44.0
267.704651 36.0
267.940308 92.0
268.16449 124.0
268.266846 9428.0
268.576477 52.0
268.66391 112.0
268.800873 32.0
268.908234 44.0
269.127075 424.0
269.271393 1576.0
269.455322 48.0
269.564331 48.0
269.846985 32.0
269.945496 76.0
270.124878 68.0
270.284576 128.0
270.584656 40.0
271.10498 112.0
271.199463 60.0
271.272949 96.0
271.955811 40.0
272.155579 68.0
272.765839 72.0
272.90271 32.0
273.017242 32.0
273.102814 84.0
273.208191 164.0
274.157257 100.0
274.23114 36.0
274.938873 64.0
275.998016 36.0
276.16629 84.0
277.131104 36.0
278.13559 112.0
278.267731 72.0
278.3573 44.0
279.130768 128.0
279.44928 32.0
279.641113 44.0
280.139984 36.0
280.266846 1604.0
280.569275 32.0
280.677246 36.0
281.124756 88.0
281.263977 280.0
281.937622 32.0
282.113983 76.0
282.276978 504.0
282.398071 56.0
283.284912 296.0
283.609802 56.0
284.175201 56.0
284.544525 52.0
284.673584 32.0
285.168518 100.0
286.1362 132.0
287.137756 328.0
287.541626 52.0
288.147247 200.0
288.948517 104.0
289.137787 92.0
289.948761 52.0
290.130798 116.0
290.934113 140.0
291.12442 92.0
291.237396 348.0
291.696411 32.0
291.944641 124.0
292.093658 532.0
292.264221 124.0
292.921967 92.0
293.104797 148.0
293.244415 188.0
293.375427 44.0
294.096466 84.0
294.249542 100.0
295.245422 224.0
295.376862 36.0
296.012604 72.0
296.13327 44.0
296.221039 116.0
296.682007 32.0
297.121338 64.0
297.275177 36.0
297.692963 32.0
298.136993 152.0
298.277863 5840.0
298.586487 80.0
298.705688 32.0
298.782806 36.0
298.915039 44.0
298.992188 48.0
299.135498 76.0
299.282593 1392.0
299.417114 52.0
299.448151 80.0
299.885651 36.0
300.040222 36.0
300.150635 92.0
300.278412 296.0
300.832581 28.0
301.145386 120.0
301.278168 64.0
301.75412 44.0
301.942383 40.0
302.640594 44.0
302.928986 36.0
303.117645 52.0
303.225281 288.0
303.450653 40.0
303.728333 244.0
304.210815 116.0
305.352448 32.0
306.142822 44.0
306.762695 28.0
307.137268 228.0
308.122528 96.0
308.259613 820.0
308.636078 44.0
308.81366 28.0
308.943756 100.0
309.115509 280.0
309.25943 224.0
309.423676 28.0
310.134216 168.0
310.285919 172.0
310.936066 124.0
311.130249 88.0
311.287628 172.0
311.737427 112.0
313.018982 36.0
313.157776 132.0
313.729889 36.0
314.156433 68.0
315.149078 188.0
316.853851 36.0
316.944641 88.0
317.124237 68.0
318.106903 260.0
319.708282 40.0
320.156738 120.0
320.312653 32.0
321.301056 116.0
322.206238 136.0
322.316589 300.0
322.632782 28.0
323.025757 64.0
323.136078 148.0
323.319061 172.0
324.168854 128.0
324.276825 108.0
325.155548 116.0
326.158295 84.0
326.27179 532.0
326.571991 32.0
326.848511 28.0
327.130432 76.0
328.013519 44.0
328.660339 36.0
329.963257 104.0
330.732178 84.0
331.172821 92.0
331.254028 96.0
331.955139 108.0
332.171204 92.0
332.299011 68.0
332.740723 76.0
332.926788 68.0
333.260864 80.0
334.14917 256.0
334.347778 96.0
334.837006 32.0
334.930328 104.0
335.142761 344.0
335.303741 64.0
335.572266 36.0
336.142548 216.0
336.261108 104.0
336.460327 32.0
336.869049 40.0
336.958893 96.0
337.302704 84.0
338.160797 112.0
338.280273 112.0
338.744232 32.0
339.159058 136.0
339.272369 88.0
339.777435 132.0
340.153564 152.0
343.169891 68.0
343.713318 148.0
344.044281 64.0
344.297974 72.0
344.737854 352.0
345.222534 228.0
345.748993 132.0
346.235138 148.0
347.125305 76.0
347.309631 244.0
347.493561 28.0
348.195007 164.0
348.296112 68.0
349.182953 44.0
349.323669 696.0
349.445068 104.0
349.751282 52.0
349.969147 140.0
350.182343 224.0
350.320099 280.0
351.127258 244.0
351.31839 88.0
351.664978 28.0
351.97168 92.0
352.163971 348.0
352.316193 252.0
352.837433 36.0
352.972992 76.0
353.155548 452.0
353.299225 144.0
353.532227 48.0
353.746338 376.0
354.141663 152.0
354.249969 596.0
354.743805 132.0
355.143463 84.0
355.301514 120.0
356.72757 36.0
357.149109 40.0
357.848145 28.0
359.244568 308.0
359.647125 44.0
360.167114 92.0
360.312317 116.0
361.199036 84.0
361.299988 112.0
362.149109 92.0
362.306976 320.0
362.493591 44.0
362.967072 88.0
363.124969 128.0
363.30188 296.0
364.17453 76.0
364.295258 112.0
365.320496 312.0
365.460938 140.0
366.168091 64.0
366.316864 100.0
367.249115 124.0
367.841095 44.0
368.168335 108.0
369.133728 84.0
370.173157 668.0
370.916138 48.0
371.240875 108.0
371.981384 96.0
372.198334 92.0
372.624573 28.0
373.04306 60.0
373.235748 148.0
373.961884 168.0
374.148376 240.0
374.240662 104.0
374.966187 44.0
375.205139 56.0
376.176819 44.0
376.300476 104.0
376.64679 32.0
377.315643 764.0
377.476105 36.0
378.185944 344.0
378.327026 96.0
378.715607 96.0
379.17392 312.0
379.335785 332.0
379.658997 84.0
379.984863 52.0
380.157806 272.0
380.318054 1392.0
380.91449 36.0
381.014648 44.0
381.146484 56.0
381.324768 316.0
381.763428 120.0
382.179688 112.0
382.281769 100.0
382.446289 32.0
382.920135 116.0
383.069855 52.0
383.182129 48.0
383.319397 44.0
384.18103 68.0
385.631744 28.0
385.832062 36.0
386.274078 96.0
386.758179 344.0
387.180237 76.0
387.285858 120.0
387.94162 48.0
388.186218 64.0
388.403168 36.0
388.566498 36.0
389.207581 72.0
389.32077 172.0
390.16394 48.0
390.286407 88.0
391.159271 96.0
391.297974 76.0
391.966553 112.0
392.067535 92.0
392.161957 204.0
392.294739 48.0
392.418518 100.0
392.711517 32.0
393.150696 124.0
393.309784 212.0
393.452332 52.0
393.583618 108.0
393.970459 304.0
394.17688 112.0
394.373627 36.0
394.60672 52.0
394.765167 452.0
394.925262 80.0
395.059662 92.0
395.327728 13016.0
395.634979 56.0
395.80722 48.0
395.977386 128.0
396.185822 112.0
396.333191 3236.0
396.552124 136.0
396.693848 96.0
396.813751 40.0
396.912659 64.0
397.17691 332.0
397.339844 2168.0
397.510895 36.0
397.755249 40.0
397.873901 24.0
398.177734 208.0
398.341705 716.0
398.49295 56.0
398.801941 52.0
399.103973 48.0
399.218597 44.0
399.341034 212.0
399.473358 28.0
399.842926 36.0
400.046906 40.0
400.238159 28.0
400.436768 56.0
400.80658 108.0
400.989777 44.0
401.182434 52.0
401.31012 28.0
401.450592 40.0
401.578339 40.0
401.782745 32.0
402.178925 52.0
402.349823 76.0
402.52417 80.0
402.94632 40.0
403.230591 76.0
403.714447 44.0
404.111572 40.0
404.226929 76.0
404.329468 156.0
404.714081 60.0
405.13739 88.0
405.309998 532.0
405.5224 52.0
406.192993 152.0
406.318665 104.0
406.588531 32.0
406.935638 52.0
407.102844 32.0
407.200806 96.0
407.329803 2688.0
407.678955 56.0
408.203552 116.0
408.334503 1028.0
408.761414 112.0
409.187683 188.0
409.321228 204.0
409.666321 36.0
410.177338 276.0
410.350433 52.0
411.194183 192.0
412.056702 64.0
412.211975 28.0
412.988861 88.0
413.170258 92.0
413.870239 40.0
413.986969 48.0
414.129639 32.0
414.960266 80.0
415.210693 128.0
415.285645 76.0
415.967407 96.0
416.108856 44.0
416.233795 52.0
416.345886 84.0
416.506958 108.0
416.780182 124.0
416.955902 40.0
417.183716 36.0
417.756805 92.0
418.177338 208.0
418.343292 76.0
418.447601 36.0
418.617126 56.0
418.86499 36.0
419.139008 132.0
419.25647 72.0
419.347839 76.0
420.196747 64.0
420.327423 48.0
421.167877 48.0
421.255829 92.0
421.687683 28.0
421.897156 32.0
422.03244 36.0
422.216217 44.0
422.345551 124.0
422.499664 40.0
423.138458 80.0
423.318909 976.0
423.902802 40.0
424.183441 116.0
424.33078 580.0
424.506744 44.0
424.730042 44.0
425.211639 88.0
425.320557 124.0
426.202667 32.0
427.20343 108.0
427.967926 32.0
428.292938 100.0
429.356812 120.0
429.763275 92.0
429.987946 40.0
430.341248 172.0
430.477173 52.0
431.333496 132.0
431.999481 80.0
432.211487 36.0
432.503082 116.0
433.170319 64.0
433.341095 368.0
434.342255 248.0
434.746399 28.0
434.896606 40.0
435.20874 184.0
435.328949 500.0
436.192383 432.0
436.31955 252.0
437.167755 96.0
437.281311 188.0
437.600159 100.0
438.178894 104.0
438.321716 80.0
439.222504 144.0
439.370667 40.0
440.369598 100.0
441.216522 240.0
441.337433 180.0
441.752258 28.0
442.212189 100.0
442.358612 224.0
442.529694 28.0
442.663788 52.0
443.331207 344.0
443.750793 32.0
443.992523 40.0
444.327026 180.0
444.556854 28.0
445.187347 76.0
445.334778 84.0
446.157684 72.0
446.358582 48.0
446.442535 52.0
447.321533 64.0
448.184875 196.0
448.339539 264.0
448.773621 100.0
449.367981 48.0
450.771301 120.0
451.18869 40.0
451.350708 380.0
451.613922 36.0
452.142395 28.0
452.346008 220.0
452.828369 68.0
453.222198 420.0
453.34079 84.0
453.688934 32.0
454.194092 332.0
454.340881 44.0
455.210907 120.0
455.289703 96.0
455.979126 160.0
456.17392 116.0
456.289856 140.0
456.762665 36.0
457.284821 76.0
457.9487 32.0
458.157532 72.0
458.822144 92.0
459.204559 72.0
459.942474 160.0
460.763092 32.0
461.206512 120.0
461.333435 540.0
461.639252 72.0
462.342712 200.0
462.70816 28.0
463.188202 84.0
463.359009 260.0
464.156372 60.0
464.349518 184.0
465.165863 144.0
465.358337 72.0
466.225067 40.0
467.216614 44.0
469.796753 96.0
470.07312 36.0
470.272675 160.0
471.212036 296.0
471.788452 84.0
472.223511 108.0
472.356293 84.0
473.339478 240.0
473.506897 148.0
474.321808 72.0
474.728333 36.0
475.308441 392.0
475.994324 500.0
476.185028 80.0
476.336639 80.0
476.47995 44.0
477.3367 104.0
477.74704 52.0
478.001617 296.0
478.144745 52.0
478.356415 248.0
479.303894 184.0
479.78772 104.0
480.202393 120.0
480.367615 76.0
480.91507 28.0
481.222656 88.0
481.404449 72.0
483.56073 32.0
484.230042 104.0
487.254395 56.0
487.789246 252.0
488.345215 100.0
488.690674 68.0
489.127625 32.0
489.381409 128.0
489.889221 36.0
490.171448 36.0
490.375427 216.0
490.764374 96.0
491.216339 28.0
491.354889 412.0
492.210388 148.0
492.672638 36.0
493.257599 72.0
493.32193 32.0
493.347626 52.0
493.776855 36.0
494.00354 56.0
494.258575 40.0
494.392944 2428.0
494.783081 44.0
495.209839 44.0
495.400024 992.0
495.549072 60.0
495.660522 28.0
495.804504 36.0
496.387299 240.0
496.79538 124.0
496.912262 44.0
497.417664 72.0
497.814484 180.0
498.263092 72.0
498.797455 100.0
499.298981 184.0
499.820007 96.0
500.234497 80.0
500.784821 28.0
501.200439 276.0
501.369873 64.0
502.20343 120.0
502.340912 36.0
502.612427 48.0
502.787109 36.0
503.317841 144.0
504.369843 604.0
505.23465 72.0
505.382324 72.0
505.947723 32.0
506.370178 128.0
506.521423 40.0
507.023682 68.0
507.361511 188.0
507.784698 144.0
508.014557 36.0
508.252319 72.0
508.378693 2072.0
508.805084 132.0
508.911255 32.0
509.020813 52.0
509.250946 32.0
509.379059 1212.0
510.219513 196.0
510.369598 172.0
511.23407 44.0
511.382141 52.0
511.810699 412.0
512.296326 212.0
512.478271 36.0
513.315613 44.0
514.327087 64.0
514.572876 96.0
515.84613 88.0
516.251587 84.0
517.236938 36.0
517.352966 176.0
517.976624 132.0
518.232239 84.0
518.361389 428.0
518.760315 32.0
519.200073 128.0
519.36261 244.0
520.211731 324.0
520.354553 180.0
520.814087 232.0
521.216858 56.0
521.420654 84.0
521.828308 124.0
522.391052 752.0
522.875427 32.0
523.387268 288.0
523.67926 44.0
524.233765 52.0
524.377441 104.0
525.271423 64.0
525.460449 64.0
526.235168 56.0
526.381409 36.0
526.67395 32.0
526.893433 28.0
527.801025 32.0
528.372314 60.0
529.633179 52.0
529.823914 108.0
530.425659 48.0
531.204041 76.0
531.351013 72.0
532.381775 308.0
533.378601 384.0
534.382812 64.0
535.399475 64.0
536.249084 180.0
536.365784 392.0
536.980225 44.0
537.088867 60.0
537.234009 280.0
537.377136 276.0
537.983826 44.0
538.246582 296.0
538.383118 56.0
538.545837 36.0
538.856506 36.0
539.413635 348.0
539.700317 28.0
539.999939 696.0
540.278015 84.0
540.421936 120.0
540.529907 100.0
541.241516 64.0
541.375 60.0
541.92395 164.0
542.502808 32.0
544.351135 108.0
544.459778 140.0
545.461426 140.0
545.83374 116.0
545.937988 32.0
546.235901 32.0
546.906494 76.0
547.39856 52.0
548.398254 76.0
549.443726 40.0
549.59314 32.0
550.250916 48.0
551.253174 92.0
551.412354 208.0
552.256409 80.0
552.431091 192.0
553.260559 84.0
553.860474 40.0
554.242554 64.0
555.256531 100.0
555.361694 44.0
556.379578 144.0
556.985229 28.0
558.018921 108.0
558.291077 96.0
559.022827 88.0
559.429382 56.0
560.28479 76.0
560.417114 332.0
561.382812 184.0
562.248047 56.0
562.398499 152.0
563.246094 40.0
563.40094 272.0
565.409912 92.0
566.38208 48.0
567.459656 112.0
568.264771 64.0
570.318054 40.0
571.368958 68.0
573.379944 152.0
574.259033 52.0
574.386902 316.0
574.588501 40.0
575.016418 36.0
575.417236 88.0
576.408264 32.0
577.424133 568.0
578.425598 372.0
578.920898 28.0
579.425598 232.0
581.269958 84.0
581.669617 36.0
582.294983 64.0
582.730896 108.0
586.290955 96.0
587.415894 148.0
588.175476 32.0
588.386292 76.0
589.423218 276.0
590.428101 112.0
591.40033 140.0
592.000244 28.0
592.407715 296.0
593.396973 84.0
593.583313 28.0
594.468872 80.0
595.419983 116.0
596.475525 68.0
596.80249 132.0
597.385498 244.0
598.340332 140.0
598.719482 40.0
600.280273 56.0
601.389648 44.0
602.268005 48.0
602.431946 136.0
602.593933 36.0
602.773926 36.0
602.938232 32.0
603.220032 40.0
603.423584 168.0
603.564514 32.0
603.934753 44.0
604.425171 128.0
604.598572 40.0
604.872864 32.0
605.002258 32.0
605.195435 56.0
605.42865 8616.0
605.853149 36.0
606.072815 32.0
606.426941 2836.0
606.662842 68.0
607.065796 52.0
607.43103 484.0
607.784546 72.0
607.935303 40.0
608.440002 176.0
609.415955 132.0
609.860779 108.0
610.144165 76.0
610.270142 88.0
610.434753 92.0
610.711121 68.0
611.215332 36.0
611.388733 28.0
612.38208 40.0
613.218445 28.0
614.086975 32.0
614.703186 28.0
615.418884 140.0
616.15802 56.0
616.282349 28.0
616.411255 100.0
617.429016 356.0
617.614624 32.0
617.915649 40.0
618.16925 28.0
618.431091 108.0
619.403076 212.0
619.564697 32.0
619.945557 40.0
620.453613 120.0
621.422546 36.0
621.581421 28.0
621.846741 116.0
622.031921 2076.0
622.467102 68.0
622.917175 28.0
623.034668 76.0
623.474121 28.0
624.333923 32.0
626.438171 52.0
628.290283 36.0
628.4021 68.0
629.39325 40.0
630.433167 32.0
631.409912 72.0
632.31842 120.0
633.012695 32.0
633.479126 100.0
634.458923 240.0
635.099365 36.0
635.443176 60.0
636.288696 40.0
636.803345 52.0
637.463013 64.0
639.347473 72.0
640.266541 84.0
643.402588 208.0
643.577393 40.0
643.787659 32.0
644.175903 32.0
644.443787 404.0
645.147034 136.0
645.450073 292.0
646.384094 76.0
646.588806 128.0
647.383301 68.0
648.275696 68.0
649.46106 72.0
650.436096 32.0
651.468872 96.0
652.502441 32.0
653.299011 84.0
656.41626 76.0
657.445557 224.0
658.41571 52.0
658.688354 32.0
659.228333 28.0
660.49585 148.0
661.330688 92.0
661.462219 624.0
662.473755 188.0
663.46521 180.0
664.27179 36.0
664.475403 88.0
664.771973 52.0
665.330872 32.0
665.82428 28.0
666.795044 44.0
667.437195 172.0
667.634827 44.0
670.470825 88.0
671.472412 76.0
672.089355 36.0
672.461243 80.0
673.446716 84.0
673.759521 60.0
674.42981 104.0
674.901672 52.0
675.332336 52.0
675.487183 68.0
675.647095 32.0
676.392944 84.0
677.952209 72.0
678.483765 204.0
679.114563 28.0
679.498657 204.0
680.277893 100.0
680.485535 88.0
681.309082 36.0
683.24054 56.0
683.473877 52.0
684.557495 92.0
684.907837 36.0
685.427551 372.0
686.410095 136.0
687.228638 48.0
688.469666 1796.0
688.884033 60.0
689.471375 480.0
690.47699 168.0
691.451416 116.0
692.444275 80.0
693.140259 36.0
693.475952 64.0
693.811707 44.0
693.96283 120.0
696.450378 32.0
698.430664 120.0
699.464844 96.0
700.139404 32.0
700.392395 32.0
701.506287 96.0
702.333801 64.0
702.493774 68.0
702.891418 80.0
704.460388 76.0
704.836304 32.0
706.004517 40.0
706.207764 28.0
706.470886 808.0
706.699097 32.0
707.139771 28.0
707.481628 608.0
707.953674 32.0
708.292908 40.0
708.472656 108.0
708.729004 40.0
709.514954 132.0
710.511475 132.0
710.789001 136.0
714.004639 28.0
716.484619 96.0
716.800842 44.0
717.500732 104.0
718.481934 196.0
719.493713 220.0
720.479675 128.0
721.4505 52.0
723.498962 60.0
724.490662 84.0
725.479736 44.0
726.475891 44.0
727.47937 136.0
728.487549 92.0
730.433044 52.0
731.484314 40.0
733.483887 120.0
734.479675 192.0
735.492981 224.0
736.16394 36.0
736.527222 72.0
737.491882 80.0
738.206238 44.0
741.587402 32.0
743.569214 92.0
744.513794 68.0
745.167725 36.0
745.501099 240.0
746.159912 144.0
746.476013 200.0
747.506958 72.0
748.487732 84.0
749.018311 76.0
751.305481 52.0
753.54364 100.0
754.471375 116.0
754.979187 32.0
755.504761 56.0
757.485962 108.0
758.591675 124.0
760.465271 68.0
761.529663 136.0
762.516602 180.0
763.512146 216.0
764.521973 100.0
768.73822 108.0
770.453613 96.0
771.498718 224.0
772.312561 40.0
772.535522 72.0
773.503662 108.0
774.482544 64.0
776.054993 48.0
777.476257 92.0
779.532776 236.0
780.538147 192.0
781.506958 76.0
783.525696 116.0
783.834656 148.0
785.959839 36.0
786.481812 144.0
786.960938 40.0
787.139771 36.0
788.575256 72.0
788.714417 32.0
788.947144 44.0
789.516296 364.0
790.522034 260.0
791.525452 144.0
791.958008 148.0
792.53833 128.0
793.512329 80.0
799.870911 36.0
800.483948 52.0
803.507202 68.0
806.544434 192.0
807.525696 484.0
808.531677 448.0
808.729187 28.0
809.520508 112.0
810.523865 72.0
811.541504 96.0
812.249878 52.0
813.485718 32.0
814.740723 96.0
816.579468 96.0
817.654541 36.0
818.547974 84.0
820.555359 64.0
821.559937 28.0
823.91864 32.0
824.550171 616.0
825.575378 268.0
826.232483 44.0
826.552734 180.0
826.707214 32.0
829.527161 128.0
832.356934 136.0
834.34436 140.0
834.546936 36.0
835.520325 72.0
836.481628 80.0
838.547791 92.0
840.524048 32.0
846.533691 48.0
847.487244 52.0
848.526794 68.0
850.514771 68.0
851.562988 48.0
852.486511 64.0
856.511475 100.0
856.697998 108.0
857.537842 32.0
859.555054 80.0
860.545837 48.0
862.585327 68.0
865.583435 40.0
866.03363 48.0
867.910522 124.0
868.041992 80.0
869.507568 48.0
871.557617 44.0
873.59259 60.0
874.533569 40.0
876.570679 40.0
877.533447 72.0
890.611328 52.0
891.58374 60.0
892.555481 56.0
893.555481 92.0
895.545288 32.0
899.493958 84.0
900.559021 52.0
901.564392 52.0
903.55603 28.0
905.530762 56.0
907.621338 132.0
908.596375 176.0
914.588135 36.0
916.528687 56.0
917.07666 28.0
917.5755 200.0
918.569275 220.0
919.626587 64.0
924.562622 48.0
925.570801 60.0
926.56012 68.0
929.55072 100.0
930.619934 32.0
931.534119 68.0
932.643433 64.0
933.578125 40.0
935.607727 240.0
936.577698 200.0
936.794617 60.0
937.580505 204.0
938.590454 36.0
939.547607 96.0
940.485718 44.0
941.580811 56.0
946.59491 44.0
948.579712 140.0
949.46051 52.0
953.589783 88.0
954.593994 72.0
959.583374 52.0
961.578796 40.0
962.211426 164.0
964.602905 180.0
965.612671 116.0
966.60614 84.0
974.629456 116.0
975.59082 56.0
976.598267 104.0
977.576965 48.0
978.590759 108.0
979.580872 88.0
984.425171 68.0
986.646484 48.0
987.585266 84.0
992.624573 212.0
993.606995 128.0
994.651855 60.0
995.634827 68.0
996.260803 32.0
996.5224 68.0
1003.638489 60.0
1010.617737 44.0
1011.671753 52.0
1012.665527 40.0
1013.588684 24.0
1014.623962 96.0
1014.776245 68.0
1023.628784 44.0
1027.609619 44.0
1028.6521 108.0
1031.604614 96.0
1032.598633 84.0
1033.626099 64.0
1040.626465 36.0
1042.807373 116.0
1047.701538 76.0
1048.640991 76.0
1048.868164 32.0
1049.629639 144.0
1049.983154 80.0
1050.603027 36.0
1051.677612 84.0
1057.598267 28.0
1059.091431 32.0
1059.623413 64.0
1060.647827 72.0
1061.644531 64.0
1062.60022 36.0
1067.613892 76.0
1069.635254 28.0
1070.281616 36.0
1072.514282 28.0
1072.6604 76.0
1073.725342 56.0
1074.373047 36.0
1074.540161 36.0
1075.187988 32.0
1075.646484 680.0
1075.88916 52.0
1076.254272 48.0
1076.442505 36.0
1076.658813 424.0
1077.65625 276.0
1078.388428 48.0
1078.650391 100.0
1079.142212 80.0
1079.661011 264.0
1080.65979 36.0
1081.685181 44.0
1082.348389 32.0
1083.481201 32.0
1083.963867 80.0
1085.958618 44.0
1091.67981 32.0
1092.627808 56.0
1093.892456 36.0
1103.760498 44.0
1107.653564 64.0
1108.715942 44.0
1109.358521 60.0
1109.698242 108.0
1120.362427 36.0
1121.643066 108.0
1124.655273 56.0
1132.943604 44.0
1133.673218 76.0
1133.866455 36.0
1134.789551 44.0
1146.932983 96.0
1160.682495 44.0
1177.667358 156.0
1178.679077 136.0
1179.728882 116.0
1180.69519 68.0
1182.852173 44.0
1216.677612 112.0
END IONS
