BEGIN IONS
PEPMASS=864.338
CHARGE=1
MSLEVEL=2
SOURCE_INSTRUMENT=LC-ESI-Ion Trap
FILENAME=f.xyying/sansanmycin/M331-2-(+).mzML;
SEQ=*..*
IONMODE=Positive
ORGANISM=GNPS-LIBRARY
NAME=Dereplicator Identification - Sansanmycin;_Sansanmycin_A M+H
PI=Yunying Xie
DATACOLLECTOR=Yihong Li
SMILES=CSCCC(NC(=O)NC(CC1=CNC2=CC=CC=C12)C(O)=O)C(=O)NC(C(C)N(C)C(=O)C(N)CC1=CC=CC(O)=C1)C(=O)N\C=C1/C[C@@H](O)[C@@H](O1)N1C=CC(=O)NC1=O
INCHI=
INCHIAUX=
PUBMED=
SUBMITUSER=xyying
TAGS=
LIBRARYQUALITY=3
SPECTRUMID=CCMSLIB00004751957
SCANS=3058
241.034393 10.266423
242.152435 5.871796
244.158157 2.566428
246.279037 2.659271
253.945618 1.726114
256.110901 41.467842
258.162354 33.038017
259.116333 26.018522
265.167236 4.712811
268.18454 6.415624
269.003357 4.98475
271.058838 12.807346
272.308594 22.36235
273.109283 6.708564
275.145142 1.612933
278.124786 14.243969
278.763672 1.579629
280.161896 5.770162
282.085449 6.537584
283.151123 3.5682
284.250702 1.411341
286.1492 67.031235
288.172791 24.015617
289.34967 16.095259
290.303864 1.209631
291.336853 11.476475
292.215515 4.590524
292.880768 1.84833
294.983307 2.275542
297.818146 13.950766
298.442169 8.203721
299.269348 13.313282
300.161499 29.9345
302.114441 2.665341
306.178802 4.689825
309.385864 14.10129
310.120239 3.186425
316.121246 97.540123
317.023376 7.595617
324.013977 1.808641
325.16803 1.929672
326.952515 1.84025
328.030792 2.296489
331.52124 2.883655
332.303314 7.467032
334.114868 112.564171
336.167725 23.743637
339.268982 2.887168
340.083038 4.830547
342.312408 8.141963
344.157745 147.114487
350.255737 56.964523
352.184692 4.881509
354.216858 8.145745
356.361816 1.062852
357.174866 3.028385
360.223389 4.733287
362.055298 558.50354
362.69928 6.593829
363.31134 1.243603
364.162781 20.138288
373.053711 13.358493
373.708618 2.399692
374.32428 5.524472
375.203369 4.45798
376.24353 3.590402
378.157715 11.161585
379.193359 7.921658
381.209045 2.488897
384.26358 3.294535
388.500427 3.015864
391.178741 32.144928
392.294128 21.124773
393.424866 10.386027
395.219543 1.232217
396.497009 5.722998
401.150757 6.452243
402.038818 2.211235
403.24115 7.763187
404.52417 2.58952
407.295471 6.982643
408.730835 30.826958
409.372192 275.826721
410.108643 2.364756
412.284546 11.031005
413.971252 4.268766
416.274841 5.623872
417.886047 22.360849
419.374451 25.586216
421.34137 9.032232
422.282715 21.997538
426.364746 14.316158
427.212646 66.323929
428.214417 95.584892
429.392822 8.465007
431.537964 1.261605
435.307617 243.900604
438.449402 18.236675
440.111511 70.944962
442.239624 7.0329
443.290405 2.579547
445.157532 445.847107
446.270447 102.503181
447.05365 5.150535
448.109985 26.536354
452.238037 36.223381
453.371094 25.000486
454.465881 1.705522
457.158997 2.27655
458.196045 7.236593
459.480652 1.757865
462.60083 3.816147
463.391663 4.177782
465.212463 8.526309
466.219482 111.371773
467.412537 52.570351
469.320007 6.705418
470.380493 6.796805
471.133118 37.720928
472.620911 1.551324
473.294739 9.380139
474.319824 1.221476
476.234802 32.95546
478.765076 36.848011
479.376587 118.767982
482.301147 6.705049
485.325317 238.376511
486.135132 9.133221
487.489868 6.936922
490.769165 10.506618
491.453857 1.955829
492.393372 4.021761
493.266907 4.507941
495.86499 1.118953
497.255432 161.537537
500.244873 1.113685
503.251648 500.542694
504.439697 286.267761
505.392517 5.637863
506.924927 5.781524
507.98822 3.277015
509.407166 6.081966
512.312378 123.939514
513.250244 6.753159
514.313416 9.503053
516.136902 1.176342
516.80719 7.259868
519.033508 1.623238
521.047974 14.076536
522.368286 44.156227
523.19696 1.351899
524.306702 3.357215
530.31842 966.084045
530.926514 4.064259
532.196472 9.46578
533.363403 2.076684
534.372009 3.821198
535.400391 5.029941
537.450623 1.913658
539.816589 40.121563
540.607422 1.598387
543.444031 8.449283
545.007874 3.237545
548.223328 167.435822
549.252991 3.631804
551.647827 7.436068
552.395203 5.033686
554.052307 1.72916
555.337097 2.011323
558.508789 14.69574
559.290894 8.784647
560.250671 10.070161
561.438904 2.666539
563.509216 1.945018
567.371582 6.227466
568.294922 5.982062
569.325989 3.424571
570.349609 5.580504
571.452271 1.045334
572.171387 2.504731
573.431824 2.366349
575.23584 3.988416
577.374329 10.975948
578.138245 2.810377
580.072388 5.708066
581.261536 3.590947
582.591797 9.585543
583.405273 1.887408
584.383057 2.125159
585.549133 10.369669
590.78595 11.22121
593.275574 41.954525
595.411987 5.611527
596.467957 5.969008
597.373657 2.38432
598.347473 16.399187
599.368103 7.068882
601.677002 1.352133
603.371643 30.15189
605.461853 4.115577
606.337769 2.074786
608.272034 8.90876
609.531433 1.26379
615.153564 1.95876
616.339417 523.958862
617.332764 16.427492
619.473938 1.424417
621.34137 123.119186
622.637878 8.20318
624.638489 6.403477
625.406067 4.976771
626.11615 7.910379
629.367981 10.189408
630.359924 1.565655
632.239319 6.780069
634.334045 1884.146606
635.300476 89.031387
636.453369 4.712155
638.752197 36.47646
639.411926 360.312683
640.493225 2.056209
642.332947 1664.933472
643.70874 8.080137
644.363953 32.156483
645.215881 4.018307
648.381287 2.354541
649.43158 1.281271
652.231201 26.727831
653.464172 7.933
654.363464 2.731163
655.309143 9.064094
656.458923 28.829287
657.740295 8.220701
660.298767 4659.067383
660.937622 23.340263
664.419006 3.22745
665.47522 9.528003
666.304138 3.240647
668.447083 7.235404
670.265198 79.723778
671.346497 7.596572
672.387451 15.416171
673.478821 16.638336
677.269714 4.897724
682.735046 39.171097
683.390137 46.949284
684.710022 8.160159
687.484497 4.869219
688.702881 8.221748
689.707336 9.499966
693.822144 3.622895
694.702087 3.982962
698.311462 35.648392
699.337952 84.57267
701.403381 453.744629
703.46051 10.240829
706.298035 3.400302
712.22699 1.971797
713.396118 5.110272
716.452087 112.504814
717.353638 21.9529
731.399109 13.304572
732.303345 6.521967
734.329163 763.144348
734.949219 15.681231
736.579529 1.539032
742.465332 1.575161
743.549255 4.275097
744.786133 1.712967
746.478577 3.707268
747.410461 8.567743
749.731201 2.591753
750.682495 5.841336
751.59845 8.792853
752.419983 42.971531
753.58197 19.34244
760.439514 1.118641
761.564575 12.391675
764.765381 10.210831
767.71167 10.033816
770.150696 6.732079
771.45105 1.118985
772.231995 1.98199
774.363037 2.946098
776.203918 2.22461
781.663879 4.359335
784.11554 5.33741
788.309021 4.321624
789.49707 21.771275
790.339111 6.427658
792.46637 2.454111
793.421326 5.350403
797.567078 6.446358
799.745728 5.557487
800.526245 18.102449
803.348938 8.455256
804.957092 2.576115
807.432251 62.307812
810.211121 4.291342
816.385437 1.616692
818.867371 17.42952
819.586853 1.794516
820.58197 10.211452
821.484436 21.116982
828.383606 135.238861
829.547424 8.401598
832.485291 6.921202
833.372375 13.470072
834.511414 7.523156
836.540833 9.067496
843.156982 5.861638
846.375244 1512.00415
847.258484 21.757603
END IONS
