BEGIN IONS
PEPMASS=197.067
CHARGE=0
MSLEVEL=2
SOURCE_INSTRUMENT=LC-ESI-qTof
FILENAME=f.alan_jarmusch/GNPS_library_additions/1,7-dimethylurate.mzXML;
SEQ=*..*
IONMODE=Positive
ORGANISM=GNPS-LIBRARY
NAME=1,7-dimethyluric acid M+H
PI=Pieter Dorrestein
DATACOLLECTOR=alan jarmusch
SMILES=CN1C2=C(NC1=O)NC(=O)N(C2=O)C
INCHI=InChI=1S/C7H8N4O3/c1-10-3-4(8-6(10)13)9-7(14)11(2)5(3)12/h1-2H3,(H,8,13)(H,9,14)
INCHIAUX=
PUBMED=
SUBMITUSER=alan_jarmusch
TAGS=
LIBRARYQUALITY=3
SPECTRUMID=CCMSLIB00004679241
SCANS=537
138.060699 22.0
140.044342 826.0
141.047028 50.0
142.085175 22.0
158.054352 160.0
162.010956 32.0
166.023743 29.0
166.476852 29.0
174.973953 16.0
175.965912 16.0
179.057297 22.0
179.084732 30.0
182.044434 92.0
195.085037 29.0
196.05983 40.0
196.124405 27.0
196.257523 29.0
196.988327 22.0
197.066284 8544.0
197.145905 46.0
198.017059 31.0
198.071518 430.0
199.069855 78.0
213.920135 18.0
215.079163 32.0
268.055878 19.0
827.30658 16.0
END IONS
