BEGIN IONS
PEPMASS=717.273
CHARGE=1
MSLEVEL=2
SOURCE_INSTRUMENT=LC-ESI-qTof
FILENAME=f.lfnothias/E amygdaloides semiperfoliata QTOF/201507 ok/MS2 E amygdaloides semiperfoliata/JE-C2-LF31163.mgf;
SEQ=*..*
IONMODE=Positive
ORGANISM=GNPS-LIBRARY
NAME=(2R,3R,4S,5R,7S,8R,9S,13R,15R)-3,5,7,8,9,14,15-Heptaacetoxy-14-oxojatropha-6(17),11E-diene / jatrophane ester isolated from Euphorbia amygdaloides ssp semiperfoliata M+Na
PI=Litaudon / Touboul
DATACOLLECTOR=Louis-Felix Nothias-Scaglia
SMILES=C[C@@]1(OC(C)=O)C[C@@](C([C@H](C)/C=C/C(C)(C)[C@H](OC(C)=O)[C@H](OC(C)=O)[C@@H](OC(C)=O)C([C@@H]2OC(C)=O)=C)=O)(OC(C)=O)[C@]2([H])[C@H]1OC(C)=O
INCHI=
INCHIAUX=
PUBMED=
SUBMITUSER=lfnothias
TAGS=
LIBRARYQUALITY=3
SPECTRUMID=CCMSLIB00000531512
SCANS=1
69.032768 139.844498
69.072998 54.003052
83.009171 87.186859
91.710022 26.005951
93.067314 36.0
107.08387 109.491203
108.091179 92.34375
109.420479 15.02273
119.048058 21.0
121.100075 165.039505
123.077751 61.121269
123.180786 23.337959
129.068649 158.086899
132.263962 47.35601
133.099182 101.239998
135.039948 54.941269
135.080383 12.00658
136.548508 35.453701
137.095032 97.71534
142.075882 35.625
143.08252 31.00543
147.110992 43.456902
149.058517 84.976349
151.073898 36.666672
157.096924 22.005951
159.079041 10.14286
159.254669 19.44643
163.07605 16.125
165.050949 50.161289
165.065735 47.5625
169.063034 57.111839
169.099792 85.004807
169.113342 31.125
171.115753 237.583298
172.124039 42.205002
173.062714 89.719116
173.092499 100.682503
173.127792 43.043098
175.070282 56.864281
175.109924 165.377808
179.085037 24.045
181.098892 73.698273
183.075928 50.223209
185.055725 56.901321
185.130768 55.48148
186.137192 21.450001
187.0728 283.967285
187.108612 14.00543
189.089493 59.02206
189.126343 189.728302
195.113251 114.735001
197.096054 149.148804
197.112595 113.739799
199.107178 66.643646
199.144852 156.042404
200.078751 55.224998
201.085693 60.64286
202.676285 28.68598
203.068146 87.036774
203.104477 19.44643
205.082993 158.4879
207.112213 59.375
209.096115 29.471149
209.127838 24.052629
211.109436 113.125
212.117493 93.125
213.087006 40.384621
214.126785 71.128517
215.070312 130.444595
215.104584 77.15522
217.099915 199.441406
219.118698 178.928604
219.695679 10.32143
221.132812 41.445648
222.100891 15.625
222.137756 66.083344
223.107239 268.272705
223.144073 77.125
225.123688 75.224998
227.108566 78.845001
228.117538 98.625
229.157471 44.578571
231.101135 31.14286
233.114212 96.986938
234.137527 119.6455
237.125839 187.683105
237.16095 164.375
238.13089 29.32181
239.107956 13.66667
239.140518 146.878403
239.362259 15.125
241.120682 15.2663
241.15419 37.56403
243.098572 83.021042
243.135101 24.04167
247.088928 91.675926
247.107941 75.03125
247.145615 308.39859
249.146225 20.25
250.13237 124.968903
251.106491 83.391296
251.140198 76.799049
251.179916 60.385639
253.122528 126.889702
255.136597 88.173851
255.175842 82.25
257.080658 119.571404
259.009155 16.10227
261.142334 50.00219
265.115295 27.24695
265.157562 1135.694946
265.475433 19.285721
267.136353 27.0
269.151917 64.951271
269.3992 19.26667
270.814758 21.25
271.11554 19.560181
273.182739 22.48214
275.143188 360.142792
277.120605 75.729729
277.142059 88.006943
279.10321 35.20454
279.128601 19.375
279.173462 29.09091
281.149475 48.89286
283.168884 370.800598
283.939331 13.78125
285.143524 52.44828
288.182373 19.560181
289.153351 51.041672
293.151489 1862.328979
293.354767 23.45455
293.507507 25.28409
293.575684 15.025
293.893585 13.00735
294.156097 35.132351
295.135803 11.00658
297.185059 75.056824
299.057526 11.16071
299.088837 27.35174
301.178009 88.385643
307.165955 23.337959
309.146637 118.905998
311.164093 1695.378052
311.32666 12.00543
311.427429 26.66667
311.467926 14.005
311.517059 17.004629
311.670685 13.14286
311.807373 19.339279
312.002502 27.45833
312.131226 52.173908
312.168121 30.375
314.688354 14.18382
317.09436 29.08654
317.147522 23.53125
320.135803 15.16346
325.17569 211.222397
325.60965 10.00658
326.954865 13.02083
329.17392 662.969116
329.257782 10.68056
330.804596 12.02273
333.145355 120.021301
334.977966 42.875
335.160797 58.130322
335.951752 36.736111
337.113281 20.41667
342.964935 74.384087
343.18689 137.621307
343.611176 43.16346
353.172668 455.312012
353.505798 56.069439
354.17099 92.561043
357.146027 67.449997
359.247223 24.032141
371.183807 332.210297
372.385742 11.05921
374.181366 102.081703
375.15567 211.378006
385.19458 33.347221
387.177521 93.92453
389.188324 86.01136
390.479736 35.308819
391.185303 105.7929
395.183899 112.676804
403.21167 179.492294
404.209625 41.44643
404.302765 35.289291
413.194458 365.924591
417.16394 323.451385
417.884888 10.03125
420.72818 13.14881
427.198792 29.720591
431.203583 94.21489
432.209839 46.462841
435.174469 555.256592
436.10611 16.44022
437.191986 32.400002
439.009674 36.111111
445.223877 60.60714
446.215363 39.53186
451.206512 74.760872
455.208618 170.775604
473.217834 246.520203
475.287994 10.125
477.187469 533.480408
478.180267 13.59559
491.22699 134.014694
491.511414 28.04167
491.753937 52.787159
494.181152 53.635201
495.196198 564.678894
504.046082 11.5625
513.209473 51.132351
515.230225 94.370613
533.23822 26.04167
534.017151 12.16447
534.730896 17.25
537.20697 1117.087036
537.278809 24.1
537.789978 51.689999
538.150635 23.157049
538.222534 23.322371
555.21283 15.02778
575.262817 21.625
596.672119 17.52083
597.230103 5337.479004
597.372559 14.8
597.555237 55.51524
597.708618 24.049999
597.769226 24.226851
597.947876 39.030411
598.237366 35.185612
598.390442 46.125
598.458557 20.285721
598.526672 10.0
598.552185 17.20455
598.612305 75.237358
598.921448 14.28571
599.216553 17.066179
599.499023 10.45
600.37561 25.132351
601.382202 16.01667
601.822876 18.0
602.41925 50.260872
615.235596 68.183823
654.807617 31.41346
657.250854 6244.662109
657.383301 24.01923
657.454712 23.45833
657.502319 27.785721
657.543152 20.04167
657.597473 13.02273
657.676025 10.125
657.730896 13.32143
657.802734 20.25
657.861816 58.431122
657.919434 46.695648
658.021179 50.85714
658.07428 14.28571
658.255432 263.357391
658.339905 59.93829
658.40979 16.111111
658.625427 32.224998
658.768677 23.55769
658.883301 47.39859
659.075256 17.361111
659.106506 30.24695
660.393738 34.387821
661.524414 15.92045
661.762939 52.242649
681.068237 30.26042
695.758118 23.81818
717.269775 2711.417969
717.442139 11.0
717.604553 82.25
717.70697 20.654409
717.956421 43.560001
718.079529 14.28571
718.197388 15.00463
718.271179 14.025
718.655151 35.81686
718.738403 23.066669
718.859314 19.65761
END IONS
