BEGIN IONS
PEPMASS=550.0
CHARGE=2
MSLEVEL=2
SOURCE_INSTRUMENT=DI-ESI-Ion Trap
FILENAME=Nordidemnin_B_IT_550mz.mzXML
SEQ=*..*
IONMODE=Positive
ORGANISM=GNPS-LIBRARY
NAME=Nordidemnin B M+H
PI=Dorrestein/Moore
DATACOLLECTOR=Roland Kersten
SMILES=O=C(N1CCC[C@H]1C(=O)N(C)C(C(=O)N[C@@H]2C(=O)N[C@@H]([C@@H](O)CC(=O)O[C@H](C(=O)[C@@H](C(=O)N[C@H](C(=O)N4[C@H](C(=O)N(C)[C@H](C(=O)O[C@@H]2C)Cc3ccc(OC)cc3)CCC4)CC(C)C)C)C(C)C)C(C)C)CC(C)C)[C@@H](O)C
INCHI="InChI=1S/C56H87N7O15/c1-29(2)25-38-53(72)63-24-16-18-40(63)55(74)61(13)42(27-36-19-21-37(76-14)22-20-36)56(75)77-35(11)46(59-50(69)41(26-30(3)4)60(12)54(73)39-17-15-23-62(39)52(71)34(10)64)51(70)58-45(31(5)6)43(65)28-44(66)78-48(32(7)8)47(67)33(9)49(68)57-38/h19-22,29-35,38-43,45-46,48,64-65H,15-18,23-28H2,1-14H3,(H,57,68)(H,58,70)(H,59,69)/t33-,34-,35+,38-,39-,40?,41?,42-,43-,45+,46-,48-/m0/s1"
INCHIAUX=N/A
PUBMED=22458477
SUBMITUSER=mcruesemann
TAGS=
LIBRARYQUALITY=3
SPECTRUMID=CCMSLIB00000075325
SCANS=75
164.045319 2.568242
164.953247 2.206144
167.043213 2.12081
168.909088 1.114223
169.95816 28.73439
170.907379 12.304914
172.957779 2.974754
173.818176 1.22434
177.042053 2.536019
178.090912 1.054677
180.049637 5.284781
180.955414 3.18067
183.131699 10.087686
184.044739 7.204172
185.049759 20.935759
185.771408 7.56654
189.042343 2.156598
191.075226 11.588431
191.955002 16.391859
193.059326 5.876782
195.131714 2.412447
196.144653 7.264489
197.046051 2.201504
198.065903 45.422352
199.034073 65.21302
200.07019 12.58499
201.171616 7.804942
202.027802 5.479491
203.086334 7.269117
205.0569 6.510793
206.002792 3.961983
207.043121 2.237203
209.010193 4.698875
210.076981 11.790649
210.99646 3.804897
212.410873 3.011
213.069977 20.002726
214.95546 28.671125
217.012299 11.185416
218.139496 2.214557
219.149948 7.207384
220.038803 11.003206
221.048981 12.9792
222.001877 3.773808
223.076172 10.632405
224.040085 5.14871
225.136307 2.768543
225.989471 6.403332
227.078018 18.942993
228.045929 2.66792
229.147781 16.465115
231.090912 1.010316
233.13768 3.444415
234.181824 1.116173
235.089935 12.091726
236.008972 7.98878
237.155121 9.424479
238.061859 7.106658
239.09964 3.953223
240.086792 3.966146
242.086014 3.582643
243.122208 30.838247
245.000854 3.735541
246.093491 3.98481
247.117233 10.379171
249.123459 6.172383
250.272736 1.031343
251.128586 13.64159
252.044205 8.761975
253.081299 8.498277
254.126892 6.821663
255.127441 13.665373
256.181824 1.00162
257.0 1.003138
259.157196 32.410076
260.194641 6.484585
261.183899 7.862041
262.044128 2.704827
263.172577 11.790008
264.181824 1.05277
265.158234 20.124645
266.17691 13.533236
267.157288 10.224576
268.105011 4.881275
269.12915 9.377694
270.246552 21.829218
271.158783 73.584496
272.147278 9.248917
273.132324 7.95339
274.133179 3.334905
275.098022 6.111789
276.096832 3.811821
277.10257 6.474061
278.085266 4.374119
279.178894 4.542958
280.19931 6.635863
281.160614 30.922466
282.170074 12.081244
283.192017 13.133249
284.158203 10.722545
285.138367 20.044037
286.212158 5.613217
287.029358 136.628387
288.320648 31.036589
289.120514 12.884357
290.279236 4.506652
291.204376 9.524235
292.149841 7.7186
293.172272 22.672018
294.214905 8.437138
295.102417 10.323939
296.177704 18.957043
297.034698 223.128403
298.237549 133.315643
299.314514 22.002151
300.204437 8.065593
301.165649 13.01288
301.6745 3.181841
302.182159 4.065884
303.111542 43.231922
304.182037 8.616356
305.183441 16.885675
306.162018 12.820449
307.248962 43.742977
308.209869 12.454019
309.125916 7.852468
310.144135 9.581451
311.134949 12.434822
312.134308 5.664
313.279297 6.199975
314.047607 2.860038
315.063995 11.426751
316.191467 4.053084
317.173676 21.395493
318.153015 10.483767
319.201416 11.623155
320.224976 13.133583
321.185364 17.368078
322.072083 22.939892
323.109741 19.786478
324.153442 12.916213
325.218262 34.5107
326.225037 32.743912
327.234711 13.717367
328.187469 7.172984
329.178223 16.910559
330.006653 12.534821
331.209778 46.179386
332.284485 3.52122
333.231659 18.609098
334.207581 35.1534
335.233185 22.471737
336.17804 27.885458
337.255157 30.837904
338.198639 9.117505
339.135895 14.841287
340.131073 9.039651
341.257141 18.053873
342.333374 9.698744
343.142639 10.43458
344.223846 2.732019
345.332367 12.059155
346.294708 8.218829
347.265991 11.732328
348.30365 37.978088
349.143463 17.307819
350.2901 18.044029
351.226074 29.021208
352.170319 13.979881
352.67926 5.6908
353.229797 11.007293
354.146942 7.65942
354.719788 8.264777
355.267548 15.918669
356.162994 14.542166
357.229523 16.613398
358.136658 6.622653
359.298492 13.424322
360.145111 21.149553
361.244812 28.37302
362.248657 17.823517
363.219421 37.173504
364.290497 31.374861
365.284912 22.840916
366.175537 8.740533
367.293915 14.936882
368.201569 33.411507
369.222229 44.303398
370.166351 11.813959
371.32309 14.881172
372.176453 17.58984
373.307587 19.830566
374.189728 17.771149
375.213806 18.02594
376.293457 16.663574
377.170197 46.834507
378.24472 33.777653
379.272949 33.26226
380.221039 18.180876
381.150848 23.794947
382.235626 10.007146
383.102356 12.174005
384.191803 9.899581
385.249451 15.681877
386.299683 20.590729
387.207031 55.560581
388.272583 26.14291
389.240509 25.68626
390.207001 20.264975
391.32019 30.526564
392.33316 18.264732
393.316132 72.977875
394.270813 35.000095
395.173126 11.288145
396.207703 20.826473
397.169434 26.558352
398.248535 18.162956
399.232605 16.084749
400.202576 16.411863
401.219025 32.029301
402.240631 28.601198
403.276733 34.742706
404.255768 25.808376
405.317291 222.06163
406.396179 41.453682
407.408966 57.189724
408.379364 25.654711
409.259064 12.670965
410.288666 19.648287
411.360138 17.219498
412.282867 11.09458
413.248535 24.172279
414.25174 13.890105
415.177643 19.870565
416.071686 14.355056
417.272888 23.114334
418.254456 29.448643
419.125061 96.314224
420.261047 47.310558
421.328033 46.502781
422.20929 47.384174
423.307648 36.005081
424.271729 26.131023
425.200806 361.729858
426.232391 23.316681
427.310577 18.594065
428.103363 16.638805
429.154236 28.84236
430.302216 26.376457
431.255249 50.560307
432.395081 25.224697
433.320435 37.816093
434.265808 64.999924
435.276337 75.436028
436.264343 97.398796
437.24408 93.69912
438.267151 83.579941
439.269226 29.547432
440.31015 11.69054
441.412567 6.777964
442.411194 2.659537
443.23999 16.295527
444.279022 10.034904
445.322754 31.606028
446.342377 19.474918
447.409882 27.428242
448.31311 31.460144
449.332581 32.071236
450.284027 25.864658
451.222931 40.380653
452.25174 61.803822
453.163757 35.118328
454.159912 28.527447
455.205719 14.665998
456.256165 51.778755
457.227661 50.309525
458.343994 29.827456
459.17392 30.737095
460.234436 41.606461
461.304565 49.996864
462.307281 63.118504
463.258514 39.896111
464.227661 34.800808
465.282959 1278.341553
466.324402 309.124603
467.308441 43.971882
468.268066 14.095839
469.202362 14.644543
469.727295 1.035935
470.253082 14.169146
471.221832 21.898796
472.252289 25.305605
473.348785 20.329168
474.17157 22.675447
474.678955 15.578949
475.358398 48.124485
476.244568 64.646721
477.304291 114.084373
478.361328 52.508896
479.2854 104.913086
480.395905 29.319496
481.378845 33.623123
482.409637 2.73063
483.371185 15.353848
484.27005 4.142706
485.257172 20.170366
486.350525 45.390095
487.393036 25.93536
488.373047 77.598465
489.343689 92.413971
490.310638 90.431534
491.273468 80.389648
492.264771 41.252831
493.272369 117.123253
494.202606 103.35923
495.213623 537.1651
496.251068 56.273937
497.196045 9.587779
498.406281 2.456649
499.309357 8.540104
499.840973 10.304258
500.486145 10.631361
501.307312 10.584681
502.355194 56.30875
503.349396 62.116257
504.316925 84.439514
505.340851 85.632584
506.268707 141.594055
507.294647 102.666611
508.352936 35.127632
509.151855 12.856252
509.78009 3.177379
510.368378 4.669369
511.43457 18.447327
512.306152 35.676186
513.283691 930.907654
514.360474 457.854736
515.335571 114.075363
516.275452 10.585383
517.332886 145.834045
518.340271 111.524559
519.332458 78.128235
520.306335 57.837757
521.287292 51.593975
522.326538 53.079052
523.39386 30.078777
524.219238 9.483013
524.908936 3.928641
525.823792 15.326866
526.473816 8.415262
527.667236 39.304588
528.715149 41.9165
529.464722 10.438793
530.137695 2.676011
530.648743 42.9688
531.307556 3871.975342
532.305359 1317.812012
533.30835 351.113098
534.396118 77.196075
535.582031 65.06752
536.329651 20.306261
537.047607 12.265533
538.181824 1.134486
539.181824 1.132271
540.539307 239.927811
541.208679 184.609528
542.006042 94.161552
542.889832 7.382116
543.794739 5.606236
547.181824 1.22126
549.339661 242.992355
550.403931 68.744621
551.256897 18.658356
552.051086 14.016819
568.36615 5.153728
577.454529 1.022725
579.443237 5.315091
613.137878 3.961299
638.493408 2.877572
673.636353 1.048383
676.363647 1.077106
686.261719 4.183758
697.494446 2.323463
709.727783 3.86663
719.867188 5.324847
721.727295 1.198947
724.636353 1.101289
770.090942 1.279681
774.426453 10.4195
784.348694 16.647545
786.500732 2.301053
792.495789 32.880043
793.506958 7.113857
802.323853 475.615692
803.415405 116.634888
804.529541 56.60516
805.368896 32.657745
806.173035 6.476652
807.272766 1.253958
810.427979 8.580612
811.545471 1.057898
812.595703 18.678482
813.19812 5.715468
813.772766 2.611625
814.360352 3.787733
814.954102 19.423103
820.499817 2.040592
847.545471 1.049368
893.220642 2.604805
921.366638 3.780376
929.537231 43.373993
930.544617 14.031637
1057.689331 2.74581
1059.665649 174.850494
1060.671997 102.520248
1061.757812 49.245026
1062.831299 17.248747
1063.954834 2.20454
1075.755005 47.382439
1076.72522 21.467583
1077.564331 7.652895
1078.865967 3.338367
END IONS
