BEGIN IONS
PEPMASS=600.921
CHARGE=0
MSLEVEL=2
SOURCE_INSTRUMENT=LC-ESI-Orbitrap
FILENAME=f.lfnothias/1901_fungal_symbiont_annotation_confirmation/Pure_compounds/Pure_compounds_mzML/LeucinostatinAandB_1uL.mzML;
SEQ=*..*
IONMODE=Positive
ORGANISM=GNPS-LIBRARY
NAME=Leucinostatin A2 M+2H, observed in Leucinostatin A/B stand annotate with dereplicator M+2H
PI=Leucinostatin_A2
DATACOLLECTOR=lfnothias
SMILES=N1(C(C(=O)NC(C(=O)NC(C(=O)NC(C(=O)NC(C(=O)NC(C(=O)NC(C(=O)NC(C(=O)NCCC(=O)NC(CN(C)C)C)(C)C)(C)C)CC(C)C)CC(C)C)(C)C)C(C(C)C)O)CC(C/C=C/C(=O)CC)C)CC(C1)C)C(=O)/C=C/[C@@H](CC)C
INCHI=
INCHIAUX=
PUBMED=
SUBMITUSER=lfnothias
TAGS=
LIBRARYQUALITY=3
SPECTRUMID=CCMSLIB00005435725
SCANS=2105
82.790512 1654.101807
84.08078 8079.397461
86.096893 2302.168457
111.080368 9143.8125
112.075958 2299.541992
129.102554 2091.813721
129.390701 1591.632202
129.748688 1773.195312
168.844757 1583.424805
194.1539 14977.482422
195.157486 1985.695312
222.148926 7020.902832
570.440979 1878.176392
END IONS
