BEGIN IONS
PEPMASS=514.28
CHARGE=2
MSLEVEL=2
SOURCE_INSTRUMENT=LC-ESI-Orbitrap
FILENAME=f.Rolandoo1/20190519 Moroidin paper GNPS/Celogentin C.mzXML;
SEQ=*..*
IONMODE=Positive
ORGANISM=GNPS-LIBRARY
NAME=Celogentin C M+2H
PI=Jing-Ke Weng
DATACOLLECTOR=Roland Kersten
SMILES=O=C1CC[C@@H](C(N[C@H](C(N[C@@H](CC(C)C)C(N[C@@H](C(C)C)C(N[C@@](C(N2[C@H](C3=O)CCC2)=O)([H])CC4=C(N5C=NC(C[C@@H](C(O)=O)NC([C@@H](N3)CCCNC(N)=N)=O)=C5)NC6=C4C=CC7=C6)=O)=O)=O)[C@@H]7C(C)C)=O)N1
INCHI=
INCHIAUX=
PUBMED=
SUBMITUSER=Rolandoo1
TAGS=
LIBRARYQUALITY=3
SPECTRUMID=CCMSLIB00005435902
SCANS=1
72.076431 5935.687988
72.077019 23398.171875
72.077599 61230.1875
72.078178 84419.03125
72.078758 131888.09375
72.079338 430638.46875
72.079918 1429461.125
72.080498 2713298.75
72.081078 3943393.25
72.081657 3569570.0
72.082237 2224010.0
72.082817 961924.3125
72.083397 270069.0625
72.083977 91530.8125
72.084557 76811.484375
72.085136 43126.6875
72.085716 30149.580078
72.086296 2090.118652
72.086884 2.945235
73.081932 39.713142
73.082527 1741.570801
73.083122 6753.339844
73.08371 24695.810547
73.084305 37041.199219
73.0849 37233.929688
73.085487 24547.652344
73.086082 10414.818359
73.086678 2603.049072
75.447075 899.967041
75.447701 1857.226562
75.448318 2441.078125
75.448944 2205.117432
75.449562 1318.485229
76.822121 165.181381
76.822762 3000.946289
76.823402 4261.128418
76.824043 4765.862305
76.824677 4248.404785
76.825317 2788.28125
84.040771 940.368713
84.041504 11436.701172
84.042236 47152.394531
84.042969 157987.984375
84.043694 326007.84375
84.044426 487499.21875
84.045158 484337.5
84.045891 311658.875
84.046616 149524.421875
84.047348 40328.992188
84.04808 12749.336914
84.048813 10555.716797
84.049545 19219.740234
84.05027 7829.188477
84.051003 90.446213
84.078773 387.439392
84.079506 3742.28418
84.080238 6288.60791
84.080971 7119.694824
84.081703 5490.657715
84.082428 2543.130615
86.090164 1122.32959
86.090919 12569.530273
86.091682 25375.521484
86.092438 61197.503906
86.093193 85316.296875
86.093956 243128.90625
86.094711 788149.9375
86.095467 1837442.75
86.096222 2901043.0
86.096985 3256956.5
86.09774 2296423.25
86.098495 1228673.0
86.099258 374241.96875
86.100014 104774.867188
86.100769 53493.898438
86.101524 40865.9375
86.102287 14271.243164
86.103043 874.2724
87.097206 574.679016
87.097977 5783.201172
87.098747 17033.902344
87.099518 27965.746094
87.100288 31787.560547
87.101059 22336.070312
87.10183 11741.5625
87.102608 3537.31958
90.09111 456.303558
90.091927 3200.384277
90.092735 4667.359375
90.093544 5361.182617
90.09436 4757.233887
90.095169 2819.649902
92.556061 82.816994
92.556908 920.082336
92.557755 2395.614014
92.558594 4349.970215
92.559441 5089.087402
92.560287 1912.585327
95.449913 827.558411
95.450798 5575.491699
95.451683 8658.24707
95.452568 9824.256836
95.453453 8433.920898
95.454338 4850.119141
100.776604 149.676208
100.777557 1075.464844
100.778519 1840.788818
100.77948 2099.637451
100.780441 1658.393555
100.781395 812.074585
110.066322 1548.044189
110.067421 8261.470703
110.068512 22146.246094
110.069611 52313.816406
110.070702 80818.15625
110.0718 86007.34375
110.072891 58163.625
110.07399 28666.158203
110.075089 8078.256348
112.082024 600.476135
112.083153 4348.180664
112.084274 13889.865234
112.085396 27342.328125
112.086525 38747.578125
112.087646 37626.945312
112.088776 23844.121094
112.089897 9090.287109
112.091026 1611.230957
113.067368 1146.463989
113.068504 5012.359375
113.069649 7884.30127
113.070786 8782.005859
113.07193 6941.475586
113.073067 3164.14917
113.988403 223.531113
113.989563 1139.312378
113.990715 1763.016235
113.991867 1943.702271
113.993019 1554.47583
113.994179 760.397766
114.051903 1719.327759
114.053055 7550.086426
114.054214 10820.189453
114.055367 11205.864258
114.056519 8397.919922
114.057678 3693.409424
126.782486 974.255554
126.783844 3492.934082
126.785194 4970.210449
126.786545 5170.510742
126.787903 3835.481201
126.789253 1594.876465
127.042786 288.842773
127.044144 1243.171875
127.045502 1943.546509
127.04686 2121.007568
127.048218 1647.443237
127.049576 738.501648
129.061142 1213.738037
129.062531 4672.297852
129.063919 7832.860352
129.065308 9643.996094
129.066696 8876.011719
129.068085 6029.095703
129.069473 2224.443604
131.296143 2510.042236
131.297577 8402.288086
131.298996 10421.145508
131.30043 9883.09668
131.301849 7013.627441
131.303284 2932.29541
137.600143 1844.809692
137.601685 6372.886719
137.60321 9071.709961
137.604736 9368.844727
137.606277 7255.416992
137.607803 3017.396729
140.135544 160.502441
140.137115 5526.469238
140.138687 32370.791016
140.140259 81497.25
140.14183 134180.984375
140.143402 150189.0
140.144974 112832.710938
140.146545 59389.0
140.148117 21130.707031
140.149704 5035.613281
146.838196 1044.930908
146.83989 3603.99585
146.841568 5298.986328
146.843262 5537.048828
146.84494 4219.938965
146.846634 1872.373779
147.359238 1907.478638
147.360947 6471.455078
147.36264 8839.164062
147.364334 8842.286133
147.366028 6608.041992
147.367722 2963.638916
152.101349 1930.84021
152.103134 8373.927734
152.104919 15979.792969
152.106689 20963.246094
152.108475 20061.394531
152.110245 13467.80957
152.11203 4876.731934
156.069214 983.958984
156.07106 7133.316895
156.072922 21685.203125
156.074768 38675.3125
156.076614 47862.351562
156.078461 39555.191406
156.080307 21790.21875
156.082153 7657.009766
156.084015 1613.64917
158.085236 1010.318115
158.087128 4731.586914
158.089005 9240.699219
158.090897 11505.229492
158.092773 9659.96582
158.094666 4483.371582
161.371689 1756.237305
161.373642 6703.266113
161.37558 10231.595703
161.377533 11206.96875
161.379471 9017.848633
161.381409 4347.319824
167.110764 773.344604
167.112823 4879.431152
167.114868 12261.140625
167.116913 16963.085938
167.118958 16673.808594
167.121017 11008.021484
167.123062 3569.543213
168.131439 2047.925171
168.133514 7583.735352
168.135574 10518.693359
168.137634 11184.790039
168.139709 9205.583008
168.141769 4723.560059
171.248062 324.682892
171.250183 1392.263672
171.252319 2288.105469
171.25444 2645.201416
171.256561 2200.342041
171.258682 1102.778198
175.109467 1746.495361
175.111664 8896.089844
175.113861 21620.1875
175.116058 39681.394531
175.118256 52291.527344
175.120453 44146.84375
175.12265 22989.107422
175.124847 10138.62207
175.127045 2697.688721
180.082001 3046.72998
180.08429 12125.740234
180.086594 19202.148438
180.088882 20992.113281
180.091171 16167.350586
180.09346 7981.169922
180.095749 2004.709229
185.149887 2036.654785
185.152283 7737.638184
185.154663 26436.978516
185.157059 112709.609375
185.159454 292012.84375
185.161835 513899.5
185.16423 644772.8125
185.166611 544398.6875
185.169006 321813.0
185.171402 139274.390625
185.173782 42019.132812
185.176178 15560.892578
185.178558 7850.998047
185.180954 1933.177856
185.94075 1763.655518
185.943161 6887.477539
185.945557 9644.527344
185.947968 9699.514648
185.950378 6982.88916
185.952774 2937.689209
186.159729 3582.866455
186.16214 14940.25293
186.164551 24599.783203
186.166962 29025.417969
186.169373 24899.177734
186.171768 15136.823242
186.174179 5513.411621
193.136993 1112.897583
193.139542 4186.848633
193.14209 5595.191406
193.144638 5552.785156
193.147186 4029.200684
193.149734 1728.7052
195.10144 986.416138
195.104019 6025.083984
195.106598 18685.423828
195.109192 39179.074219
195.111771 55972.554688
195.114349 55225.6875
195.116943 37304.085938
195.119522 17979.308594
195.122101 4769.030273
196.105331 976.742859
196.107925 3647.007568
196.110535 5048.626953
196.113144 5336.612305
196.115738 4412.203613
196.118347 2284.371826
212.128189 646.214172
212.131119 4256.259277
212.134048 11995.009766
212.136978 19838.474609
212.139908 22595.513672
212.142838 17961.169922
212.145767 7730.231934
212.148697 1272.149048
213.145477 714.694763
213.148438 12528.191406
213.151382 56181.820312
213.154343 119661.0
213.157288 175518.125
213.160233 171552.96875
213.163193 117228.320312
213.166138 56130.910156
213.169098 18730.205078
213.172043 4758.429199
214.155243 2600.321777
214.158218 9441.229492
214.161194 12728.855469
214.164169 12341.276367
214.167145 8697.214844
214.170105 3697.999023
221.288376 2522.121338
221.291489 8870.519531
221.294617 11293.24707
221.297729 10829.132812
221.300858 7811.64209
221.303986 3448.697266
237.126663 1445.783325
237.130127 5783.48877
237.133591 9535.865234
237.137054 10393.006836
237.140518 7638.078125
237.143982 2078.468262
254.143311 1262.980957
254.147156 15133.791992
254.151001 55406.382812
254.154846 110327.570312
254.158676 153756.28125
254.162521 143482.546875
254.166367 94791.429688
254.170212 44184.003906
254.174057 13794.837891
254.177887 3344.188721
255.13739 1489.531128
255.141266 4953.312988
255.145126 6743.575684
255.148987 6276.765137
255.152847 3960.46875
255.156723 1298.870728
272.150574 2080.275879
272.154816 14503.479492
272.159088 57305.691406
272.16333 131642.71875
272.167603 209567.875
272.171844 235479.6875
272.176117 179326.828125
272.180359 97038.53125
272.184631 35772.261719
272.188873 8746.913086
272.193146 1215.954224
272.627991 1221.376343
272.632263 3990.130615
272.636536 5645.789551
272.640808 5672.670898
272.645081 3976.680176
272.649353 1536.78125
295.138062 1513.771851
295.142853 5181.967773
295.147675 8145.761719
295.152496 9289.223633
295.157288 7718.958496
295.162109 4443.189453
295.166901 1392.139282
301.647858 1922.560547
301.652832 6633.908203
301.657806 10331.771484
301.66275 11385.314453
301.667725 8852.103516
301.672699 3637.194824
303.138733 1293.625977
303.143738 4141.047363
303.148743 5969.20752
303.153748 6258.007324
303.158752 4994.887695
303.163757 2272.303711
309.63736 1767.954834
309.642517 5153.66748
309.647675 6691.635254
309.652863 6392.735352
309.65802 4353.315918
309.663177 1635.891357
315.649445 1238.525513
315.654755 3948.666992
315.660065 5650.866211
315.665375 5691.118652
315.670715 4048.900391
315.676025 1570.444092
316.65686 1188.708496
316.662231 4104.993164
316.667572 6753.683594
316.672913 8019.174316
316.678253 7044.922852
316.683594 4455.246094
316.688934 1573.979614
318.524506 546.849121
318.529907 1856.35791
318.535278 2768.322754
318.54068 2984.266113
318.546082 2326.580566
318.551453 1017.235718
321.641327 747.289062
321.64679 3121.974609
321.652283 6620.408691
321.657745 9637.429688
321.663208 9923.213867
321.668671 7215.090332
321.674164 3403.520996
321.679626 797.768616
324.144592 2281.916016
324.150146 12619.081055
324.15567 51192.617188
324.161194 135885.703125
324.166748 247589.625
324.172272 320850.3125
324.177795 281450.9375
324.18335 170107.96875
324.188873 73524.578125
324.194397 19222.537109
324.199951 4153.477051
324.654297 1511.03186
324.659851 10119.040039
324.665405 25421.808594
324.670959 38455.488281
324.676483 41788.222656
324.682037 31838.773438
324.687592 15585.932617
324.693146 3350.866943
324.6987 739.607971
325.649475 1171.717529
325.655029 6385.698242
325.660614 19478.228516
325.666199 38782.660156
325.671753 52859.785156
325.677338 50588.136719
325.682922 34404.023438
325.688477 16430.101562
325.694061 3910.449707
330.153534 3572.843994
330.159241 16047.80957
330.164917 35160.035156
330.170593 58524.460938
330.1763 63728.074219
330.181976 40659.699219
330.187683 20479.498047
330.193359 5446.175781
336.155731 3792.453613
336.161591 10922.375
336.167419 14146.130859
336.173279 13129.84375
336.179108 8308.263672
336.184967 2747.874512
338.151611 3031.352295
338.157501 10366.713867
338.163391 17104.521484
338.169281 19508.388672
338.175201 15594.555664
338.181091 7997.114258
338.186981 1611.708496
338.659271 2633.968018
338.665161 14109.364258
338.671082 42163.402344
338.677002 95846.578125
338.682892 146965.078125
338.688812 162215.40625
338.694733 117906.34375
338.700623 61534.859375
338.706543 17354.990234
338.712463 1456.10083
339.16806 1002.12384
339.173981 3409.124512
339.179901 5606.19873
339.185822 6486.519531
339.191742 5337.654785
339.197662 2312.05542
344.156189 2137.854004
344.162262 7390.427246
344.168304 11498.962891
344.174347 11505.202148
344.18042 7572.481934
344.186462 2600.236572
351.163025 1553.525757
351.169281 5284.355957
351.175507 8573.904297
351.181732 9335.238281
351.187988 6964.277832
351.194214 3274.953369
351.20047 718.499512
352.659119 791.64801
352.665405 7532.358887
352.671692 23316.775391
352.677948 40903.027344
352.684235 49340.828125
352.690521 41955.089844
352.696808 25340.271484
352.703094 11005.875977
352.709351 2972.062744
353.703888 1272.08374
353.710205 4100.772461
353.716492 6549.105957
353.722809 7696.54541
353.729126 6989.01416
353.735413 4909.171387
353.74173 1936.535645
358.701477 2244.560303
358.707916 8717.367188
358.714355 15725.473633
358.720795 18828.585938
358.727264 16227.944336
358.733704 8490.003906
358.740143 1515.385132
364.194275 2269.105713
364.200867 6107.124512
364.207458 7584.641113
364.21405 6710.700684
364.220642 4277.977539
364.227234 1510.08313
365.171631 1203.817749
365.178223 4426.595703
365.184845 8275.195312
365.191467 10773.530273
365.19809 10054.602539
365.204712 6631.15918
365.211334 2346.169189
365.688293 5974.650879
365.694916 17561.517578
365.701538 26902.671875
365.708191 34183.90625
365.714813 32190.109375
365.721436 18751.361328
365.728088 6497.263184
365.734711 2011.928467
371.662079 940.691895
371.668884 4221.11084
371.67569 11618.757812
371.682465 22234.919922
371.68927 29955.21875
371.696075 27764.390625
371.70285 17268.310547
371.709656 7533.094238
371.716461 1897.997437
372.17218 3928.618408
372.178986 12732.529297
372.185791 19411.107422
372.192596 20907.839844
372.199402 16967.275391
372.206207 9827.762695
372.213043 2658.887695
372.690125 2591.752197
372.69696 15780.563477
372.703796 44808.273438
372.710602 82812.71875
372.717438 107715.804688
372.724243 93430.742188
372.731079 54400.304688
372.737885 20960.375
372.74472 2403.51123
373.195496 781.87915
373.202332 3469.292236
373.209167 7905.19873
373.216003 12061.260742
373.222839 13150.355469
373.229675 10577.564453
373.236542 6291.302734
373.243378 1932.99646
373.6745 110.58168
373.681366 7891.17627
373.688202 39698.199219
373.695038 93190.726562
373.701904 149302.34375
373.70874 167118.15625
373.715607 127493.03125
373.722443 69743.390625
373.729309 25910.890625
373.736145 5311.186035
374.195618 5472.820801
374.202454 16055.958984
374.20932 21948.416016
374.216187 20674.160156
374.223053 13375.508789
374.229919 4605.898926
379.67746 886.821228
379.684479 3453.648438
379.691498 9476.742188
379.698517 18738.195312
379.705536 25532.03125
379.712555 23449.869141
379.719543 14253.700195
379.726562 6625.421387
379.733582 2026.044312
385.661011 1689.508057
385.668213 5764.556152
385.675385 12630.578125
385.682556 21879.898438
385.689758 25511.664062
385.69693 19770.716797
385.704102 9914.788086
385.711304 2354.785889
388.179657 1726.05188
388.18692 8282.913086
388.194183 35209.105469
388.201416 122258.695312
388.208679 266411.34375
388.215942 410396.3125
388.223175 445259.21875
388.230438 328335.65625
388.237701 172860.03125
388.244934 60531.859375
388.252197 14167.025391
388.25946 2683.660645
388.695068 1100.407715
388.702332 11438.841797
388.709625 32337.279297
388.716888 54233.046875
388.724152 66333.578125
388.731415 53932.769531
388.738678 30371.806641
388.745941 9738.761719
388.753204 821.097412
393.188019 2753.103271
393.195435 10556.207031
393.20282 21148.367188
393.210205 29525.021484
393.217621 30033.837891
393.225006 22202.25
393.232391 9815.478516
393.239777 1574.581299
394.158295 1496.450928
394.16571 7199.223633
394.173126 31642.236328
394.180542 124159.171875
394.187988 295560.8125
394.195404 500246.03125
394.20282 594623.3125
394.210236 479764.6875
394.217651 275715.9375
394.225098 113902.851562
394.232513 32073.511719
394.239929 7316.344238
394.247345 433.703888
394.670776 2736.466309
394.678223 13528.30957
394.685669 44041.5625
394.693085 92453.523438
394.700531 135556.734375
394.707977 136729.78125
394.715393 94177.179688
394.722839 45486.582031
394.730286 12518.516602
394.737701 1462.735229
398.814545 784.64856
398.822083 2316.178711
398.829651 3222.148193
398.837189 3229.421387
398.844757 2337.21582
398.852295 946.797791
399.707184 1617.651245
399.714783 8499.816406
399.722351 28782.558594
399.729919 60811.128906
399.737488 86463.25
399.745087 82735.125
399.752655 52369.710938
399.760254 20550.964844
399.767822 2453.75293
406.708527 2106.768066
406.716309 5307.148438
406.724091 6520.808105
406.731873 6037.961426
406.739624 4107.907227
406.747406 1354.085205
408.158997 6555.79834
408.166809 23362.630859
408.174652 88284.328125
408.182465 252781.328125
408.190277 481042.15625
408.19809 640664.25
408.205933 575749.9375
408.213745 360168.9375
408.221558 160083.828125
408.22937 48881.394531
408.237213 24472.248047
408.245026 24311.316406
408.252838 25195.707031
408.260681 14633.091797
408.268494 654.784241
408.667725 1543.084229
408.675537 19381.181641
408.68338 66096.109375
408.691223 121258.78125
408.699066 158048.21875
408.706879 132218.015625
408.714722 80568.765625
408.722565 32652.117188
408.730408 9996.240234
408.73822 2815.994385
409.193085 2018.749146
409.200928 12509.321289
409.208771 44486.007812
409.216644 100242.984375
409.224487 154061.046875
409.23233 166764.796875
409.240173 119883.140625
409.248016 61053.136719
409.25589 17304.033203
409.263733 1900.562866
413.711853 4458.617188
413.719849 17103.521484
413.727814 34281.324219
413.735779 47743.921875
413.743774 46382.085938
413.75174 31535.515625
413.759735 15052.202148
413.7677 3835.67041
414.207001 1018.864502
414.214996 3725.851562
414.222992 7363.628906
414.230988 10126.197266
414.238983 9846.764648
414.246979 6651.969238
414.254974 2288.235596
416.18045 1097.456787
416.188507 3810.592529
416.196533 11460.755859
416.20459 24879.082031
416.212646 34829.433594
416.220703 30562.111328
416.22876 17855.453125
416.236816 7342.239258
416.244843 1194.112915
416.817169 493.331726
416.825256 1804.463745
416.833313 3396.062256
416.8414 4469.005371
416.849457 4258.637207
416.857544 2903.961914
416.865601 1309.934448
416.873657 298.119568
421.192566 1301.693481
421.200775 8059.786621
421.208954 22510.302734
421.217163 40466.03125
421.225372 51568.878906
421.233551 45628.089844
421.24176 28178.302734
421.249939 11049.750977
421.258148 1963.158569
422.186127 2220.532715
422.194336 5410.871582
422.202576 6581.72168
422.210785 9239.800781
422.219025 23006.949219
422.227234 84683.90625
422.235474 203909.59375
422.243683 348755.875
422.251923 414355.0
422.260162 331017.4375
422.268372 187197.640625
422.276611 74384.21875
422.284851 19048.613281
422.29306 3791.4729
422.713043 873.646179
422.721283 6642.370605
422.729523 20048.164062
422.737762 50664.171875
422.746002 88687.695312
422.754242 107616.632812
422.762482 87062.679688
422.770752 47872.644531
422.778992 16884.855469
422.787231 2671.515869
423.199677 2684.363525
423.207947 7744.208984
423.216187 11412.050781
423.224457 12267.114258
423.232697 9622.130859
423.240967 3849.479004
426.805359 672.782532
426.813721 2200.19043
426.822083 3618.511475
426.830444 4237.223145
426.838806 3634.779297
426.847168 2255.305176
426.85553 840.162231
427.709778 1719.416748
427.71817 5131.213867
427.726532 7853.009766
427.734924 8595.651367
427.743317 6798.025879
427.751709 2694.92749
435.187469 2776.185791
435.196106 13403.243164
435.204712 38806.789062
435.213318 73583.859375
435.221924 95863.304688
435.23053 86458.203125
435.239136 55285.621094
435.247742 24769.732422
435.256348 5173.879883
436.187805 6759.055664
436.196442 21323.121094
436.205078 33735.007812
436.213715 83075.179688
436.222351 298736.46875
436.230988 763372.0625
436.239624 1374057.5
436.24826 1755610.375
436.256897 1521588.125
436.265533 928157.0
436.2742 407027.03125
436.282837 120562.460938
436.291473 48203.203125
436.30011 33979.023438
436.308746 27703.052734
436.317383 13526.667969
436.706543 3409.319336
436.71521 17721.701172
436.723846 68081.773438
436.732513 174210.78125
436.74115 313050.8125
436.749817 399252.78125
436.758484 345129.09375
436.76712 209030.546875
436.775787 90649.070312
436.784424 24715.189453
436.793091 4776.532227
441.215088 1217.647583
441.223877 4363.312988
441.232666 7732.228027
441.241455 9036.289062
441.250244 7430.34375
441.259033 4288.21875
441.267822 1305.690552
441.839691 1434.340698
441.84848 4140.946289
441.8573 6180.342773
441.866119 6606.001465
441.874908 5091.412598
441.883728 1942.957031
443.190186 1322.225952
443.199036 5039.612305
443.207886 9926.875
443.216736 13163.098633
443.225586 12350.641602
443.234436 8123.251465
443.243286 3517.09668
443.252136 775.999939
443.668304 7922.569824
443.677185 13388.491211
443.686035 11816.944336
443.694885 17972.978516
443.703766 59955.976562
443.712616 213642.625
443.721497 467051.625
443.730347 728881.5
443.739227 786814.75
443.748077 581341.4375
443.756927 305642.0625
443.765808 111367.078125
443.774658 32389.830078
443.783539 12322.9375
443.792389 5542.958008
443.80127 2080.026123
444.191589 2992.366699
444.20047 11077.811523
444.209351 32276.365234
444.218231 86852.164062
444.227112 166709.78125
444.235992 227183.09375
444.244873 212625.359375
444.253754 136000.0625
444.262634 61553.457031
444.271515 14680.524414
444.280396 1351.255981
444.733582 4878.418945
444.742493 14985.323242
444.751373 24895.574219
444.760284 30469.726562
444.769165 27779.376953
444.778076 18526.796875
444.786957 7439.919922
444.795837 976.751038
444.804749 499.051178
444.813629 1828.060669
444.82254 4301.48584
444.831421 7688.015137
444.840332 9044.833984
444.849243 6944.87207
444.858124 3459.776611
444.867035 846.067322
448.708679 4537.327148
448.717682 12028.469727
448.726685 16118.024414
448.735718 15677.757812
448.74472 10895.02832
448.753723 3845.730713
449.728851 5856.146973
449.737885 15527.834961
449.746948 21372.953125
449.755981 21632.917969
449.765015 15698.605469
449.774078 5794.302246
450.208557 5577.01123
450.21759 31516.195312
450.226654 92854.109375
450.235718 179537.5
450.244781 245986.984375
450.253845 230623.921875
450.262909 149788.09375
450.271942 68620.414062
450.281006 17422.025391
450.29007 2057.239746
450.707153 4381.769531
450.716217 20019.882812
450.725281 53422.804688
450.734375 100927.65625
450.743439 136967.609375
450.752502 130111.140625
450.761597 86144.492188
450.77066 41079.09375
450.779755 9931.724609
450.788818 395.490723
450.797882 3431.88623
450.806976 6450.571777
450.81604 5818.049805
450.825134 5104.396484
450.834198 2924.941162
457.200226 530.927979
457.209473 5300.003906
457.21875 25308.894531
457.228027 62776.847656
457.237305 99176.664062
457.246552 108820.484375
457.255829 78052.46875
457.265106 39752.984375
457.274384 11629.548828
457.283661 1730.633057
457.682617 307.808289
457.691895 6593.513672
457.701202 37035.941406
457.71048 127995.46875
457.719757 274257.1875
457.729065 418825.875
457.738342 449989.5
457.74762 330292.71875
457.756897 173149.296875
457.766205 60008.25
457.775482 14427.368164
457.78476 2483.419678
458.193695 1252.915771
458.203003 11059.342773
458.212311 41409.609375
458.221588 87810.492188
458.230896 126902.242188
458.240204 127357.132812
458.249512 85957.914062
458.25882 40109.710938
458.268097 9478.8125
458.277405 850.195007
458.714935 1551.662109
458.724274 14431.803711
458.733582 59980.128906
458.742889 139522.546875
458.752228 231026.421875
458.761536 268253.40625
458.770844 211730.78125
458.780182 119504.421875
458.78949 47022.960938
458.798798 9611.079102
458.808136 254.639252
459.218414 644.161316
459.227753 9452.788086
459.237091 31699.925781
459.246429 64856.121094
459.255768 91919.195312
459.265076 84425.4375
459.274414 53194.820312
459.283752 23691.011719
459.293091 6025.94043
459.302429 340.604462
463.730438 2491.27124
463.739899 11390.464844
463.749359 25711.662109
463.75885 38817.960938
463.768311 41897.992188
463.777771 32883.097656
463.787262 20017.966797
463.796722 8881.921875
463.806183 1966.600464
464.688293 5811.553223
464.697784 20721.71875
464.707306 71098.273438
464.716797 238748.34375
464.726288 513296.5625
464.735779 789472.9375
464.7453 847458.9375
464.754791 622579.625
464.764282 326047.9375
464.773804 115060.335938
464.783295 28918.314453
464.792786 8397.420898
464.802307 2013.683716
465.20163 3379.242676
465.211151 16416.423828
465.220673 53860.511719
465.230194 111603.1875
465.239685 161186.6875
465.249207 159193.65625
465.258728 107615.6875
465.26825 50730.945312
465.277771 13343.280273
465.287292 1059.916626
472.712494 192.685669
472.72226 8901.066406
472.731995 44829.332031
472.74173 97707.46875
472.751495 147512.90625
472.76123 147118.9375
472.770966 102147.140625
472.780731 49271.640625
472.790466 16849.216797
472.800232 3770.129883
473.219666 1113.319458
473.229431 7858.586426
473.239197 22729.701172
473.248962 39659.160156
473.258728 47217.007812
473.268494 39273.519531
473.278259 23053.035156
473.288025 8448.307617
473.297791 1161.406738
476.191284 1273.392822
476.201141 7555.638672
476.210968 20278.501953
476.220825 34604.351562
476.230682 39570.378906
476.24054 29595.394531
476.250397 15022.825195
476.260254 4125.196289
477.722229 3064.595459
477.732117 17243.113281
477.742035 60201.953125
477.751923 126007.945312
477.761841 186191.640625
477.771729 187611.84375
477.781647 129945.414062
477.791534 62334.40625
477.801453 17971.09375
477.81134 2306.72876
478.237488 4574.92627
478.247406 15975.530273
478.257324 31547.435547
478.267242 46622.199219
478.277161 49902.371094
478.287079 38442.128906
478.296997 20626.988281
478.306915 5595.10498
486.240356 1252.104614
486.250549 6819.979004
486.260712 19150.308594
486.270874 33434.839844
486.281036 39088.328125
486.291199 31612.273438
486.301361 17956.792969
486.311554 6684.726074
486.321716 1147.260132
489.191986 1909.102051
489.20224 5808.342285
489.212494 9879.246094
489.222748 12273.391602
489.233032 11299.919922
489.243286 7632.59668
489.25354 3597.686768
489.263794 1153.145264
491.725647 3001.333252
491.735992 13249.631836
491.746338 36413.011719
491.756683 69989.460938
491.766998 93334.085938
491.777344 82668.21875
491.787689 48570.792969
491.798035 19788.765625
491.80838 3057.289062
492.232666 1900.738403
492.243042 8756.387695
492.253387 19074.814453
492.263733 28821.068359
492.274109 29858.447266
492.284454 21272.339844
492.2948 10310.107422
492.305176 2448.742188
493.228302 1801.164185
493.238678 4683.972656
493.249084 6662.408203
493.25946 7113.946777
493.269867 5562.166992
493.280243 2009.620605
500.198212 1338.741089
500.208801 13238.654297
500.219421 29409.947266
500.230042 66356.703125
500.240631 228821.765625
500.251251 745312.25
500.261871 1544476.75
500.272461 2308563.0
500.283081 2383260.25
500.293701 1699815.875
500.304291 861709.5
500.314911 295274.34375
500.325531 82771.609375
500.336121 37035.550781
500.346741 22059.185547
500.357361 5729.765625
500.707764 7381.88916
500.718384 15293.706055
500.729004 19306.578125
500.739655 50192.460938
500.750275 175346.359375
500.760895 396082.84375
500.771515 644264.9375
500.782135 729592.125
500.792786 562051.0625
500.803406 307805.34375
500.814026 118246.023438
500.824646 34159.730469
500.835266 12845.507812
500.845917 7529.265625
500.856537 5330.882812
500.867157 1965.994019
505.221405 3248.936523
505.232178 21663.683594
505.24295 81405.890625
505.253693 170716.84375
505.264465 256479.0625
505.275238 258697.1875
505.286011 181124.671875
505.296783 88517.578125
505.307556 28895.865234
505.318329 7284.928223
505.329102 1079.908203
505.727875 3388.954346
505.738647 17275.355469
505.749451 46484.941406
505.760223 84503.789062
505.771027 108773.117188
505.781799 93679.882812
505.792603 55967.625
505.803375 23125.746094
505.814148 4077.463135
514.179321 3443.605713
514.190369 20496.183594
514.201416 77759.234375
514.212524 147660.453125
514.223572 236656.5
514.234619 651910.4375
514.245667 2154034.0
514.256714 4733706.0
514.267761 7543313.0
514.27887 8420780.0
514.289917 6420508.5
514.300964 3494474.75
514.312012 1337660.625
514.323059 387763.75
514.334167 179032.984375
514.345215 122211.515625
514.356262 57481.339844
514.36731 15871.1875
514.378418 135.084595
514.699341 3563.335693
514.710388 22492.841797
514.721497 45541.535156
514.732544 129700.8125
514.743652 467376.53125
514.7547 1140182.375
514.765808 1988482.5
514.776855 2455409.0
514.787903 2053824.0
514.799011 1229087.125
514.810059 525513.5625
514.821167 154079.28125
514.832214 54984.832031
514.843323 28353.783203
514.85437 8447.396484
514.865479 157.295837
516.208496 2586.212158
516.219604 5873.681641
516.230774 6982.552246
516.241882 6290.546387
516.252991 4325.717773
516.264099 1492.807129
559.879089 881.580322
559.891663 2023.904785
559.904236 2453.649658
559.916748 2224.610107
559.929321 1490.51062
559.941895 488.673828
562.197632 4937.438477
562.210266 16210.271484
562.222961 29368.664062
562.235596 36929.84375
562.24823 33347.804688
562.260864 21416.722656
562.273499 8795.87207
562.286133 1691.213135
570.246216 3645.531982
570.259155 9700.051758
570.272095 14408.344727
570.284973 15354.933594
570.297913 11646.34082
570.310791 3950.070557
585.24292 2386.179688
585.256348 7957.535645
585.269775 14941.618164
585.283203 19922.820312
585.296631 19569.552734
585.310059 14101.788086
585.323486 7284.125
585.336914 1897.389526
586.210754 6090.568359
586.224182 16705.214844
586.237671 26028.212891
586.251099 29296.814453
586.264587 23966.914062
586.278015 13658.671875
586.291504 3710.300537
590.282776 2684.505371
590.296387 6336.933105
590.309998 8024.322266
590.323608 7052.416504
590.337219 4227.246582
590.35083 1169.029907
602.28009 2865.458984
602.294067 6492.585449
602.308105 8183.172852
602.322144 7455.568359
602.336121 4842.80127
602.350159 1416.301758
615.268677 1980.51123
615.283142 5383.46582
615.297607 7872.053711
615.312073 7779.648926
615.326538 5245.770996
615.341003 1530.156616
632.284729 1562.022339
632.299805 4474.906738
632.31488 7010.239746
632.329956 7549.374023
632.345032 5751.633301
632.360107 1787.21582
633.265747 1702.353516
633.280884 5067.037109
633.296021 8848.545898
633.311096 11218.668945
633.326233 10625.416992
633.341309 7437.864746
633.356445 3618.581543
633.371582 865.897156
633.537842 662.925903
633.552979 1676.289673
633.568115 2336.90625
633.583252 2322.057617
633.598328 1653.228271
633.613464 515.419128
647.275208 1233.109497
647.290833 13758.899414
647.306458 43457.742188
647.322083 78847.976562
647.337708 97452.28125
647.353271 80270.445312
647.368896 46598.160156
647.384521 19518.910156
647.400146 4052.293457
648.307068 5370.606934
648.322693 14106.208008
648.338379 20741.339844
648.354004 21203.828125
648.36969 14995.006836
648.385315 4410.305176
650.2995 3666.760742
650.315247 8811.62207
650.330933 12296.334961
650.34668 12555.660156
650.362427 9280.1875
650.378113 2840.073975
655.26532 1935.479126
655.28125 4668.371582
655.297119 6669.650391
655.313049 6987.295898
655.328979 5339.562988
655.344849 1628.820923
659.275818 4287.688477
659.29187 13587.716797
659.307922 32521.117188
659.323975 55335.851562
659.340027 55012.773438
659.356079 38138.261719
659.372192 19430.208984
659.388245 6101.788086
659.404297 851.013306
660.272156 1364.325684
660.288269 4374.23877
660.304321 8734.448242
660.320435 18327.230469
660.336487 23954.257812
660.3526 20006.740234
660.368713 11613.108398
660.384766 5596.928223
660.400879 1447.289673
675.275635 6206.241699
675.292297 20742.527344
675.30896 45128.300781
675.325562 69994.882812
675.342224 69811.085938
675.358887 44537.429688
675.375488 19861.986328
675.392151 5721.439453
675.408813 680.147705
676.291809 1486.162109
676.308472 9131.269531
676.325134 26594.865234
676.341858 51378.585938
676.358521 66571.96875
676.375183 57121.746094
676.391846 31691.775391
676.408569 12042.05957
676.425232 2429.621582
687.280579 3486.553711
687.297668 11758.926758
687.314758 20347.90625
687.331848 24225.896484
687.348938 20754.365234
687.366028 12085.72168
687.383057 3010.820557
703.343262 1913.674072
703.360962 4928.697266
703.378662 7678.639648
703.396301 8867.405273
703.414001 7693.505859
703.431702 4826.057129
703.449402 1245.985352
704.317078 3453.591553
704.334778 7418.143066
704.352539 9631.631836
704.370239 9519.400391
704.388 7209.587891
704.405701 4002.795654
704.423462 968.089478
725.299133 2264.62915
725.317627 5441.19873
725.336182 7535.397461
725.354675 7335.739258
725.37323 4961.586914
725.391724 1296.044678
742.318298 8279.163086
742.337463 20401.980469
742.356689 30610.097656
742.375854 34003.605469
742.39502 28312.410156
742.414185 17265.263672
742.433411 6899.878906
742.452576 1451.370117
746.362061 1990.667603
746.381409 4868.333496
746.400757 6729.067871
746.420105 6331.902832
746.439453 4002.539795
746.45874 975.028442
752.862 883.082764
752.881592 1956.204102
752.901184 2499.581055
752.920776 2284.77124
752.940369 1469.990723
752.959961 380.441803
768.335876 3045.090088
768.356079 6780.149414
768.376282 9044.378906
768.396484 8604.142578
768.416687 5696.838867
768.43689 1557.003418
770.278259 3327.194092
770.298523 11527.541992
770.318787 38146.929688
770.33905 78612.09375
770.359375 118705.359375
770.379639 122638.28125
770.399902 87622.289062
770.420166 43877.308594
770.44043 13656.765625
770.460754 1687.943848
771.333435 1735.387085
771.35376 4565.796875
771.374084 6842.966309
771.394409 7176.43457
771.414734 5521.799805
771.435059 1465.781006
775.371216 5227.569336
775.391724 14394.456055
775.41217 22860.203125
775.432678 25653.728516
775.453125 20997.621094
775.473633 12149.270508
775.49408 3116.418213
785.229797 3076.876953
785.250671 7855.679688
785.271545 12019.069336
785.292419 13191.901367
785.313293 10520.546875
785.334106 5780.671387
785.35498 1249.106689
787.257568 1516.376099
787.278503 4546.614746
787.2995 12695.375
787.320435 38449.703125
787.34137 128884.445312
787.362305 274083.53125
787.38324 429443.96875
787.404236 455024.6875
787.425171 330381.5625
787.446106 169373.53125
787.467102 57798.660156
787.488037 13153.571289
787.508972 1855.156616
788.305908 1081.212646
788.326904 8444.856445
788.3479 30063.265625
788.368835 68409.242188
788.389832 102272.828125
788.410828 97287.53125
788.431824 64336.382812
788.45282 28169.0
788.473816 6586.614258
788.494812 552.012512
798.284668 2438.868652
798.30603 12396.397461
798.327393 32122.154297
798.348816 53542.910156
798.370178 56762.140625
798.391602 35030.835938
798.412964 15837.464844
798.434387 3361.238525
799.312195 5205.26123
799.333618 13880.072266
799.355042 20660.564453
799.376526 22051.845703
799.397949 17467.304688
799.419373 8242.280273
799.440796 818.397217
814.327454 6675.555176
814.349487 27015.501953
814.371521 59294.746094
814.393555 93717.296875
814.415588 96706.554688
814.437622 67518.796875
814.459717 33057.691406
814.48175 11677.316406
814.503784 2549.504883
815.253723 3043.476074
815.275818 11938.150391
815.297852 38186.652344
815.319946 132926.90625
815.342041 377668.09375
815.364075 705990.5
815.386169 958404.6875
815.408264 871244.5625
815.430359 565971.25
815.452393 250136.5625
815.474487 68501.882812
815.496582 13651.262695
815.518677 1897.262085
816.292114 4935.305176
816.314209 17871.865234
816.336365 60494.355469
816.358459 130162.242188
816.380615 204480.5
816.40271 216803.015625
816.424805 157168.984375
816.44696 79367.84375
816.469055 25452.587891
816.491211 4234.460449
816.513306 452.108734
831.358643 2351.789551
831.381348 5523.262695
831.404114 8008.812988
831.426819 8539.30957
831.449585 6784.058105
831.47229 3873.103516
831.495056 831.590759
843.305359 2017.689453
843.328613 10433.924805
843.351807 24535.619141
843.375061 35520.773438
843.398254 33755.496094
843.421509 19440.927734
843.444702 6910.824219
843.467957 1076.474365
869.368347 2437.270508
869.3927 6791.249023
869.416992 11408.119141
869.441284 13312.154297
869.465576 11083.005859
869.489929 6421.245117
869.514221 1331.424805
870.390137 3649.206299
870.41449 6556.679688
870.438843 7541.977539
870.463196 6564.013672
870.487549 4206.986328
870.511902 920.478943
883.39032 2587.713623
883.415222 6894.309082
883.440125 10613.693359
883.465027 11308.936523
883.489929 8619.458008
883.514832 4693.604004
883.539734 939.233459
884.411987 6004.672852
884.436951 16514.974609
884.461853 26036.464844
884.486816 28084.115234
884.51178 21376.371094
884.536682 11145.99707
884.561646 2759.353027
886.33551 1951.663818
886.360535 10057.261719
886.385559 40320.304688
886.410583 110347.203125
886.435608 203714.390625
886.460632 269482.1875
886.485657 234287.609375
886.510681 144697.625
886.535706 59366.707031
886.56073 12893.861328
886.585754 1029.845093
887.387329 2647.187744
887.412415 8388.131836
887.437439 17245.238281
887.462524 25427.246094
887.48761 23379.587891
887.512695 15035.949219
887.53772 5648.138184
887.562805 1255.230225
900.335999 1826.609131
900.361633 8585.197266
900.387268 26152.195312
900.412842 82230.375
900.438477 178020.484375
900.464111 281730.96875
900.489746 308395.6875
900.515381 229941.71875
900.540955 119536.265625
900.566589 40013.859375
900.592224 5404.374512
901.387207 1634.317139
901.412842 12144.347656
901.438538 32180.574219
901.464172 54933.136719
901.489868 64226.316406
901.515503 50221.113281
901.541199 26070.320312
901.566895 7758.557617
901.592529 79.389023
914.330017 4926.342773
914.356201 17860.03125
914.382446 62066.074219
914.40863 148581.875
914.434875 254761.734375
914.46106 307377.125
914.487305 246638.78125
914.51355 141561.875
914.539734 53619.496094
914.565979 11097.201172
914.592224 1240.661499
915.353271 1310.688232
915.379517 10041.594727
915.405823 28697.162109
915.432068 53079.464844
915.458313 69393.070312
915.484619 63305.6875
915.510864 39348.574219
915.537109 15032.75293
915.563416 1279.889404
924.374084 3168.428467
924.400757 7392.134766
924.427429 10892.143555
924.454041 11801.291992
924.480713 9488.570312
924.507385 5500.412598
924.533997 1451.635742
928.304016 2788.894287
928.330872 14221.995117
928.357666 44606.050781
928.384521 140146.65625
928.411316 414845.71875
928.438171 800269.5625
928.464966 1137117.375
928.491821 1087142.375
928.518616 734143.8125
928.545471 338618.53125
928.572266 96251.210938
928.599121 17208.921875
928.625977 1551.772217
929.350891 3799.82666
929.377747 23005.75
929.404602 86968.78125
929.431458 186198.71875
929.458313 296155.5625
929.485229 317325.75
929.512085 231024.3125
929.53894 119656.898438
929.565857 40982.671875
929.592712 8939.310547
929.619568 952.280273
944.414673 1113.005493
944.442139 13622.549805
944.469666 30793.072266
944.497192 45127.445312
944.524719 42887.179688
944.552246 25567.537109
944.579773 10702.586914
944.6073 1814.908813
945.433716 3812.192871
945.461304 6902.782227
945.488892 8233.703125
945.516418 7525.460938
945.544006 5174.934082
945.571594 1067.840454
951.833557 1285.394165
951.86145 2342.490723
951.889282 2666.385254
951.917114 2260.128418
951.944946 1405.890137
951.972839 295.104095
END IONS
