BEGIN IONS
PEPMASS=637.262
CHARGE=1
MSLEVEL=2
SOURCE_INSTRUMENT=LC-ESI-Hybrid FT
FILENAME=f.lfnothias/140221_LF_015_AcOEt_ASE-cpd-11.mzXML;
SEQ=*..*
IONMODE=Positive
ORGANISM=GNPS-LIBRARY
NAME=5,6,14-triacetoxy-3-benzoyloxy-8,15-dihydroxy-9-oxojatropha-6(17),11E-diene  M+Na
PI=Louis-Felix NOTHIAS-SCAGLIA
DATACOLLECTOR=Louis-Felix NOTHIAS-SCAGLIA
SMILES=C=C([C@@H]1OC(C)=O)[C@H](OC(C)=O)[C@@H](OC(C(CC)C)=O)C(C(C)(C)/C=C/[C@@H](C)[C@@H](O)[C@]2(O)[C@]1([H])[C@@H](OC(C3=CC=CC=C3)=O)[C@@H](C)C2)=O
INCHI=InChI=1S/C36H48O11/c1-10-19(2)33(41)47-30-29(45-24(7)38)22(5)28(44-23(6)37)26-27(46-34(42)25-14-12-11-13-15-25)21(4)18-36(26,43)31(39)20(3)16-17-35(8,9)32(30)40/h11-17,19-21,26-31,39,43H,5,10,18H2,1-4,6-9H3/b17-16+/t19?,20-,21+,26-,27+,28?,29?,30-,31-,36-/m1/s1
INCHIAUX=
PUBMED=24926807
SUBMITUSER=lfnothias
TAGS=
LIBRARYQUALITY=3
SPECTRUMID=CCMSLIB00000424727
SCANS=1
174.7556 2390.480957
174.757339 2779.674561
174.759079 3122.307373
174.760834 2758.686768
174.762573 1711.388428
183.171112 2373.666992
183.172974 3202.6521
183.17485 3388.083252
183.176727 3049.098389
183.178604 2213.072266
185.239868 1582.689453
185.241776 2944.539795
185.243683 3743.046631
185.24559 3406.06958
185.247498 2390.937012
190.334366 1680.449219
190.336349 3200.592041
190.338333 3873.325928
190.340317 3522.484619
190.3423 2429.666992
193.380783 2097.401855
193.382812 2675.083252
193.384842 2904.824951
193.386871 2670.013916
193.388916 1985.258545
195.422943 1855.214111
195.425003 3435.165771
195.427063 4132.713867
195.429138 3292.361084
195.431198 1338.104736
196.396881 2246.684082
196.398956 3368.092041
196.401047 3825.21167
196.403122 3449.682861
196.405197 2323.04126
197.128983 2483.501465
197.131073 4386.996094
197.133163 4941.761719
197.135254 3920.040771
197.137344 2284.73877
198.259094 2620.807861
198.2612 2706.610596
198.263321 3100.142822
198.265427 2947.727783
198.267532 1616.563721
200.585159 1453.395996
200.587311 3956.150635
200.589462 5435.416016
200.591599 4304.200195
200.59375 1004.977051
205.097412 1096.777588
205.099625 2731.056396
205.101852 3687.429932
205.104065 3413.221924
205.106293 2375.769287
211.106247 2691.961182
211.108566 4755.998047
211.110886 6530.5625
211.113205 5871.40625
211.115524 2980.176025
211.117844 71.728516
213.120941 713.395996
213.123291 4000.290283
213.125641 6654.635742
213.128006 6610.03418
213.130356 4156.874023
213.132706 1700.663086
217.078217 1012.1521
217.080627 2872.882568
217.083054 6858.857422
217.085464 9343.416992
217.087891 8013.745117
217.090302 4122.397461
217.092728 954.581299
223.143402 1123.824463
223.14592 3599.439697
223.148438 4899.507812
223.150955 3978.605225
223.153473 1658.112061
225.118713 98.725586
225.121262 3230.484619
225.123825 8547.529297
225.126373 12109.491211
225.128922 10550.026367
225.131485 5367.481445
225.134033 1006.853027
227.135895 1529.536865
227.138489 4760.712891
227.141068 8008.327148
227.143661 8682.75
227.14624 6373.850586
227.148834 3122.7854
227.151413 818.933594
235.143707 3524.691162
235.146423 6481.481445
235.149155 6569.864258
235.151871 3983.577393
235.154602 988.549805
239.170319 2041.486084
239.173126 5985.014648
239.175919 11425.954102
239.178711 14099.68457
239.181503 11155.030273
239.184296 4878.749023
239.187103 414.231445
249.155014 1708.838135
249.15799 6804.766602
249.160965 12982.996094
249.163925 15789.72168
249.166901 12763.408203
249.169876 6347.887695
249.172852 1204.288086
253.149292 1339.043945
253.152328 3249.400146
253.15538 5120.170898
253.158417 5692.577148
253.161469 4383.642578
253.164505 2000.914307
255.130173 630.094238
255.133255 3426.992432
255.136337 5868.456055
255.13942 5687.648438
255.142487 2619.740479
257.106354 1683.447754
257.109467 3398.195557
257.11261 6598.206055
257.115723 8982.939453
257.118835 7949.014648
257.121948 4106.865234
257.125061 719.881348
257.181152 1944.594971
257.184265 3419.356689
257.187378 4914.21875
257.190491 4655.661133
257.193634 2060.047607
262.126038 310.153198
262.129242 2928.282471
262.132446 5011.760742
262.135651 5087.952148
262.138855 3577.775635
262.142059 1758.849609
267.162079 1246.764648
267.165375 9760.558594
267.168671 28230.1875
267.171997 46505.039062
267.175293 49599.703125
267.178589 34320.699219
267.181885 13319.045898
267.185181 949.338623
271.082184 1591.448242
271.085571 2979.510986
271.088959 3665.58667
271.092316 3403.202393
271.095703 2686.173584
277.148804 1862.455078
277.152283 9748.416992
277.155792 18414.162109
277.159271 21495.326172
277.16275 16827.523438
277.16626 8557.219727
277.169739 2227.796875
285.171021 236.872559
285.174683 6067.060547
285.178314 19461.654297
285.181946 33285.972656
285.185577 36776.769531
285.18924 26874.566406
285.192871 11967.108398
285.196503 2278.269775
295.157166 3801.348877
295.161011 23265.84375
295.164825 50233.703125
295.168671 65676.898438
295.172485 56678.207031
295.176331 31276.244141
295.180176 9064.24707
295.18399 754.896973
295.556122 803.841797
295.559937 2985.598389
295.563782 3858.621826
295.567627 2946.134521
295.571472 1467.275635
295.990479 2155.661377
295.994324 3131.456787
295.998169 3340.431885
296.002045 2975.927979
296.00589 2509.138428
303.188477 2435.168701
303.192474 6059.944336
303.196442 7029.19043
303.200439 4405.15332
303.204437 445.247437
311.91394 2157.268311
311.918121 3066.52124
311.922272 3563.0354
311.926453 3628.941162
311.930603 3056.335693
311.934753 2082.760742
313.162415 1490.672852
313.166595 4567.126953
313.170807 25405.923828
313.174988 54920.042969
313.179169 71637.796875
313.18335 61217.644531
313.187531 32731.998047
313.191742 8187.731445
313.195923 329.383301
321.356537 1488.655273
321.360901 3508.372803
321.365265 4802.943359
321.369598 4577.602539
321.373962 3295.880615
321.378326 1986.352051
326.649506 2339.950439
326.653992 3024.249756
326.658447 3352.388428
326.662903 3119.385986
326.667358 2310.511475
327.185547 373.900391
327.190033 3060.064209
327.194489 5021.320312
327.198975 4495.84082
327.20343 2029.424072
331.175293 573.529663
331.17984 8479.077148
331.184387 21141.804688
331.188934 29942.941406
331.193512 27731.792969
331.198059 16714.585938
331.202606 5739.447266
331.207153 1024.277344
332.197845 2190.062744
332.202423 3124.329834
332.207001 3881.365967
332.211578 4293.524414
332.216156 3945.042725
332.220734 2399.134277
335.15033 10596.429688
335.154968 30030.033203
335.159607 45394.769531
335.164246 43864.71875
335.168884 26673.65625
335.173523 7438.951172
335.178162 74.166382
349.189972 2412.396973
349.194916 6021.373047
349.199829 7666.479492
349.204773 6106.012695
349.209686 2659.804932
353.153473 2421.391602
353.158508 7190.629883
353.163513 17799.779297
353.168518 28369.34375
353.173553 30452.90625
353.178558 21950.042969
353.183563 9715.246094
353.188599 1941.47168
355.173248 776.362061
355.178284 3167.499756
355.18335 7141.59082
355.188416 9982.578125
355.193481 8907.073242
355.198517 4348.737305
367.174133 773.812012
367.179443 3788.872314
367.184753 6922.649414
367.190094 7769.946289
367.195404 5815.391602
367.200714 2730.91626
372.266937 2868.620361
372.272369 3660.838135
372.277802 3774.595459
372.283203 3244.391846
372.288635 2364.349365
373.185944 915.19751
373.191406 5837.926758
373.196838 10619.867188
373.202301 11604.947266
373.207733 8050.176758
373.213196 3016.250732
373.218628 98.877197
377.156281 2117.012939
377.161804 7373.463867
377.167328 14162.331055
377.172882 16504.128906
377.178406 12177.773438
377.18396 4837.076172
377.189484 874.950195
377.987915 1269.866211
377.993469 2986.612549
377.999023 4203.099609
378.004578 4039.13208
378.010132 3156.213623
378.015686 2728.099854
385.072296 2492.039551
385.078003 4016.864014
385.08371 4532.053711
385.089417 3590.648682
385.095123 2139.211914
395.156494 880.138428
395.162445 18092.699219
395.168365 104986.703125
395.174316 247433.65625
395.180237 354975.46875
395.186188 338710.8125
395.192108 211710.890625
395.198059 74368.289062
395.203979 4351.950195
395.20993 3270.365967
407.127899 1902.757324
407.134094 3463.688721
407.14032 4021.043213
407.146515 3757.957764
407.15271 2899.487061
409.077942 1858.784912
409.084198 3635.051514
409.090454 4364.604492
409.09671 4166.37207
409.102966 3529.75415
409.109222 2542.381836
411.193237 174.767456
411.199554 3029.289307
411.205841 6181.951172
411.212158 7670.344727
411.218445 6150.760742
411.224762 2460.074707
413.172607 3830.692627
413.178955 22671.007812
413.185303 51163.515625
413.19165 69792.921875
413.197998 62516.753906
413.204346 35335.175781
413.210693 9520.458984
417.915985 2090.705322
417.922424 3146.937744
417.928894 3546.676025
417.935364 3140.178955
417.941803 2029.877686
422.249298 689.448975
422.255859 2982.37915
422.262421 3939.966064
422.268951 3525.485596
422.275513 2576.336426
427.190308 1578.001953
427.196991 4635.947266
427.203644 7490.945312
427.210327 7648.243164
427.21701 4764.854492
427.223663 1210.474365
431.702942 1515.071045
431.709717 4341.088867
431.716492 5969.599609
431.723267 5068.638672
431.730042 2692.575439
435.187653 1414.238525
435.194519 3081.385986
435.201385 5260.175781
435.208252 8528.868164
435.215118 10755.433594
435.221954 9186.079102
435.228821 4549.84668
435.235687 280.529785
437.170288 2933.126221
437.177185 9083.536133
437.184082 17326.939453
437.19101 21949.283203
437.197906 18448.402344
437.204834 9017.135742
437.211731 1189.190186
447.160919 2828.218018
447.16806 5070.664062
447.175201 6072.932617
447.182343 5046.891602
447.189514 2106.920898
447.203796 3460.812744
447.210938 5842.639648
447.218079 5234.201172
447.22522 2422.01001
453.122223 565.494385
453.129517 4761.637695
453.13681 22530.861328
453.144104 44547.105469
453.151398 55306.542969
453.158691 45713.515625
453.165985 23839.935547
453.173279 6025.244141
453.180542 68.218384
454.356598 2612.437744
454.363922 3131.619873
454.371246 3924.137451
454.378571 3113.742432
454.385895 1010.2229
455.082062 1749.576416
455.089386 4578.425781
455.09671 4316.868164
455.104065 4508.600586
455.111389 6398.833008
455.118744 2448.314453
455.126068 4377.019531
455.133423 4879.536133
455.140747 5812.394531
455.148071 4277.402344
455.155426 4376.800781
455.16275 1970.185791
455.170105 203.443726
455.177429 46050.234375
455.184784 298692.21875
455.192108 764568.3125
455.199463 1169792.0
455.206787 1184742.875
455.214142 792918.5
455.221466 312988.375
455.228821 41618.222656
455.236145 7837.213867
455.2435 3301.827393
455.250824 1466.160645
455.258179 4172.419922
455.265503 6985.462891
455.272858 7420.275391
455.280212 3116.748291
455.287537 5029.792969
455.294891 3027.151123
455.302216 3789.854248
455.30957 3834.779541
455.316895 4357.12793
455.324249 2956.748779
457.180176 2589.706299
457.187561 10147.869141
457.194946 16429.976562
457.202332 16726.712891
457.209717 10783.146484
457.217102 3162.503662
473.182831 962.919189
473.190613 6101.246094
473.198395 20798.775391
473.206177 38779.570312
473.213928 45673.921875
473.22171 34091.695312
473.229492 12653.044922
473.237274 591.737671
475.18042 1383.992676
475.188232 13254.947266
475.196075 36078.984375
475.203888 56593.964844
475.211731 58361.8125
475.219574 39921.796875
475.227386 16302.391602
475.235229 2090.813721
483.845093 1715.382568
483.853119 2984.235107
483.861176 4100.575195
483.869202 4293.84082
483.877258 3610.259521
483.885284 2879.633057
487.354675 2446.702881
487.362793 4341.105469
487.370911 4896.327148
487.379059 3248.791748
487.387177 868.77832
489.205536 852.72998
489.213715 4143.042969
489.221893 6672.994141
489.230072 6466.960938
489.238251 3600.794678
489.246429 195.005005
491.223297 2420.776123
491.231506 4532.018555
491.239746 5713.735352
491.247955 4748.001953
491.256195 2474.320312
493.609711 1468.159424
493.617981 2971.303955
493.626282 3579.081787
493.634583 3236.588623
493.642853 2567.043457
497.192749 292.145264
497.201141 5040.131836
497.209503 9921.477539
497.217896 11011.632812
497.226257 7439.094727
497.23465 2585.181396
507.184998 2299.847412
507.193634 3669.998291
507.202271 3436.44165
507.210907 3112.178467
507.219543 8955.84082
507.22818 16119.579102
507.236816 17938.441406
507.245453 12512.570312
507.254059 4132.4375
507.262695 1096.574219
515.194031 11506.853516
515.20282 78430.28125
515.21167 196895.453125
515.22052 294556.03125
515.22937 290913.21875
515.23822 188531.546875
515.247009 70220.226562
515.255859 6171.839844
515.264709 3984.636475
515.27356 2020.938232
517.170349 648.644775
517.17926 3420.633057
517.18811 12673.457031
517.197021 106752.679688
517.205872 276993.78125
517.214783 419499.09375
517.223694 417022.0
517.232544 271617.03125
517.241455 102593.046875
517.250366 11983.875977
517.259216 905.779541
518.211792 1157.929688
518.220703 4253.845703
518.229614 5304.710938
518.238525 4004.63208
518.247498 2516.244385
533.231201 984.064209
533.240479 4630.134766
533.249817 6755.774414
533.259094 5316.077148
533.268433 1875.973389
535.200012 30444.271484
535.209351 139575.328125
535.21875 295246.125
535.228088 388315.65625
535.237427 339078.65625
535.246826 189896.359375
535.256165 55897.410156
535.265503 1825.281738
549.214539 11900.5625
549.224243 59787.292969
549.233948 128197.523438
549.243713 169695.953125
549.253418 149041.21875
549.263184 84015.75
549.272888 25162.628906
549.282593 1935.779541
564.120728 1324.12085
564.130859 3296.310303
564.140991 4272.348633
564.151123 3919.579834
564.161255 2608.661133
574.009766 2147.638672
574.020142 4675.957031
574.030518 5128.973633
574.040955 3903.807861
574.051331 2038.185303
576.376221 2441.593994
576.386658 3342.436768
576.397095 3133.929932
576.407593 3889.528076
576.41803 4507.983398
576.428467 2818.944092
576.491272 2758.510498
576.501709 3369.264893
576.512146 4482.87793
576.522644 5411.053711
576.533081 2609.571289
576.543579 3234.055908
576.554016 4352.977539
576.564453 4906.124023
576.574951 3124.3396
576.585388 3855.775635
576.595886 4089.621338
576.606323 3849.437256
576.616821 5515.616211
576.627258 6095.472656
576.637695 3964.337646
576.648193 5354.862305
576.65863 3645.520752
576.669128 3493.686768
576.679565 6684.496094
576.690063 6820.519531
576.7005 4805.181641
576.710999 6424.97168
576.721436 4111.597656
576.731934 4405.77832
576.742371 7005.803711
576.752869 6951.4375
576.763306 5635.72168
576.773804 5699.133789
576.784241 7657.25
576.794739 7939.976562
576.805176 7017.384766
576.815674 8182.124023
576.826111 6514.703125
576.836609 7663.916016
576.847046 7734.416992
576.857544 8834.810547
576.867981 7448.936523
576.878479 8319.157227
576.888916 8522.908203
576.899414 8165.710938
576.909912 11883.107422
576.920349 12642.609375
576.930847 9205.678711
576.941284 11008.352539
576.951782 10689.900391
576.962219 12030.572266
576.972717 11624.231445
576.983215 13363.916016
576.993652 10954.585938
577.00415 11242.558594
577.014648 16542.634766
577.025085 16254.459961
577.035583 16939.041016
577.046021 20024.519531
577.056519 14588.99707
577.067017 18849.916016
577.077454 16835.503906
577.087952 18254.253906
577.09845 23275.392578
577.108887 24865.181641
577.119385 24319.835938
577.129883 27132.652344
577.14032 24353.591797
577.150818 27032.648438
577.161316 24669.570312
577.171753 22219.769531
577.182251 12809.356445
577.192749 16216.041992
577.203186 208271.59375
577.213684 1342143.5
577.224182 3382402.0
577.234619 5102115.0
577.245117 5096413.0
577.255615 3358889.5
577.266113 1297068.0
577.27655 159726.40625
577.287048 49000.441406
577.297546 8007.482422
577.307983 20999.210938
577.318481 24877.755859
577.328979 29023.578125
577.339478 29813.982422
577.349976 23752.230469
577.360413 26061.769531
577.370911 20315.416016
577.381409 20012.003906
577.391907 22672.675781
577.402344 22920.177734
577.412842 16514.9375
577.42334 18309.369141
577.433838 14518.055664
577.444336 14161.421875
577.454773 16446.669922
577.465271 15867.342773
577.475769 13959.542969
577.486267 14693.719727
577.496765 11638.55957
577.507202 13001.360352
577.5177 10320.574219
577.528198 11043.364258
577.538696 12044.099609
577.549194 12317.207031
577.559692 9263.645508
577.57019 9510.665039
577.580627 10837.06543
577.591125 9782.504883
577.601624 9102.326172
577.612122 9472.257812
577.62262 8224.087891
577.633118 9523.490234
577.643616 6952.539062
577.654114 7618.768555
577.664551 6851.086914
577.675049 7515.476562
577.685547 5930.743164
577.696045 5991.162109
577.706543 7142.923828
577.717041 6747.713867
577.727539 6944.02832
577.738037 8370.698242
577.748535 3033.682373
577.759033 3383.948975
577.769531 7738.805664
577.780029 7149.244141
577.790527 5576.293945
577.801025 7000.325195
577.811523 4283.758789
577.822021 5046.719727
577.83252 4488.602539
577.843018 4827.624023
577.853516 4118.114258
577.863953 4094.476318
577.874451 5118.525391
577.884949 4625.878906
577.895447 4976.108398
577.905945 5832.180664
577.916504 2040.208496
577.927002 2234.643066
577.9375 5902.719727
577.947998 5514.996094
577.958496 3531.540771
577.968994 5441.280273
577.979492 1024.698975
577.98999 1031.473389
578.000488 5584.725586
578.010986 5552.689453
578.021484 3423.991943
578.031982 4478.416016
578.04248 4652.222656
578.052979 4488.441406
578.063477 2145.359619
578.189575 2988.422607
578.200073 3262.653564
578.210571 3173.388428
578.221069 7790.43457
578.231567 8266.228516
578.242065 11466.039062
578.252625 14702.774414
578.263123 8544.341797
578.273621 843.482422
580.455078 2450.150391
580.465637 3593.788818
580.476257 3640.222412
580.486816 3274.343994
580.497375 1514.537842
595.198181 1469.987305
595.209167 12102.424805
595.220154 136088.453125
595.23114 408030.875
595.242065 690681.375
595.253052 763501.3125
595.264038 561673.5625
595.275024 253202.1875
595.286011 47728.609375
595.296936 5701.344727
645.407837 1229.871338
645.420227 3274.497314
645.432617 4476.063477
645.445007 4095.412354
645.457397 2408.332031
END IONS
