BEGIN IONS
PEPMASS=1098.0
CHARGE=1
MSLEVEL=2
SOURCE_INSTRUMENT=DI-ESI-Ion Trap
FILENAME=Nordidemnin_B_IT_1098mz.mzXML
SEQ=*..*
IONMODE=Positive
ORGANISM=GNPS-LIBRARY
NAME=Nordidemnin B M+H
PI=Dorrestein/Moore
DATACOLLECTOR=Roland Kersten
SMILES=O=C(N1CCC[C@H]1C(=O)N(C)C(C(=O)N[C@@H]2C(=O)N[C@@H]([C@@H](O)CC(=O)O[C@H](C(=O)[C@@H](C(=O)N[C@H](C(=O)N4[C@H](C(=O)N(C)[C@H](C(=O)O[C@@H]2C)Cc3ccc(OC)cc3)CCC4)CC(C)C)C)C(C)C)C(C)C)CC(C)C)[C@@H](O)C
INCHI="InChI=1S/C56H87N7O15/c1-29(2)25-38-53(72)63-24-16-18-40(63)55(74)61(13)42(27-36-19-21-37(76-14)22-20-36)56(75)77-35(11)46(59-50(69)41(26-30(3)4)60(12)54(73)39-17-15-23-62(39)52(71)34(10)64)51(70)58-45(31(5)6)43(65)28-44(66)78-48(32(7)8)47(67)33(9)49(68)57-38/h19-22,29-35,38-43,45-46,48,64-65H,15-18,23-28H2,1-14H3,(H,57,68)(H,58,70)(H,59,69)/t33-,34-,35+,38-,39-,40?,41?,42-,43-,45+,46-,48-/m0/s1"
INCHIAUX=N/A
PUBMED=22458477
SUBMITUSER=mcruesemann
TAGS=
LIBRARYQUALITY=3
SPECTRUMID=CCMSLIB00000075323
SCANS=46
307.160156 89.468018
308.161713 20.329607
313.259521 13.543836
321.129333 137.887878
322.251709 5.05032
323.046326 2.250289
324.324371 20.023865
325.321594 2.603452
326.0 1.255189
327.090912 1.100384
328.218292 2.93746
329.0 1.298108
331.292297 7.007164
333.169708 14.135509
334.279266 14.880261
335.168152 96.641663
336.242767 10.391302
337.272736 1.110846
338.13739 2.491431
339.310089 3.289896
340.251953 34.306591
343.168335 4.779958
344.189026 7.877545
345.222717 3.639461
346.272736 1.297278
348.272736 1.018301
349.140472 476.444336
350.230347 9.977001
351.149475 3.523057
352.264038 32.645237
353.076447 36.555508
354.160706 38.433521
357.132874 15.907964
358.287292 8.39813
359.272736 1.049201
361.035919 11.189221
362.27124 67.223671
363.329559 15.315848
364.173615 17.454615
365.157776 24.936413
366.244141 19.7316
367.284027 94.522102
368.048096 14.850854
369.222748 3.24741
370.380371 4.318409
372.140259 54.74136
373.235565 8.340972
375.177948 1338.435669
377.181824 1.096484
378.167419 5.102997
379.257935 19.341106
380.269257 118.556641
381.263336 15.711705
382.3591 17.739656
383.209076 41.610783
384.166382 6.52665
385.179688 35.986038
386.246033 16.652126
387.219177 11.186064
388.275208 7.455862
389.288513 6.660011
390.291779 28.334005
391.407288 2.388171
392.099121 9.765505
393.273346 42.90601
394.228485 25.567316
395.299866 51.014053
396.173584 7.301013
397.454498 8.502321
398.192993 28.562138
399.286194 6.819575
399.818176 1.23857
402.241089 71.848816
403.230377 2.592949
405.454559 1.177099
407.103333 9.975685
408.302887 50.757336
409.220642 24.942129
410.335785 31.146347
411.092194 51.912724
412.161469 15.679221
413.188629 362.530914
414.271729 13.285484
414.905457 7.432382
416.382477 9.664871
418.23291 30.648514
419.181824 1.251284
420.234467 170.842514
421.367065 3.550987
422.125641 5.892886
423.195709 20.976444
424.362305 14.061283
425.256958 35.224628
426.304352 4.20895
427.337524 20.350094
428.585999 2.812545
429.283295 11.614326
430.391449 20.245934
431.314575 16.872585
432.263153 66.869659
432.8815 11.113096
433.454346 20.17104
434.288422 84.21463
435.340149 7.071732
436.306519 19.362194
437.3479 5.452423
438.332123 9.725845
439.194427 28.9088
442.063843 7.044275
443.343353 25.251041
443.954254 2.052732
444.491913 3.280282
445.171295 9.057998
446.276062 14.019354
447.537506 6.049401
448.407562 2.661572
449.172272 12.486073
450.391724 73.139633
451.330017 60.650108
452.591705 2.55663
453.447388 10.496338
454.454559 1.094594
454.956299 3.903265
456.307922 10.690277
457.083527 5.034732
458.266449 6.283479
460.372894 91.876488
461.383728 23.92835
462.441559 19.409855
463.445068 4.473931
464.266785 48.250519
465.182007 13.116123
466.356842 12.86425
467.590973 5.266981
468.259888 303.999084
469.203674 11.973856
470.131042 3.315827
471.128601 9.668064
472.332764 16.104223
473.325104 3.612398
474.319244 7.980994
475.189331 22.196709
476.36261 19.124825
477.258362 59.825977
478.239655 653.484009
479.204865 30.671499
480.187836 32.039043
480.887512 16.185181
481.591095 14.713891
482.40918 42.019886
483.338989 8.446228
484.315063 13.983687
485.019073 10.284058
485.703186 13.427584
486.214325 24.121599
487.280273 14.434411
488.207886 104.139923
489.082733 10.662807
489.802887 6.043894
490.650208 5.527545
492.326782 110.197784
493.359222 64.816353
494.270905 33.517487
495.305939 18.949167
496.259064 3129.723389
497.296814 42.427868
498.298126 7.289427
499.315308 2.976941
500.28241 4.080172
501.334717 16.56308
502.360992 6.632975
503.34845 10.66516
505.241669 272.163177
506.260712 141.145081
507.365967 39.749996
508.243774 20.915144
509.271027 29.73296
510.235077 204.348679
511.246094 14.389711
512.310425 103.181221
513.220398 5.138851
514.297546 302.868744
515.229004 242.822174
515.954102 8.223296
517.439941 16.524601
518.326599 22.890873
519.288452 82.08007
520.233704 56.520264
521.278198 19.226864
522.424988 14.288527
523.266907 1164.883423
524.251282 609.057373
526.298035 19.678513
527.414001 19.429361
528.30426 125.463684
529.36731 29.308287
530.178345 7.331059
531.286804 17.247747
533.25946 154.890945
534.352112 17.272629
535.17395 8.585411
536.352356 24.818398
537.2724 183.653549
538.332153 44.331356
539.297852 15.169883
540.218506 233.440826
541.220093 252.692795
542.331177 51.523598
543.306458 8.336456
544.297363 92.198624
545.286133 38.030262
546.257385 22.143635
547.093567 28.134943
547.671875 3.358773
548.372131 80.996483
549.283569 11.849633
550.378906 26.746424
551.370605 49.552544
552.374268 15.848293
553.181824 1.019221
554.745789 32.04007
555.389709 38.352352
556.2052 7.495189
557.365906 34.556358
558.25116 744.204712
559.325684 56.131168
560.229492 20.619553
561.006226 32.020901
561.734558 32.544373
562.484558 17.028288
563.28833 32.898327
564.482788 22.71385
565.337158 26.640503
566.360901 117.487503
567.386475 21.490488
568.265503 73.455811
569.017151 372.295837
570.029968 55.857479
571.299194 42.71587
573.496887 3.644328
574.335083 15.344913
575.298523 90.817459
575.831299 907.578796
576.469116 385.752991
577.207581 132.222366
578.300476 16.775528
579.385437 36.081188
580.384399 12.10888
581.284058 20.827843
582.497437 17.525372
583.527893 34.091755
584.346863 13.037871
585.292297 101.320351
586.199768 8.063279
586.706604 12.16627
587.531189 9.176904
588.435547 4.849822
589.418884 50.749203
590.374084 34.574215
591.354065 15.635002
592.360474 60.615593
593.291565 193.613663
594.351318 403.047485
595.348083 140.271515
596.31665 20.843309
597.302856 27.746706
598.265808 7.720355
599.235352 17.285868
600.422791 23.020649
600.927551 14.350142
601.518188 20.925671
602.33844 38.100529
603.330688 26.519278
604.324341 31.021214
605.297302 177.843018
606.359558 4.987692
607.344543 89.630432
608.452209 22.978964
609.375366 17.798983
610.277283 62.52499
611.302124 166.837158
612.303467 17.134878
613.446045 94.46994
614.26355 13.008707
615.342163 20.036665
616.324158 12.791763
617.351013 32.755322
618.430603 11.449247
619.321167 32.473728
620.364258 89.513428
621.263306 329.278137
622.279724 22.172523
623.305481 767.236206
624.28064 13.320369
625.140625 17.563389
627.411926 29.7498
628.406555 102.196098
629.487244 12.972178
630.292664 23.745584
631.36908 74.090218
632.444885 15.27565
633.476624 35.284855
634.559265 14.630476
635.323303 42.674278
636.467529 63.250504
637.448914 11.656961
638.33905 55.210239
639.528687 34.445744
640.134338 2.705081
641.330017 374.059296
642.364502 86.402672
643.291321 45.295567
643.876709 12.703358
644.435181 17.775372
645.361938 19.927252
646.278564 29.361719
647.359253 61.944511
648.388428 25.210451
649.385925 32.613792
650.046631 2.284002
650.587524 9.644259
651.363586 11.272647
652.31897 22.136461
653.454956 19.447975
654.326843 17.059006
655.34198 52.973236
656.403809 54.185139
657.346558 42.138836
658.37738 45.457134
659.343933 61.063377
660.38147 66.459282
661.401123 317.319366
662.290405 15.567897
663.311462 52.057556
664.348267 13.067778
665.345886 92.849602
666.292725 11.977737
667.424438 17.37302
668.34967 178.872025
669.376465 36.356537
670.330872 53.042107
671.424988 69.297508
672.479126 38.465839
673.33075 116.991234
674.297607 36.206829
675.303772 67.84079
676.349548 124.02726
677.386719 80.106514
678.362915 106.68634
679.415833 134.226456
680.495361 2.371124
681.328796 25.49157
682.252869 17.60857
683.348938 270.382233
684.467834 16.155684
685.459778 76.792664
686.317322 260.885651
687.35968 284.194183
688.458618 40.727352
689.341675 150.969147
690.40387 29.809174
691.437439 45.663364
692.312622 28.583162
692.824646 14.532868
693.459106 84.248192
694.48761 9.995767
695.37085 14.219709
696.311829 63.373501
697.321106 30.479881
698.494019 45.237549
699.355835 40.845894
700.406189 27.977705
701.307129 331.046082
702.378845 71.450356
703.492188 35.029255
704.34375 384.767975
705.360229 307.888275
706.310181 9.849654
707.460388 10.476709
708.37262 16.148705
709.335632 36.563793
710.614075 21.119303
711.393127 17.776423
712.293884 20.79739
713.279114 38.932663
714.320496 60.467903
715.439758 51.712852
716.423401 60.695904
717.129272 24.949371
717.643433 18.98604
718.519958 27.143816
719.334045 1076.156616
720.380554 158.86821
721.639648 9.340436
722.482361 18.551683
723.40686 3.246352
723.938477 14.507638
724.730591 10.585494
725.324524 7.259333
726.343628 7.976662
727.387451 64.386795
728.433289 70.206024
729.412231 26.66955
730.473755 38.223423
731.36969 6.029305
732.288696 214.610413
733.43335 68.339287
734.522583 13.327767
735.365356 29.951687
736.281616 13.300041
737.47406 8.842254
738.358765 229.060318
738.909119 3.018769
739.447388 12.151365
740.336426 58.123932
741.314087 58.843273
742.138062 4.094658
742.800842 23.711029
743.604553 49.660439
744.410706 9.533494
745.322021 8.902897
746.378784 571.878235
747.511414 41.383774
748.442505 248.904388
749.468567 6.271461
750.343323 784.016663
751.282043 72.028915
752.473633 15.147917
753.560242 17.785362
754.369385 47.968304
755.317749 41.140553
756.413208 518.087646
757.392029 56.667992
758.381958 49.437252
759.529053 17.875183
760.422668 24.966846
761.455566 46.979958
762.50531 24.986792
763.539673 13.732948
764.389099 998.037354
765.288513 12.820283
766.384216 2374.306396
767.483887 111.41317
768.307129 5.20794
768.822754 6.262377
769.609985 21.940022
770.59259 64.119957
771.476807 60.604614
772.394653 58.647396
773.381836 48.1563
774.384399 4796.660156
774.958923 30.864252
775.659546 13.86664
776.406494 20.861012
777.269104 18.083555
778.282471 16.216164
778.909119 1.107928
779.499817 8.129272
780.427368 82.404961
781.440857 121.965828
782.343384 187.49115
783.448425 217.832047
784.371094 38161.082031
785.38208 624.60083
786.378662 59.513824
787.39978 90.420738
788.407837 650.194214
789.403748 1464.444336
790.421631 480.312256
791.455322 128.709351
792.393494 6704.412109
793.452148 49.820793
794.539185 40.431576
795.444763 13.622004
796.407104 17.993942
797.294312 16.459589
798.366577 346.313751
799.386108 327.918488
800.432922 153.817764
801.428345 149.815842
802.366333 22079.880859
803.366333 121.750465
804.389099 29.962448
805.186035 17.688896
806.576233 53.577065
807.336609 22.742575
808.329041 119.174469
809.125183 23.947124
810.355286 315.45108
811.389954 568.402405
812.382385 102.91011
813.497314 19.13409
814.324219 30.483593
815.502197 27.177505
816.490356 90.088097
817.523132 35.393188
818.445251 15.025014
819.352356 43.228378
820.397278 30.257204
821.483398 11.784804
822.426636 13.926631
823.651733 8.254495
824.332336 7.484962
825.354065 119.208755
826.369202 45.738407
827.422241 68.59198
828.381226 50.298435
829.379944 3767.748535
830.250305 101.395866
831.506592 23.925652
832.530518 220.391953
833.561951 12.114243
834.292847 11.5735
835.0 1.209146
835.528625 22.590055
836.428345 54.621304
837.334412 21.294832
838.50293 26.67852
839.386108 30.867214
840.425232 50.543491
841.226318 16.505342
841.727844 5.024254
842.462769 21.64924
843.413574 594.659119
844.361633 36.50922
845.385132 215.771271
846.370605 42.300842
847.414307 4493.214355
848.090637 66.30127
849.795349 11.939345
850.729919 3.270816
851.319885 5.986791
852.433289 31.820808
853.443298 56.504326
854.430847 121.445
855.35675 26.648678
856.484009 24.349024
857.317139 19.91851
858.501587 30.481544
859.385254 24.16325
860.24054 21.253853
861.404419 544.830505
862.478943 14.58689
863.623779 44.288891
864.394165 23.842899
864.991333 15.628193
865.562988 21.777811
866.260559 19.800356
867.333984 44.412445
868.294189 22.139692
868.858459 20.985651
869.499329 63.093025
870.459167 46.010578
871.446777 1170.87915
872.440063 13.018312
872.998962 4.158562
873.512634 37.034069
874.319824 5.287849
874.824951 5.490128
875.43811 22.536837
876.043091 4.149814
877.535095 17.112333
878.462524 11.410869
879.43988 130.756653
880.408447 31.240816
881.0 1.327715
881.533447 5.002183
882.416626 22.550777
883.291992 42.58099
883.996948 9.361715
884.552673 7.984509
885.469788 147.18425
886.436035 597.741455
887.444336 307.207336
888.398438 195.919113
889.419128 2105.401611
890.420288 5.323099
891.264771 9.179598
891.858948 5.131459
892.871948 30.811354
893.556763 42.744808
894.5354 5.354763
895.250488 5.554885
895.890991 19.567663
896.464844 32.82048
897.340698 50.86272
898.534424 38.231144
899.503723 13.644246
900.434265 39.131142
901.403137 132.22551
902.450073 64.553764
903.438782 533.351868
904.446533 1466.709229
905.443237 859.72467
906.477844 292.100037
907.409363 1334.450684
908.480896 35.328949
909.020752 4.606895
909.670227 57.311562
910.528259 47.062927
911.428101 439.705017
912.524475 40.018448
913.537109 63.680958
914.560791 35.892242
915.600037 60.515709
916.629272 39.28315
917.468628 55.467609
918.45752 64.569344
919.502747 160.217804
920.471375 107.032631
921.370789 208.677307
922.39447 35.036335
923.332031 35.804863
924.472473 148.125259
925.657349 30.755722
926.449524 73.174568
927.517883 111.328598
928.039185 54.733959
929.421021 6684.499512
930.864197 40.95668
931.598877 15.705096
932.48761 10.606141
933.331665 52.383717
934.0 1.088947
934.526062 33.62405
935.409485 54.353481
936.052246 30.177279
936.620361 13.614648
937.429565 80.595497
938.46814 38.063576
939.293152 65.518066
940.298401 24.187656
941.395447 102.699394
942.409424 404.983948
943.502258 66.811256
944.475098 28.281378
945.130798 40.849297
945.711487 9.837325
946.454468 13.000859
947.446045 127.891228
948.431763 27.299362
949.389465 34.0382
950.435852 48.404572
951.362061 62.990345
952.212769 37.770477
952.976318 48.405666
953.519592 118.539742
954.090942 1.044839
954.686401 24.435421
955.41803 230.309494
956.419128 50.590439
957.379211 71.639496
958.053162 9.308958
958.559326 9.290983
959.444641 50.203609
960.401794 102.893867
961.460999 65.540535
962.447388 22.133671
963.390076 13.178068
964.231262 24.096806
965.378113 96.358917
966.33136 51.519508
967.412415 77.812653
968.408264 16.378183
969.420898 201.637466
970.451294 21.411217
971.437988 68.071938
973.459473 312.20462
974.532654 37.146088
975.636414 1.102267
976.724548 15.08129
977.541931 10.191537
978.332275 47.208122
979.422363 23.151783
980.181458 34.216537
980.798584 12.357602
981.555359 170.769333
982.405823 205.863373
983.394165 405.47348
984.491211 1110.734863
985.453613 1452.595093
986.516296 12.730972
988.23175 38.028446
989.437256 19.36573
990.140015 9.81835
990.735474 5.761146
991.414062 11.358109
992.170105 26.871437
992.711914 17.179955
993.438416 28.300272
994.179749 16.78688
994.818909 18.683084
995.657104 19.094755
996.44043 18.814205
996.947083 5.624395
997.532532 39.271828
998.51355 153.691055
999.510742 61.442509
1000.408325 28.518549
1001.404175 1960.260864
1001.979065 58.590317
1002.519531 8.188545
1003.194458 13.989007
1004.056396 10.149688
1004.644226 4.214476
1005.377441 81.630493
1006.406799 39.64138
1007.473938 39.567352
1008.574402 113.930428
1009.615417 23.673264
1010.417297 17.885084
1011.476318 22.420818
1012.224976 17.406725
1012.82373 8.310946
1013.573364 24.575275
1014.550598 6.677531
1015.107544 33.779522
1015.76416 5.132222
1016.528931 18.34342
1017.388306 17.152468
1018.334961 31.58268
1018.852966 5.444654
1019.715515 33.294998
1020.548828 28.928778
1021.354614 23.931517
1022.497009 48.225307
1023.448303 81.010994
1024.483032 79.018456
1025.435791 20.54204
1026.485962 648.658264
1026.998413 33.734043
1027.858398 17.900139
1028.559082 5.847812
1029.46106 19.578375
1030.316284 30.407804
1031.051758 30.011501
1031.55957 35.589649
1032.522827 119.144615
1033.536743 66.221291
1034.491211 282.979736
1035.533203 44.83683
1036.487793 396.705475
1037.473511 53.086578
1038.525269 75.683891
1039.193604 52.426159
1039.839966 21.072144
1040.461304 46.511005
1041.364502 43.311649
1042.374634 41.587528
1043.410522 31.293814
1044.437744 57.146523
1045.300781 21.668022
1045.991821 14.36908
1046.621826 28.018282
1047.490967 20.296469
1048.49292 28.511013
1049.484375 93.840408
1050.507446 105.992287
1051.50647 134.53685
1052.502319 444.882202
1053.566528 268.708008
1054.521851 1228.052734
1055.511963 76.78064
1056.369751 18.96381
1057.047974 16.841362
1057.625244 20.527309
1058.771484 13.67277
1059.461792 92.40464
1060.494995 74.813957
1061.195923 45.052818
1061.799805 53.003639
1062.494507 2568.86499
1063.515137 89.853317
1064.401978 133.253433
1065.599731 142.759293
1066.596069 93.291016
1067.549927 86.080986
1068.529907 181.039078
1069.631836 285.17514
1070.520142 36648.660156
1071.35144 45.609146
1072.326904 16.344473
1073.324585 9.256865
1073.894043 7.65215
1074.665771 36.651127
1075.387573 43.683395
1075.970825 10.191055
1076.542847 65.419029
1077.52356 1517.776123
1078.55835 1135.795044
1080.430542 17683.359375
1081.31189 37.533176
1081.843506 12.580252
1082.359131 5.184865
1083.196167 30.586243
1084.35022 22.452988
1085.596436 17.736839
1086.385742 16.831915
1086.886108 7.727025
1087.446899 22.248758
1088.070312 29.230753
1088.677124 2.888439
1089.179321 6.024399
1095.602539 11.666541
1097.950684 2.83148
1100.636353 1.199412
1112.404907 3.00472
1113.912354 4.601546
1116.363647 1.123872
1116.959106 2.952004
1118.415405 2.637496
1120.542969 2.545659
1122.63269 9.86469
1123.363647 1.128873
1133.13269 4.78253
1134.463745 13.449213
1135.580444 13.305154
1136.333984 19.43726
1137.413086 59.19215
1138.454834 6.75895
1140.636353 1.157406
1150.507812 37.920422
1151.492798 19.461637
1152.423706 9.222536
1154.559937 5.802529
1157.909058 1.828534
1158.681152 2.365456
1161.676392 3.110224
1165.73938 5.55686
1166.363647 1.240775
1167.40918 2.381598
1168.52771 14.097116
1169.181885 1.132105
1170.129028 14.725344
1171.818237 1.065995
1174.623657 5.755949
1175.455933 12.513423
1176.137939 3.078689
1177.502808 9.611416
1178.442627 6.321287
1179.0 1.15021
1184.319336 3.570329
1186.170776 14.544301
1193.769043 15.287303
1203.323242 2.902266
1204.45459 1.022908
1206.449585 6.544441
1209.543579 5.906685
1219.090942 1.81781
1221.405884 2.886171
1221.909058 1.326375
1222.680054 2.493518
1223.503906 4.116344
1228.047729 2.312811
1229.595947 3.844493
1236.548462 6.253602
1248.40686 5.810464
1249.072998 5.57432
1256.77002 5.065154
1260.90918 1.046893
1265.587402 2.746364
1270.23291 2.817937
1271.317139 2.57064
1274.145508 3.138269
1274.865112 3.011221
1277.260254 7.065016
1279.145142 2.896039
1284.948608 2.35087
1288.818237 1.290892
1292.272705 1.307528
1302.636353 1.04372
1305.900269 5.125504
1307.545532 1.049085
1310.047852 3.50548
1316.672974 3.799098
1322.313232 2.384752
1327.688354 3.798131
1332.967529 2.954114
1349.363647 1.030882
1354.635498 4.12341
1355.5896 4.041605
1356.84082 7.106396
1358.778687 2.659293
1363.405884 2.721911
1374.735229 7.260591
1376.546265 7.580585
1382.918823 6.10956
1384.315674 2.515866
1391.418579 3.381465
1400.272705 1.20313
1401.896729 4.688257
1402.636353 1.597718
1405.177246 5.265484
1410.363647 1.182932
1420.310059 2.708882
1423.683228 5.806482
1425.181885 1.255838
1430.133789 2.270562
1432.405884 2.469437
1436.639282 7.627174
1446.41272 2.684663
1448.531982 11.511855
1449.593994 2.782174
1450.636353 1.165162
1452.039551 3.297876
1454.617188 14.062079
1468.727295 1.179873
1481.682739 2.328245
1483.45459 1.164006
1491.419678 2.723608
1493.777588 12.82623
1496.0 1.294929
1519.317871 2.93785
1520.953003 3.929754
1526.540894 4.739319
1535.818237 1.268665
1549.769531 2.979867
1550.412231 2.275356
1561.545532 1.06121
1564.687622 2.310701
1573.727295 1.295782
1574.597168 3.118488
1576.684937 5.191258
1580.133911 2.370723
1591.90918 1.263322
1608.090942 1.002336
1615.903198 6.545073
1617.588257 2.381442
1623.771729 2.184033
1626.363647 1.505281
1632.90918 1.140823
1671.45459 1.255278
1673.09314 4.276072
1689.181885 1.425817
1698.545532 1.017972
1713.45459 1.087148
1733.636353 1.322963
1750.050659 4.51764
1766.733398 6.353987
1767.636353 1.018289
1768.90918 1.096624
1781.099487 17.004028
1781.96167 7.796237
1782.636353 1.000551
1794.90979 7.21753
1796.45459 1.435765
1801.044922 3.177032
1802.919556 4.297774
1803.633057 11.949871
1808.87146 3.057694
1816.686401 3.589912
1817.947266 2.604108
1825.869507 3.122335
1836.0 1.114984
1840.685913 2.4094
1850.598999 2.551531
1857.767212 2.489127
1946.327881 2.973136
END IONS
