BEGIN IONS
PEPMASS=723.299
CHARGE=1
MSLEVEL=2
SOURCE_INSTRUMENT=LC-ESI-qTof
FILENAME=euphodendroidin_A.mgf
SEQ=*..*
IONMODE=Positive
ORGANISM=GNPS-LIBRARY
NAME=euphodendroidin A M+Na
PI=LITAUDON/TOUBOUL
DATACOLLECTOR=Esposito
SMILES=C[C@]1(C[C@](C([C@H](/C=C/C(C)([C@@H]([C@@H]([C@H](C([C@@H]2OC(C3=CC=CC=C3)=O)=C)OC(C(C)C)=O)O)OC(C)=O)C)C)=O)([C@@]2([C@H]1OC(C)=O)[H])O)OC(C)=O
INCHI=
INCHIAUX=
PUBMED=N/A
SUBMITUSER=lfnothias
TAGS=
LIBRARYQUALITY=1
SPECTRUMID=CCMSLIB00000840319
SCANS=1
55.054119 255.133102
71.048317 184.651001
77.037056 119.009804
81.069328 151.962601
83.007675 138.197693
83.048569 379.339294
85.028244 203.559601
105.033012 1490.510986
107.084435 131.9263
109.100494 872.032776
121.062523 200.011795
123.077614 158.960495
129.065842 205.433701
131.083206 125.840599
135.079483 419.219208
135.1147 225.067795
139.036697 117.333298
143.083466 129.515198
145.063248 194.038101
145.09967 194.055603
147.078537 140.497498
147.114563 185.25
151.073181 187.787003
157.100555 194.273697
159.116821 209.815094
161.059677 134.125
163.074066 228.0522
167.083588 120.058998
168.094299 231.479507
169.099197 549.39093
171.080429 151.760605
171.115997 543.088928
173.09465 318.813202
175.074615 143.335495
175.110382 229.662903
175.144348 128.285706
183.113968 135.523804
185.057465 230.880295
185.094955 246.515793
185.130417 135.776398
187.074265 286.387787
187.112015 380.728302
192.089447 154.006897
193.119461 124.5186
194.109055 246.609406
195.112885 195.571396
197.131271 231.377396
199.073669 325.096497
199.1465 393.777802
201.08989 125.875
205.085281 304.60379
205.120743 256.031586
209.132614 312.466888
211.143417 244.014801
212.085892 135.990494
213.124146 334.132111
215.06958 241.1483
215.101685 234.245605
215.143173 227.895493
217.158691 294.609802
221.080368 152.567307
223.149673 324.094299
225.124435 487.037201
227.10614 154.8396
227.139725 174.740906
229.120087 223.839996
238.134415 240.001297
241.120056 503.877808
241.157394 743.017029
245.116302 229.934204
247.14682 126.864304
253.12001 211.479507
253.15538 207.546097
254.130646 124.716698
255.138809 249.089996
255.173126 181.240402
256.173828 192.049698
259.16449 151.921295
265.159363 658.819214
269.151764 287.859894
271.130432 192.011398
273.182434 205.2117
277.118408 149.775894
278.126099 146.942307
283.169159 799.537781
284.169006 291.761414
286.088318 239.658798
286.11557 118.889999
293.152557 1249.692017
301.177917 237.775208
305.150604 234.513199
311.163361 2191.250977
312.162445 150.114197
313.157501 121.5
325.180695 323.755096
329.175018 780.166626
331.149536 171.132507
333.145752 279.641998
334.184845 132.272705
335.08551 131.958893
343.1875 279.441895
347.17865 165.144608
349.174622 143.334106
351.157806 392.921295
353.17276 188.552307
371.186371 308.52301
375.152588 156.246201
393.167236 844.281494
394.174255 235.612305
409.198212 204.907593
411.179443 1052.219971
412.180267 135.392395
421.197357 264.061005
425.190155 221.105804
439.208771 222.558105
453.188019 1350.366943
455.18219 214.179901
465.2276 182.190308
469.215881 143.969696
471.199707 2891.943115
472.202026 210.163803
477.245575 149.253693
481.219574 414.236389
482.219971 210.327301
497.247131 178.657806
499.228607 2232.037109
500.229675 208.003006
513.209778 615.89093
513.239502 424.004791
514.243774 183.042999
515.203552 470.717407
516.20813 210.909698
531.232361 314.864197
533.21344 352.642212
541.241455 3536.886963
542.243469 303.616089
559.252808 523.031921
561.707825 198.016006
574.273987 146.524994
575.225403 1512.115967
576.229858 272.100006
601.263367 6806.676758
602.264038 564.367371
603.255249 761.713013
635.24939 2217.801025
636.251892 484.05249
663.277893 11442.299805
664.28064 1558.128052
664.716614 125.664497
723.300354 116670.203125
724.100708 130.700806
724.302307 15937.820312
724.443787 298.989197
724.51825 166.683304
724.551697 182.703598
724.602295 150.563202
724.838379 134.985199
725.012268 159.228104
725.188354 123.665199
725.456055 148.076904
725.619202 147.048492
725.667908 237.102295
END IONS
