BEGIN IONS
PEPMASS=736.297
CHARGE=1
MSLEVEL=2
SOURCE_INSTRUMENT=LC-ESI-qTof
FILENAME=euphodendroidin_P.mgf
SEQ=*..*
IONMODE=Positive
ORGANISM=GNPS-LIBRARY
NAME=euphodendroidin P M+H
PI=LITAUDON/TOUBOUL
DATACOLLECTOR=Esposito
SMILES=C[C@@]1(O)C[C@](O)(C([C@@H](C)/C=C/C(C)(C)[C@H](OC(C)=O)[C@H](OC(C)=O)[C@@H](OC(C2=CC=CN=C2)=O)C([C@@H]3OC(C4=CC=CC=C4)=O)=C)=O)[C@]3([H])[C@H]1OC(C)=O
INCHI=
INCHIAUX=
PUBMED=N/A
SUBMITUSER=lfnothias
TAGS=
LIBRARYQUALITY=1
SPECTRUMID=CCMSLIB00000840327
SCANS=1
51.022518 791.674622
53.038006 553.026672
55.017559 619.121277
55.054047 1765.185059
57.032864 3987.233887
57.070274 744.835571
59.0485 638.348083
65.037239 284.456085
67.053421 2741.745117
69.033157 7937.456055
69.069405 3868.794922
71.048737 2009.531006
71.084335 361.443604
77.0382 8673.671875
78.033241 3148.605957
79.054962 944.453186
80.04805 1063.057983
81.032394 1215.650024
81.069046 2895.591064
83.04863 8977.860352
83.085281 1509.406006
85.027596 9049.973633
85.064064 2596.99292
85.10083 480.401611
91.053329 1232.612061
93.032127 425.048492
93.042671 275.002289
93.068825 2763.824951
95.048096 3030.647949
95.084602 4806.778809
97.027367 794.930298
97.063988 2935.334961
97.100349 2037.098022
99.042984 3536.875
99.079559 601.349121
101.02195 289.010315
101.059067 560.47998
103.037849 802.828125
103.051895 1066.91394
105.032959 108119.601562
105.066269 9190.832031
106.028679 17437.099609
106.073692 849.008484
107.030525 492.083496
107.047607 2497.560059
107.085022 5704.76416
108.088348 563.129517
109.027512 1002.002014
109.063713 6666.250977
109.100319 12648.240234
110.102577 363.388489
111.04364 3589.256104
111.07917 2109.947998
111.111946 297.632904
113.059143 3965.924072
115.036232 598.231018
115.050842 458.722412
117.06826 957.345276
119.048561 1613.355957
119.08448 5945.848145
121.028419 243.001694
121.063293 5267.109863
121.099915 5990.152832
122.066017 260.322601
123.042755 7196.683105
123.079163 11099.669922
123.113953 1556.930054
124.037987 193767.0
125.040688 3695.038086
125.057549 8837.449219
125.094658 12875.650391
125.157181 325.628204
127.03727 420.068512
127.073616 989.82428
128.058945 296.951202
128.068909 235.111496
129.06752 1527.57605
130.077057 641.968384
131.084442 4805.481934
133.063339 3793.61792
133.099609 10171.200195
134.10347 407.007111
135.043106 1458.446045
135.078598 8686.30957
135.114609 3760.454102
136.081116 221.25
137.058578 3793.644043
137.094757 3180.272949
139.036133 408.009308
139.0746 1933.727051
139.108963 860.878113
141.052933 1073.130005
141.06546 795.474121
141.089325 669.485779
142.075714 1264.139038
143.04837 298.521698
143.08371 6029.38916
144.087708 753.130676
145.063553 4530.762207
145.099457 6426.713867
147.042648 544.281982
147.079269 4191.292969
147.11528 3188.981934
148.086777 332.458313
149.058395 3249.278076
149.094666 11421.150391
151.038361 260.546387
151.073685 6099.565918
151.110596 3262.566895
152.078262 290.00061
153.055206 1776.939941
153.08902 2455.582031
154.07399 211.373703
155.06781 1239.543945
155.083832 2758.200928
156.091965 2007.843018
157.047836 558.737305
157.062302 975.101624
157.099411 10433.209961
158.069626 558.059021
158.106064 1489.600952
159.041595 272.680695
159.079193 8220.633789
159.11528 18222.75
159.184921 382.657715
160.083511 450.928986
160.120255 1105.696045
161.058517 3006.043945
161.094177 8030.186035
161.130234 4098.100098
162.0979 505.970703
163.043274 302.444702
163.073959 9303.740234
163.109177 3084.88501
163.143982 347.8302
164.073929 209.472397
165.052338 1322.130005
165.06485 941.538025
165.08905 3585.938965
166.04805 5094.998047
167.081863 2911.205078
167.103668 1927.032959
168.087524 255.782104
168.107925 241.679993
169.06398 1377.036011
169.099533 9693.544922
170.107529 674.337219
171.079407 3233.212891
171.115387 45445.339844
171.187332 1004.223999
171.404556 209.973907
172.087845 352.885498
172.121353 2321.821045
173.057587 1136.5
173.09404 7948.987793
173.130493 3600.000977
174.101395 680.322327
175.037521 530.819275
175.073196 5132.698242
175.109848 13593.759766
176.077545 403.062103
176.116638 1307.938965
177.05397 1037.053955
177.089264 5735.295898
177.125748 3854.549072
178.09137 273.461395
179.068375 6265.867188
179.079819 4715.174805
179.1035 3211.904053
179.137695 426.653107
180.072815 395.479401
180.091766 713.160828
181.059036 389.044006
181.099991 6823.817871
182.06929 211.006607
182.107178 1140.435059
183.078613 1868.847046
183.114761 9054.526367
184.085785 343.421906
184.122375 875.434875
184.928116 233.004303
185.056168 435.707214
185.094528 10856.530273
185.130859 10961.910156
186.100037 893.719177
186.137024 1163.953003
187.044006 281.291687
187.073959 9430.725586
187.110153 26672.009766
187.183395 559.036316
188.077744 444.031006
188.114716 1188.542969
189.051437 562.472717
189.089279 7540.698242
189.125763 12126.080078
191.067841 2205.905029
191.104111 3347.660889
191.139771 1318.844971
192.101334 332.8013
193.082825 4345.26416
193.099075 5605.027832
194.10672 1287.281006
195.080826 1348.777954
195.114868 12848.299805
195.193573 225.752106
196.086304 615.379822
196.121155 1232.333984
197.0569 353.040985
197.094666 3998.904053
197.1306 15552.69043
197.20752 257.153809
198.101227 1041.027954
198.136597 1793.83606
199.074173 1975.28894
199.10936 13667.299805
199.146591 17654.070312
199.224487 313.606689
200.081787 446.227203
200.112091 1010.065979
200.150177 419.440308
201.052078 320.734985
201.089142 4497.666992
201.125626 7483.219238
201.191086 215.969299
202.094162 637.296387
202.12941 468.149689
203.068832 2518.628906
203.104584 5042.237793
203.140274 1736.944946
205.085281 11851.889648
205.119156 5718.471191
206.08696 665.631226
206.114243 561.375
207.077621 222.781403
207.115768 7685.480957
208.123245 2653.523926
209.093765 7271.527832
209.130737 20077.289062
209.209351 284.462891
210.102692 1414.285034
210.135605 1781.511963
211.071869 743.733887
211.109818 11515.700195
211.144699 2981.101074
212.118118 1639.910034
213.089142 5078.175781
213.125809 17916.089844
213.158218 4330.099121
214.056885 211.273407
214.097366 490.610687
214.131546 1285.407959
215.068893 3368.456055
215.103531 7324.097168
215.141266 5605.28418
216.068558 240.625
216.111679 771.064026
216.14151 414.963196
217.086044 2132.254883
217.119675 3911.808105
217.156952 2913.062012
218.105682 507.215088
218.124329 489.637085
219.062729 343.591888
219.107315 1773.64502
219.134079 1332.130005
220.121475 576.722412
221.092361 1370.438965
221.130188 4639.444824
222.098694 862.694275
222.138229 2912.434082
223.109726 12639.160156
223.146286 32703.580078
223.228317 678.344482
224.115662 1288.819946
224.151733 2106.077881
225.092514 1766.873047
225.125687 31845.070312
225.246521 217.778793
225.472626 228.935699
226.095856 857.662415
226.13092 2126.333984
227.104813 13688.0
227.140411 22603.080078
227.174271 5309.164062
228.063873 2942.481934
228.106369 1153.942017
228.143341 1316.709961
228.178299 370.790192
229.084488 2472.194092
229.120544 13648.5
230.087128 232.227295
230.124832 609.338196
231.099762 3094.6521
231.136002 5794.605957
232.123962 2392.950928
233.080017 2868.422119
233.128448 4493.037109
234.081207 282.085114
234.099213 339.609497
234.13829 1785.437012
235.109833 7719.575195
236.117645 2345.548096
237.089661 2234.120117
237.12558 17597.279297
237.161667 29875.949219
237.246841 535.248718
238.093491 474.002106
238.131622 3658.865967
238.165039 2508.249023
239.103607 3765.571045
239.140182 7375.600098
239.177383 6867.549805
239.261154 220.253296
240.11319 1364.083008
240.148361 1834.357056
241.085632 1151.20105
241.120346 17934.75
241.156708 38337.378906
241.241272 741.39093
242.12587 1261.442993
242.160599 1651.977051
243.09996 2243.068115
243.13591 9670.34668
244.140305 711.449219
245.085403 824.313477
245.114441 4091.720947
245.151367 4781.083008
246.106232 500.011414
246.13681 534.44873
247.096893 3220.329102
247.145538 16604.539062
247.227844 225.232101
248.118423 212.765503
248.149521 708.008972
249.124786 2770.885986
249.161057 3441.693115
250.133377 4648.560059
251.10463 4415.303223
251.141144 25120.939453
251.229675 484.332092
252.112335 395.5
252.145828 1786.639038
253.12059 25727.519531
253.211685 501.952789
254.126465 2218.089111
255.099289 5087.027832
255.135803 22964.820312
255.172134 34247.789062
255.419418 253.778793
256.102264 433.913788
256.138794 1893.194946
256.174438 1610.01001
257.079132 212.741196
257.119049 2307.36499
257.148773 2493.009033
257.187347 3791.383057
258.158051 219.918503
258.189697 279.891205
259.103241 247.115707
259.131714 2280.229004
259.166962 9838.670898
260.119049 2339.469971
260.169769 771.586792
261.11377 636.898193
261.147919 766.916077
262.068085 253.587296
263.10257 798.281128
263.140289 1953.651978
263.172607 449.033112
264.110626 747.586792
264.141235 734.968384
265.117371 2233.048096
265.157135 94263.523438
266.124115 479.274597
266.159698 6294.685059
267.099854 480.212891
267.1362 7842.007812
267.171448 8045.783203
268.104828 433.356506
268.143341 1965.698975
269.11496 6224.14209
269.152069 33110.339844
269.246307 553.182922
270.114594 287.356689
270.154938 1644.609985
271.130981 9025.724609
272.134521 870.320984
273.109833 1334.123047
273.145325 3493.724121
273.181824 4362.200195
274.121429 274.844696
275.089233 970.027771
275.141235 15905.900391
275.230438 219.210999
276.143646 953.160706
277.130066 596.155579
278.127594 4364.104004
279.135651 1339.160034
279.170013 1031.026001
281.113617 727.331116
281.151184 3776.090088
282.102905 212.191101
282.158173 1156.161011
283.083618 254.377304
283.166992 206095.5
283.99884 268.215912
284.116943 250.955597
284.171021 9621.302734
284.260193 262.565491
285.146759 6458.582031
285.17984 1778.599976
286.105103 1164.261963
286.149109 531.858398
287.124939 1007.335022
287.161926 9322.310547
289.145325 813.9422
291.135712 342.256897
291.153748 320.125
292.137207 460.243286
293.151886 99540.023438
294.154877 7197.712891
295.130646 2640.39209
296.137207 645.617188
297.111053 682.069275
297.145081 1914.202026
297.182648 1902.687012
298.153778 336.913788
298.182098 291.143707
299.161194 2232.370117
299.195435 785.267822
301.178192 48558.640625
302.181702 3618.922119
303.133301 330.462189
303.15451 336.471008
305.141388 492.852386
305.171295 412.394501
307.114807 841.000183
307.167145 4133.793945
308.167603 393.233795
309.146759 542.659729
309.186798 630.165283
310.106049 410.436005
310.152588 737.005676
311.162018 208333.40625
311.683136 277.990997
311.871643 264.974792
312.165314 9034.076172
312.254669 252.449707
312.873596 233.643997
313.140808 2900.833984
314.098297 225.934998
315.123413 780.154175
315.152954 1008.262024
315.194427 769.134216
317.147339 599.869873
319.18988 1531.843994
320.085571 296.213104
320.138092 360.75
321.144836 222.629593
325.177704 14106.669922
326.181885 806.117676
327.158691 518.791077
328.114655 301.875
328.19693 218.520706
329.173065 86749.976562
329.924988 232.396896
330.175446 4161.684082
330.82486 216.538498
331.151428 534.355408
333.137604 376.211212
333.204926 468.449402
335.161011 6350.145996
336.16156 483.961304
337.107208 230.843903
338.100586 289.164886
341.172516 576.002319
343.188416 42098.898438
343.479462 220.038101
344.191284 2550.745117
345.169006 462.128113
346.140381 216.796204
347.182495 7341.999023
351.156769 331.034485
353.122528 251.349899
353.172546 24838.080078
353.276062 345.520111
354.172974 1093.712036
355.152893 722.143127
356.110138 962.561584
357.163635 236.764999
359.156616 377.389404
359.189606 361.321014
360.15329 231.436096
360.190369 315.488586
361.19809 16289.400391
362.136414 239.640106
362.205017 522.411194
363.18634 384.360107
364.147766 283.425598
367.187378 369.627289
370.127533 212.891098
370.175293 867.802429
371.182739 39948.128906
371.526855 218.405304
371.621582 224.695206
372.186707 2819.825928
373.167023 248.225006
377.169952 278.389709
382.161163 376.360291
385.198059 4431.824219
386.201324 262.364899
387.191833 660.458984
388.136871 680.195679
388.188232 1114.769043
389.154694 282.973907
389.192963 19427.859375
389.302582 348.591797
390.195984 1393.350952
394.159546 262.102509
395.18396 1443.592041
397.176178 441.454987
398.172607 487.037598
401.188934 335.371399
403.208832 3806.404053
404.132599 756.902893
404.211945 305.0
405.203491 402.824188
406.19632 340.00061
413.192719 7347.379883
414.193909 437.166504
415.187103 1894.709961
416.132538 3038.863037
416.18161 4359.190918
417.135803 271.800598
421.216339 388.797089
431.203461 7645.387207
432.203644 300.579193
433.197174 5086.788086
434.193787 11931.200195
435.196564 945.520813
447.211426 395.407196
448.210571 294.230804
449.213257 4520.728027
451.208923 1428.072021
452.203796 17337.429688
453.20697 2234.888916
454.179993 233.114105
458.187805 506.018311
465.2229 599.440125
466.220184 385.571411
470.213684 1201.166992
473.214996 385.455414
475.20639 840.094177
476.204865 2297.008057
484.227844 967.138306
491.225708 1190.963989
493.219116 1084.389038
494.2146 8579.254883
495.218018 877.698181
496.190704 356.04129
508.22934 328.047394
511.226624 318.515106
512.224304 15254.150391
513.227112 1184.302002
526.239868 867.478271
530.236267 600.647888
535.227844 689.025513
536.226196 2634.599121
537.229126 208.913605
553.241577 1191.55603
554.235535 6341.195801
555.234863 919.747375
556.22644 231.531006
572.245911 8724.351562
572.358398 228.039001
573.246643 1235.930054
574.24115 218.570999
586.262634 1253.769043
596.243225 473.247711
613.264587 395.066711
614.256226 2791.684082
616.249268 438.22879
634.261719 684.401428
658.260254 1205.984985
676.271362 9431.481445
677.273804 773.85321
694.284058 507.992004
718.284424 1301.899048
736.292908 5350.081055
737.293396 339.304504
END IONS
