BEGIN IONS
PEPMASS=715.273
CHARGE=1
MSLEVEL=2
SOURCE_INSTRUMENT=LC-ESI-Orbitrap
FILENAME=Cpd_3_715.mgf
SEQ=*..*
IONMODE=Positive
ORGANISM=GNPS-LIBRARY
NAME=euphodendroidin O M+Na
PI=LITAUDON/TOUBOUL
DATACOLLECTOR=Esposito
SMILES=C[C@@]1(OC(C)=O)C[C@](O)(C([C@@H](C)/C=C/C(C)(C)[C@H](OC(C)=O)[C@H](O)[C@@H](OC(C2=CC=CC=C2)=O)C([C@@H]3OC(C4=CC=CC=C4)=O)=C)=O)[C@]3([H])[C@H]1O
INCHI=
INCHIAUX=
PUBMED=N/A
SUBMITUSER=lfnothias
TAGS=
LIBRARYQUALITY=1
SPECTRUMID=CCMSLIB00000840544
SCANS=1
190.378036 3269.538086
196.446808 4632.791504
200.587311 4508.670898
205.350693 3410.078613
227.739853 3271.086426
228.847702 3696.304688
242.417496 3255.654785
254.113876 3584.328613
265.1604 8720.996094
278.685852 3501.569824
283.169128 12066.866211
293.155579 9125.00293
293.63031 3999.37793
299.492401 3839.513184
310.888245 3628.776367
311.165955 17149.574219
311.926453 3959.412109
329.175873 10050.550781
331.152527 38298.367188
333.147034 9606.757812
345.622772 4130.031738
351.155884 149575.015625
359.085022 4550.398926
369.165405 24272.369141
385.089417 3698.625977
406.433502 3441.025391
406.452057 3552.062988
409.196777 9682.849609
411.180634 236354.015625
414.158112 3493.102539
425.195587 5579.185059
443.207153 15984.204102
445.19519 6724.260742
451.211273 11821.90625
453.187836 22858.601562
471.197815 566078.5
473.190613 276972.0
489.197357 4843.361816
489.230072 26385.492188
491.206818 399649.96875
505.222687 5492.688477
533.110229 9715.084961
533.128845 8471.048828
533.147461 8796.400391
533.212585 1507069.375
533.27771 5985.18457
533.333557 9274.925781
533.352173 5861.701172
551.223694 242642.296875
564.100525 5239.752441
565.246338 24736.953125
566.650452 4313.552246
571.224304 4562.017578
575.227661 13576.664062
592.944092 5510.028809
592.965881 7889.084961
593.009521 7316.061523
593.031372 9504.775391
593.053162 11240.142578
593.075012 12662.996094
593.118652 19108.935547
593.140503 13624.055664
593.162354 12005.40332
593.23877 2432883.25
593.315247 13327.466797
593.337036 16320.27832
593.358887 12259.928711
593.380737 15051.618164
593.402588 10345.53418
593.424438 10662.99707
593.446289 9935.952148
593.46814 7401.743164
593.48999 7641.181641
593.511841 8350.374023
595.23114 137000.9375
611.263245 14370.055664
613.243835 4513.043945
620.36322 3439.813477
654.701111 5154.185059
654.739075 5146.444824
654.7771 4504.60791
654.802429 5841.660645
654.840393 6380.742188
654.878357 6461.064941
654.916382 8123.171875
654.954346 8414.478516
654.992371 9384.407227
655.030396 11425.668945
655.081055 11711.108398
655.106384 18894.640625
655.157104 16708.193359
655.245789 3094763.25
655.359924 15938.057617
655.410645 14321.220703
655.435974 12228.591797
655.461365 12750.103516
655.512085 8992.442383
655.562805 7981.585938
655.613525 8212.651367
655.677002 5950.912598
655.715027 5422.96582
655.765808 5012.798828
655.791199 4176.691895
655.816589 4618.791992
655.854675 3681.029297
671.289978 5595.044922
686.052917 5991.226074
END IONS
