BEGIN IONS
PEPMASS=558.0
CHARGE=2
MSLEVEL=2
SOURCE_INSTRUMENT=DI-ESI-Ion Trap
FILENAME=Didemnin_B_IT_558mz.mzXML
SEQ=*..*
IONMODE=Positive
ORGANISM=GNPS-LIBRARY
NAME=Didemnin B M+H
PI=Dorrestein/Moore
DATACOLLECTOR=Roland Kersten
SMILES=O=C(N1CCC[C@H]1C(=O)N(C)[C@@H](C(=O)N[C@@H]3C(=O)N[C@@H]([C@@H](O)CC(=O)O[C@H](C(=O)[C@@H](C(=O)N[C@H](C(=O)N2CCC[C@H]2C(=O)N(C)[C@H](C(=O)O[C@@H]3C)Cc4ccc(OC)cc4)CC(C)C)C)C(C)C)[C@@H](C)CC)CC(C)C)[C@@H](O)C
INCHI="InChI=1S/C57H89N7O15/c1-15-33(8)46-44(66)29-45(67)79-49(32(6)7)48(68)34(9)50(69)58-39(26-30(2)3)54(73)64-25-17-19-41(64)56(75)62(13)43(28-37-20-22-38(77-14)23-21-37)57(76)78-36(11)47(52(71)59-46)60-51(70)42(27-31(4)5)61(12)55(74)40-18-16-24-63(40)53(72)35(10)65/h20-23,30-36,39-44,46-47,49,65-66H,15-19,24-29H2,1-14H3,(H,58,69)(H,59,71)(H,60,70)/t33-,34-,35-,36+,39-,40-,41?,42+,43-,44-,46+,47-,49-/m0/s1"
INCHIAUX=N/A
PUBMED=22458477
SUBMITUSER=mcruesemann
TAGS=
LIBRARYQUALITY=3
SPECTRUMID=CCMSLIB00000075322
SCANS=111
164.049316 3.79601
166.0 1.505875
169.927521 67.268768
170.957474 2.903612
173.008148 6.633764
177.047272 2.595494
178.983994 6.456203
180.099533 4.729375
181.866501 2.841044
185.055618 3.262618
186.032516 6.409
187.952713 3.460622
189.181824 1.124865
191.002335 6.34184
192.091309 5.436108
193.090912 1.374336
195.086288 5.049387
196.003525 4.10737
196.960297 2.917233
199.181229 3.841074
200.045273 6.650096
201.189041 3.997094
204.107193 24.13875
205.079742 4.450801
206.231155 2.893009
207.101105 5.736873
207.955826 3.038104
209.229721 5.386224
210.07193 23.320782
211.193192 7.30801
213.088379 8.726461
214.964478 5.495685
218.132706 2.499291
219.084869 6.643962
219.997269 5.820101
220.996307 6.043446
222.225311 4.92998
223.061005 5.316668
224.111572 17.446318
225.047607 3.677434
226.133514 2.657959
227.180725 4.300741
228.0504 2.570927
229.049973 14.005158
230.818192 1.141049
232.136246 6.518455
233.138885 5.076086
234.135773 5.938967
235.164322 16.8692
236.139557 2.389162
237.13562 6.102526
238.909088 1.098451
240.005615 4.434624
241.044128 7.307014
242.090912 1.429575
243.133392 2.543391
244.098618 4.485063
245.181824 1.08671
246.183823 3.810312
246.999908 4.955224
249.06636 9.044884
250.181824 1.09139
251.088867 15.684669
252.267288 4.249477
252.951111 3.118362
254.183655 7.543971
255.141693 5.329107
256.31662 2.776908
257.229309 2.726052
258.113037 12.929232
259.103333 13.955871
260.093872 9.361215
261.126526 25.050982
262.115448 8.741534
263.168671 9.027902
264.136658 3.373691
265.137238 17.509565
266.150543 9.96841
267.106293 5.055583
268.180359 5.077799
269.094666 13.699121
270.254578 21.244881
271.152161 17.406582
272.197449 9.873575
273.124054 15.889869
274.139343 8.061071
275.078979 8.71514
276.09552 6.996215
277.14624 12.425608
278.003204 4.227156
279.189972 15.955923
280.216919 6.640599
281.198822 18.498293
282.232635 2.482008
283.196289 10.981993
284.101746 15.843775
285.146423 5.97762
286.268799 9.141937
287.133209 14.553913
288.158234 14.024761
289.127441 18.605154
289.636353 1.023715
290.183716 4.44538
291.11142 18.949974
292.108521 9.109552
293.240265 7.610497
294.22879 7.896336
295.223145 12.313853
296.228027 11.390633
297.042633 508.667847
298.103302 45.096989
299.12619 35.578541
300.101379 25.984999
301.199493 13.581721
302.120087 11.847597
303.121735 10.597692
304.237091 10.849772
305.231323 11.673711
306.185181 3.925188
307.161377 75.209663
308.153625 21.164072
309.19281 21.056889
310.233856 8.260715
311.137054 14.865443
312.157684 18.197762
313.196289 18.539782
314.243835 19.791958
315.241211 13.411632
316.209534 15.37002
317.158295 15.07636
318.299042 15.618341
319.192017 10.793054
320.188477 13.901341
321.163361 47.806713
322.191284 19.439306
323.202271 11.378847
324.246368 14.199079
325.174866 21.720589
326.273254 6.47021
327.212067 11.78788
328.221069 6.397134
329.145355 10.968628
330.151215 25.14982
331.223755 21.486805
332.227112 11.342824
333.118774 11.662216
334.206757 16.401108
335.136017 14.134017
336.186523 16.602266
337.225616 12.429461
338.285156 15.018113
339.275269 18.34153
340.196838 10.163145
341.11731 11.782244
342.152588 13.20104
343.178925 21.569544
344.150696 14.019018
345.261963 13.714821
346.305115 15.050711
347.176941 21.437611
348.31778 23.528851
349.146973 37.166309
350.181244 14.525002
351.234711 11.961846
352.151276 35.279758
353.240906 28.537172
354.119171 10.373404
355.155945 17.742678
356.294952 13.726114
357.226318 20.711491
358.194305 25.82921
359.202637 10.5306
360.220123 10.333413
361.275757 24.356794
362.197296 13.160989
363.258453 8.003223
364.096466 24.753258
365.23703 17.948435
366.202454 25.812458
367.230865 73.615646
368.225616 23.071095
369.240021 31.889057
370.250092 28.730751
371.210724 80.184364
372.222626 11.377466
373.249969 9.144353
374.203735 19.137247
375.222473 13.878898
376.208588 21.745869
376.727264 1.008814
377.325104 21.873905
378.356384 14.094279
379.320496 36.206398
380.317352 12.073231
381.279205 19.034801
382.195404 18.183229
383.195862 21.581635
384.174072 29.066372
385.189209 79.128929
386.319794 36.262341
387.230042 23.591331
388.219238 21.5117
389.293121 19.147713
390.21991 19.562622
391.284027 41.203407
392.127869 22.294514
393.285034 49.907169
394.300323 39.508324
395.198273 84.084557
396.290405 31.820288
397.175354 20.262754
398.215729 31.034521
399.263824 18.020658
400.202362 23.117867
401.256989 22.224472
402.228607 65.346802
403.2565 27.271013
404.203766 24.740086
405.389862 30.215256
406.348694 14.755627
407.358459 147.203033
408.295502 48.323994
409.114777 133.17485
410.205109 98.804146
411.266266 36.376762
412.184357 16.298639
413.197723 36.921394
414.341431 25.376778
415.275299 27.438295
416.30899 31.435328
417.281769 19.063198
418.283386 23.318089
419.256104 12.490217
420.236481 18.662308
421.325653 31.963688
422.278625 64.464249
423.32193 59.494026
424.344666 92.170013
425.288208 64.724403
426.289917 30.024345
427.194611 39.282761
428.26709 36.081364
429.210541 36.33873
430.266296 20.455776
431.266022 23.09536
432.348907 21.983559
433.234924 8.760335
434.304321 17.838343
435.295441 24.956703
436.308807 31.411995
437.319611 26.412287
438.245728 38.792992
439.354736 35.244152
440.220673 33.870701
441.199188 47.665588
442.217224 77.27655
443.223633 149.597092
444.235931 76.66011
445.30481 68.581512
446.286621 14.808398
447.146088 16.919292
448.478394 22.673374
449.36673 15.534918
450.258789 19.581917
451.32019 7.758589
452.265656 14.365385
453.20578 55.066273
454.201447 31.790464
455.232056 26.01469
456.305206 30.666
457.187958 70.097481
458.254822 98.620178
459.286469 28.563961
460.327698 44.427475
461.314484 61.268368
462.305786 17.286644
463.185272 42.873344
464.156738 26.577692
465.220337 35.942665
466.303009 65.334671
467.346985 35.941807
468.248871 32.178158
469.246826 47.228065
470.280609 32.532433
471.118317 106.320175
472.252136 44.669682
473.234741 42.984535
474.398926 22.961645
475.280243 20.302132
476.249512 18.253864
477.268463 17.844284
477.891266 22.103172
478.672089 34.125435
479.504486 29.138422
480.412567 28.235378
481.290466 31.005472
482.334808 75.651749
483.36261 64.996033
484.327942 71.870644
485.219177 77.969582
486.22348 53.668736
487.239288 90.71328
488.294373 17.42709
489.206207 14.183514
490.241333 20.25458
491.356232 45.804417
492.411163 22.415159
493.351349 73.271118
494.421722 30.791759
495.329498 40.479351
496.32019 89.715721
497.322388 99.746231
498.405334 77.390358
499.273987 64.103455
500.19104 92.531242
501.225983 110.83725
502.427887 60.87006
503.405945 23.668194
504.269409 7.451481
505.143616 2.429674
505.707672 6.431824
506.335571 11.65976
507.104095 6.502189
507.682129 12.647511
508.397797 15.195345
509.256195 24.690113
510.294556 52.236134
511.259399 99.470863
512.318359 132.179565
513.271118 144.250656
514.257446 104.975639
515.338928 56.721546
516.146973 9.893069
517.420471 6.259967
518.417664 15.919742
519.245361 49.15263
520.406189 224.00441
521.364136 243.70343
522.434143 69.088882
523.330017 8.668242
524.289062 100.800186
525.271179 211.232025
526.377441 84.091118
527.380737 48.159451
528.370239 60.320671
529.27002 71.614632
530.078735 30.974817
530.614746 11.319737
531.210144 15.579977
533.443909 10.629448
534.207336 22.773724
534.845581 21.05755
535.547852 29.304861
537.1828 33.495857
538.411255 473.556
539.339111 685.335144
540.335754 287.017456
541.347778 82.389709
542.131104 33.279221
542.825378 79.093933
543.578613 28.756533
544.361938 5.291895
546.320374 2.626479
547.626221 227.964783
548.473328 150.560776
549.703918 25.413998
552.363647 1.474557
556.420837 92.142044
557.305847 67.735085
558.355347 15.118384
559.252808 15.021869
574.818176 1.02474
593.409485 7.225073
615.685791 2.259216
616.272766 1.235343
619.272766 1.04763
631.681946 3.246352
661.310425 2.694564
685.821533 3.37952
686.540833 4.283535
691.314453 3.279769
695.541809 4.652171
715.416992 4.693483
720.363647 1.509989
729.150391 5.697694
729.727295 1.204147
733.407837 2.160973
734.230957 3.158596
735.133057 2.160998
765.181824 1.120154
781.272766 1.033435
788.416748 40.985657
789.591919 13.787401
798.400391 26.75382
799.411011 2.266905
805.818176 1.010526
806.478455 65.658386
807.538757 15.477446
808.506287 2.381976
815.003479 7.664101
815.652588 28.001823
816.394836 883.566589
817.502808 192.11731
818.449158 10.218218
824.394897 27.69359
825.42395 11.677895
826.727295 1.401307
834.718018 2.306783
879.818176 1.073467
885.681458 3.298684
900.363647 1.098039
904.588257 2.394537
920.502625 2.483792
921.473633 14.762624
931.502869 2.89189
937.45459 1.048411
943.565369 106.529907
944.519592 32.897278
997.504272 2.666929
1073.714844 111.618782
1074.685181 76.88269
1075.699097 53.480568
1076.675415 24.279495
1089.668335 90.095543
1090.771973 49.799667
1091.752563 20.946062
1092.726196 4.021255
END IONS
