BEGIN IONS
PEPMASS=841.318
CHARGE=1
MSLEVEL=2
SOURCE_INSTRUMENT=LC-ESI-qTof
FILENAME=euphodendroidin_Q.mgf
SEQ=*..*
IONMODE=Positive
ORGANISM=GNPS-LIBRARY
NAME=euphodendroidin Q M+H
PI=LITAUDON/TOUBOUL
DATACOLLECTOR=Esposito
SMILES=C[C@@]1(OC(C2=CN=CC=C2)=O)C[C@](O)(C([C@@H](C)/C=C/C(C)(C)[C@H](OC(C3=CN=CC=C3)=O)[C@H](OC(C)=O)[C@@H](OC(C4=CC=CC=C4)=O)C([C@@H]5OC(C)=O)=C)=O)[C@]5([H])[C@H]1OC(C)=O
INCHI=
INCHIAUX=
PUBMED=N/A
SUBMITUSER=lfnothias
TAGS=
LIBRARYQUALITY=1
SPECTRUMID=CCMSLIB00000840328
SCANS=1
51.022606 718.857422
54.032234 212.373703
55.053818 470.122986
57.032661 945.843018
61.028763 231.906403
67.05365 529.212402
69.033249 3739.978027
69.069527 526.503296
71.04847 250.023499
77.037834 3357.748047
78.033081 3726.000977
80.04998 722.259277
81.06955 929.735596
83.048683 2984.322021
83.085327 1265.875977
85.026978 609.853088
85.064583 437.1875
91.053818 499.557709
93.069321 829.170227
95.047585 746.023071
95.085693 3050.969971
96.052628 307.756714
96.089027 268.049408
97.100189 287.088989
99.044098 248.818207
105.033035 112114.296875
105.366653 268.803802
105.977432 242.277802
106.028481 53342.121094
107.031219 1941.235962
107.08506 1597.323975
109.028069 243.656601
109.063972 1795.906006
109.100533 5873.558105
110.103409 262.828613
111.042542 321.66391
111.079086 497.376312
113.057945 244.088501
115.052994 325.14389
119.046822 382.389496
119.083725 2698.350098
120.089302 267.255188
121.062973 2018.560059
121.100067 1318.218994
122.061775 486.364502
123.042801 2940.943115
123.079201 8610.446289
124.037903 172647.5
124.365105 351.661987
125.040398 3460.427002
125.057503 4971.161133
125.095558 1214.296997
126.06144 259.321594
127.074081 307.244995
128.059845 238.4785
129.068924 384.92569
131.083542 1261.052979
133.063339 248.735001
133.099838 2269.61792
135.042007 881.257629
135.078491 4189.35498
135.113953 926.834412
136.082458 232.460907
137.059631 481.009094
137.095245 1717.459961
139.037231 281.455902
139.074463 1691.175049
141.06723 464.928589
141.088882 1187.246948
142.075333 459.346985
143.084244 1832.447021
145.063461 3524.844971
145.099075 1149.161011
147.078598 2504.431885
147.11557 794.870483
149.095184 1601.416992
149.129715 210.844894
151.074142 1192.483032
151.108917 470.8526
153.051422 436.746704
153.066544 321.752899
153.087646 568.809875
155.083237 461.760315
157.063171 830.869019
157.099594 3518.184082
158.107071 1314.453979
159.078796 4967.768066
159.115021 3795.412109
160.121628 216.0009
161.057266 932.150513
161.093658 1437.805054
161.132187 425.408295
163.037369 196.273407
163.074249 1639.387939
163.109329 1120.823975
165.053207 535.937073
165.088654 983.906128
166.048187 9692.931641
167.050964 452.372986
167.084869 560.14093
169.062698 1016.736023
169.100418 2181.919922
170.105988 649.338623
171.078857 2084.636963
171.115112 6988.533203
172.076508 335.763214
172.119324 546.380676
173.057678 710.894897
173.093384 2907.524902
173.129379 703.018005
174.060333 199.897995
174.099014 785.919983
175.073837 2863.008057
175.109711 1959.515015
176.151291 205.216904
177.052689 244.845505
177.08931 1392.06897
177.123993 472.897797
178.057053 193.695602
178.086823 383.086914
179.06427 218.000793
179.081161 202.308807
180.06366 226.779999
180.090561 211.25
181.099442 1188.89502
183.077896 944.581726
183.11525 2563.947998
184.118683 233.758804
185.057343 535.449829
185.093933 2455.823975
185.130859 2732.158936
186.09964 552.991882
186.134613 217.011002
187.035629 248.044998
187.073654 3763.467041
187.109573 6509.25
188.075455 285.000885
189.050705 525.892578
189.088837 2224.868896
189.125626 3272.01709
190.085602 557.779419
191.070816 338.191986
191.107101 553.644714
192.096191 302.451904
193.098145 1676.171021
194.105042 210.108902
195.074051 461.132812
195.11525 3116.059082
197.057755 664.763916
197.09346 2284.238037
197.129272 1431.36499
199.071854 647.124207
199.109711 1991.042969
199.144791 554.025208
200.115768 437.808014
201.057495 279.620697
201.088165 1755.770996
201.124832 1034.892944
202.126404 208.006897
203.069702 704.086914
203.103149 1372.321045
203.14119 451.969788
204.104034 322.371185
205.085892 852.305176
205.120209 924.338684
206.122147 221.140396
207.062225 199.481506
207.114517 9374.517578
208.058105 287.678711
208.121384 1649.239014
209.0952 4247.581055
209.130539 8659.526367
210.101013 665.238098
210.132721 609.107422
211.110504 4634.405762
212.07666 193.382904
212.114548 833.809021
213.089188 1361.004028
213.125061 5675.058105
213.157257 1012.377014
214.095581 285.002686
214.131851 991.369019
215.068527 1190.958008
215.105209 5626.106934
215.485046 199.807297
216.069107 252.236801
216.106873 375.104095
217.084564 1108.312988
217.119537 992.017883
218.089081 336.164093
218.10405 421.223785
219.115646 1085.405029
220.09198 246.571198
220.124603 395.428589
221.093231 540.917419
221.131363 1094.687012
222.100159 500.036285
222.137314 998.400024
223.110825 5535.0
223.145996 4634.700195
224.117737 755.501404
224.146347 302.379486
225.089294 792.469421
225.125519 4525.421875
226.130707 316.287506
227.105484 3556.711914
227.140228 4672.456055
227.173874 1207.718994
228.063705 9535.0
228.145447 381.522491
229.062119 1913.399048
229.080475 1767.676025
229.119141 2251.700928
229.153778 432.0
230.086151 193.9245
231.110382 642.310425
231.134857 804.44458
232.125626 1523.057983
233.083755 757.047424
233.128662 1778.817993
234.099564 278.682495
234.136276 247.714294
235.109711 1941.537964
235.145905 1096.042969
236.117706 912.805786
237.089371 1273.605957
237.125275 14445.80957
237.161392 14258.660156
238.128174 1036.442993
238.164368 1417.18396
239.105057 1452.766968
239.138779 1826.510986
239.175339 1095.771973
240.106918 400.662201
241.119736 3769.040039
241.156006 3359.013916
242.086929 247.836594
242.120865 721.143616
242.15802 432.465088
243.100662 1422.564941
243.132523 428.027191
244.102692 259.357086
245.081268 343.656799
245.116943 692.422119
245.150757 602.130188
246.072983 235.345093
246.104691 239.111496
247.10408 514.440979
247.14592 13703.80957
248.114029 306.083588
248.148438 694.818909
249.12413 2375.236084
249.161301 2023.541016
250.13356 2063.351074
251.105286 3034.403076
251.141144 10934.25
252.110001 322.524506
252.145111 1432.796997
253.120621 5424.445801
254.122345 845.496399
255.100266 1826.240967
255.135147 6569.11377
255.171738 7703.792969
256.136963 523.124512
256.175415 312.131409
257.118073 1617.0
257.147552 908.32489
258.118866 234.125
259.092621 297.889099
259.131775 878.271912
260.125305 3476.0
261.120148 516.203186
263.141144 1310.199951
264.101562 697.065186
264.144165 365.040009
265.156982 87187.15625
266.115784 720.477478
266.159607 8972.460938
266.231171 313.328796
267.098694 645.398376
267.135315 3312.126953
267.172211 2420.831055
268.141724 822.220398
268.171478 261.040314
269.114258 2615.197021
269.151093 8209.416992
270.073395 241.742203
270.111328 313.147186
270.154938 639.475708
271.134094 814.491394
272.127899 263.22229
273.145905 626.755127
273.183136 240.050003
274.136963 231.361298
275.140808 13043.629883
276.099365 345.490112
276.14447 1402.337036
277.121887 548.215515
278.127716 1301.376953
279.099884 966.076111
279.130463 494.019196
279.170563 288.817596
280.096802 562.98761
280.139679 347.032104
281.114075 559.710999
281.151794 1172.196045
282.118561 247.266403
282.157867 734.94458
283.16745 47538.410156
284.127899 405.978394
284.171234 3623.375977
285.123138 201.987595
285.144531 425.159485
287.125671 292.80069
287.160736 772.362976
289.150909 345.391296
291.101654 467.85141
291.131439 656.864197
291.171448 300.001404
292.094727 2235.686035
293.151978 80828.976562
293.577423 234.126801
293.674316 214.224396
294.10965 1583.151978
294.154541 6810.219238
295.130005 1755.281982
296.136536 365.444885
297.147919 1038.621948
297.178986 626.042725
299.124725 528.875
299.160095 300.609802
301.176575 3753.717041
304.129456 256.567108
306.147766 226.145599
307.11203 202.840897
307.127045 208.061295
307.167236 1951.69397
308.170044 274.111786
309.147614 452.115387
309.18045 359.198792
310.104675 1644.005981
310.147217 307.939392
311.162476 101553.898438
312.121826 289.678986
312.165222 6963.464844
312.240936 267.224304
312.640533 199.458893
313.142975 1095.703979
314.149475 486.109802
315.129974 319.008301
315.153534 435.727814
317.149445 530.000488
318.146606 573.320312
319.093475 225.671402
320.088684 1292.102051
320.125732 770.510376
321.146881 294.0159
323.160095 382.075012
324.123718 277.651215
325.177155 11138.070312
325.250366 198.280701
326.179382 1152.385986
327.155823 423.806213
327.187531 251.482498
328.162079 221.835098
329.172546 19484.5
329.269806 281.029999
330.146393 3462.844971
330.17337 2678.350098
331.148346 328.136108
332.160706 566.007019
333.144012 225.287399
334.140411 400.377197
335.161591 4502.557129
336.119629 264.2724
336.159515 1870.772949
338.098206 396.144409
340.114624 250.5952
341.171204 366.984497
342.122131 209.7603
342.147308 455.985107
342.174347 321.543213
343.189117 2464.092041
344.191833 470.041199
345.141815 271.646515
346.139282 253.445999
348.160034 245.859695
352.114258 910.133423
352.15033 536.003113
353.172394 32486.679688
353.273834 526.611877
354.129608 207.527802
354.175323 2958.033936
355.168762 367.471191
359.157806 195.048203
359.197784 461.920288
360.121155 199.899994
360.155762 1487.162964
360.189575 983.149719
361.195984 511.019196
364.148712 276.406494
366.129181 461.648407
369.181 879.156616
370.177582 1598.197021
371.183167 27711.599609
371.286438 356.560211
372.187103 4213.788086
373.176575 1687.399048
374.172821 1154.222046
375.176025 308.63269
376.152344 1101.416016
378.170532 746.616272
379.169281 320.8013
380.158539 226.390503
385.194366 529.428772
386.175598 368.0
387.192535 3686.0
388.188141 12810.450195
389.193085 2983.409912
390.202118 616.107117
392.180756 363.241089
396.185669 193.803604
397.17511 923.163879
398.132812 321.006104
398.172333 2690.559082
399.177063 598.970215
404.149994 200.130402
405.202301 640.03772
406.198456 18486.589844
406.281799 336.669403
407.201935 1813.291016
413.19397 3502.941895
414.194855 440.571411
415.186951 7765.036133
416.183075 24864.359375
416.294861 337.156311
417.185211 3161.653076
420.170898 315.022491
424.207428 990.072571
425.204956 263.17099
430.197479 377.057007
431.201874 2158.409912
432.139587 243.043106
432.205719 357.130402
433.198639 3066.837891
434.193665 41823.621094
434.626984 302.287415
435.197235 4494.270996
436.171844 1389.581055
437.171875 284.000488
438.221588 203.003601
442.121826 419.883698
446.191284 564.785278
447.216339 552.059692
448.209045 20776.550781
448.32132 303.17749
449.21167 2741.687988
450.188873 226.010498
450.222107 644.639587
451.202332 226.012894
452.203369 14756.410156
453.207001 1485.062988
457.198364 357.563995
458.192993 1912.324951
459.196045 365.653015
466.219269 8645.291992
467.220917 621.24408
473.211792 1423.942017
475.20932 3725.160889
476.203613 43291.421875
477.206329 6623.647949
482.192719 800.086182
485.225616 252.968903
493.217224 1598.401978
494.21463 48967.75
494.552246 224.001495
494.619995 213.0065
495.05481 197.526001
495.217377 5814.272949
508.228912 2027.436035
508.344513 195.171799
510.22348 1320.447998
512.224426 1966.687988
518.208313 275.003387
520.205994 548.050903
528.233765 6249.464844
529.235291 617.984497
535.22937 885.923889
536.225037 12161.799805
537.227539 1466.69104
538.21814 3406.330078
539.220093 995.841125
553.23761 393.489685
554.234863 6572.375
555.237671 1150.063965
556.229858 7988.851074
557.228943 1010.14801
570.244873 11174.730469
571.24823 1698.284058
574.242432 1299.694946
578.231506 247.382004
580.231873 938.226929
588.257568 1149.352051
589.251221 1582.92395
595.250244 1951.177002
596.247253 2602.852051
598.239929 34361.191406
598.719116 263.091492
598.79303 247.453705
598.853699 229.207001
598.92157 282.191101
599.242249 6646.882812
600.241699 212.0009
616.251465 102881.796875
617.030579 208.214294
617.25354 15575.030273
630.266724 2747.229004
631.267944 510.977295
634.261963 231.242401
640.247864 546.742371
658.261902 19538.009766
658.400879 252.471207
659.261047 5106.311035
676.271912 5493.193848
677.274597 1670.112061
700.268494 384.7901
718.281982 192571.796875
719.113708 221.600906
719.159058 200.642899
719.285339 29379.029297
719.42511 410.455414
719.582581 358.664215
719.636292 216.794998
719.696533 214.052307
719.766235 304.546387
719.828247 271.058502
720.278687 267.333313
720.486023 233.320007
721.267639 462.484802
721.378174 194.295898
739.282593 353.371185
781.291138 1285.032959
799.298279 300.441101
841.313782 80554.59375
842.119019 231.586502
842.315796 17874.990234
842.438599 471.464691
842.928528 208.500595
END IONS
