BEGIN IONS
PEPMASS=633.268
CHARGE=1
MSLEVEL=2
SOURCE_INSTRUMENT=LC-ESI-qTof
FILENAME=5a_7b-O-diacetoxy-14b-O-benzoyloxy-15b-hydroxy-3b-O-propanoyloxymyrsinol.mgf
SEQ=*..*
IONMODE=Positive
ORGANISM=GNPS-LIBRARY
NAME=5,7-O-Diacetyl-14-O-benzoyl-3-O-propanoylmyrsinol M+Na
PI=LITAUDON/TOUBOUL
DATACOLLECTOR=Esposito
SMILES=C[C@H]1C[C@@]2(O)[C@]([C@@H](OC(C)=O)[C@@]([C@H](OC(C)=O)C=CC3C(C)=C)(CO4)[C@]3([H])[C@]4(C)[C@H]2OC(C5=CC=CC=C5)=O)([H])[C@H]1OC(CC)=O
INCHI=
INCHIAUX=
PUBMED=N/A
SUBMITUSER=lfnothias
TAGS=
LIBRARYQUALITY=1
SPECTRUMID=CCMSLIB00000840346
SCANS=1
51.207188 11.77885
54.472309 14.00543
55.053162 28.57143
57.033028 510.725586
57.300064 32.00658
59.049503 84.49128
69.06987 52.160709
71.048325 96.696426
71.064781 17.01923
77.039276 790.729309
79.056358 180.5513
81.069923 262.0
81.109467 17.471149
81.122704 24.200001
82.071396 155.373306
83.011101 94.941177
83.048431 216.009003
83.073425 22.375
85.028687 284.444885
86.157768 10.125
91.054688 97.958344
93.070473 347.196014
95.049728 430.614594
95.08593 136.372803
97.064621 444.093811
104.980324 74.288368
105.034309 10010.94043
105.06752 705.113403
105.09285 175.235703
105.11702 11.45
105.14682 34.605
105.167091 45.138512
105.189995 28.01786
105.243774 11.55682
105.264977 52.30867
105.356621 35.361111
105.43309 39.0
105.524239 20.148809
105.559509 43.68182
105.597168 20.08654
105.634964 22.6875
105.670288 12.225
105.700363 22.225
105.730751 36.695511
105.933968 18.15
106.5867 41.408779
106.982193 20.01786
107.048195 95.313637
107.08593 114.764702
107.112755 43.45153
109.064819 439.369904
117.054749 71.275002
117.506294 26.644739
119.047745 157.273697
119.085907 81.653976
121.064919 376.013611
121.124557 11.25
122.288528 39.028851
123.079582 269.002808
123.144333 13.32237
125.057343 185.827606
126.04641 84.023933
127.075714 157.232697
128.062134 229.601501
129.4328 12.25
131.08548 945.239807
131.152893 18.03879
133.100372 84.483017
133.372879 22.008329
135.080109 198.497192
137.098694 57.215431
141.490005 56.560341
142.074722 92.893623
143.085358 838.952515
143.150665 11.075
143.294739 26.273649
143.507294 10.02778
145.025696 440.177002
145.10022 77.011841
146.103699 64.102272
147.078995 231.493805
147.118515 159.800903
147.58403 14.01923
151.072525 76.248596
155.085754 615.843323
155.136292 21.21121
155.157959 17.04891
155.244736 11.32143
156.696472 15.625
157.100128 505.395203
157.271957 19.007351
158.14653 50.33065
159.081696 193.633102
159.520172 18.242649
159.535355 26.529409
161.093369 81.668213
161.424042 23.53289
163.0755 50.041672
165.071762 265.104095
165.091583 111.820503
165.190292 20.00379
166.077927 74.33532
166.297165 69.432892
166.683151 17.066669
167.0849 193.745102
169.101257 1104.047974
170.238022 17.066669
171.083817 24.05921
171.115234 89.372421
173.096054 2445.628906
173.168747 24.75
173.243484 17.48214
173.290604 52.875
173.329712 16.035721
173.391159 12.16447
173.42717 11.57143
173.483093 18.125
173.546082 36.260422
173.748505 44.285709
173.857925 11.20833
174.097137 56.41021
175.11113 192.224503
179.086655 231.914307
179.10231 148.470596
179.165817 11.05921
180.089874 95.920631
181.101318 515.970398
181.16983 13.14881
181.40889 25.941179
181.586975 24.013889
183.118484 351.195801
183.175568 15.16447
185.095917 379.603394
187.112244 233.827698
188.580215 26.78241
191.08313 77.93943
192.056458 101.322601
192.091675 173.313095
192.176346 11.0
192.500427 44.689999
192.513275 34.245689
193.10022 174.030899
194.107498 185.318604
195.077103 50.019741
195.117432 1716.011963
195.193939 24.148809
195.36528 16.242649
195.534393 21.30682
195.631073 19.10227
196.050156 17.08654
196.254578 13.47115
196.394089 11.77885
197.097046 112.0019
197.132858 1989.707031
197.216293 22.02083
197.266006 16.013889
197.309708 33.96011
197.34166 54.898151
197.407562 25.941179
197.441711 22.285721
197.461273 24.045
197.681641 10.47115
198.095093 18.125
198.133865 51.125
199.111847 200.493195
199.149384 124.896004
201.054306 151.819
203.085098 95.657608
203.106842 378.928986
203.181549 12.225
205.102829 76.140633
206.108704 176.8526
207.077286 52.681599
207.116898 509.803986
207.629547 27.04167
209.094772 103.266701
209.132721 221.490601
209.368011 34.612801
209.433151 15.125
211.110367 390.623291
211.148178 1020.210999
211.227783 42.88929
211.2603 28.328951
213.127548 57.889149
213.764069 12.89286
217.099289 123.978104
218.110764 135.651093
219.116653 628.682617
219.195633 18.008329
220.086868 89.290909
220.13295 11.06618
221.093689 96.739754
221.134048 674.861328
221.213501 12.0
222.104645 40.002911
222.131958 102.320396
223.044418 22.17308
223.060013 11.01136
223.147324 253.526001
223.261765 18.125
224.085831 192.625
224.112518 190.2966
224.157043 14.01389
225.126892 127.75
225.163849 441.309601
225.264084 29.235291
225.368561 23.125
225.422638 16.242649
226.132645 116.178596
229.093399 45.791672
229.330368 13.14881
231.112915 19.625
232.123749 745.918396
232.328339 15.25
233.133072 455.027588
234.137665 161.352005
234.360703 32.485291
235.11084 239.531601
235.149384 697.31427
235.35025 35.520828
235.645187 17.81818
235.733734 27.778851
235.923798 57.656818
236.11528 34.130322
236.372025 26.055559
237.126984 96.583344
237.16391 391.760498
237.427277 13.00543
237.486572 64.922752
238.137848 51.444771
238.165878 54.890629
239.144424 1340.714966
239.345566 23.64015
239.409836 15.025
240.150131 122.605003
244.126068 274.861511
244.793182 16.796049
247.148285 1244.406982
247.213791 17.799999
247.270966 26.03879
247.698807 14.47115
247.86235 31.013161
247.931564 27.480261
248.12323 124.6576
248.15152 175.443207
248.292206 28.32692
248.888 23.174999
249.128448 183.587204
249.165085 868.421875
249.399582 19.11364
249.607681 27.02273
249.729477 23.28125
250.169128 49.125
251.139542 191.064499
252.146637 68.308823
253.120834 50.125
253.156479 125.595596
253.520584 21.84091
253.617416 24.08333
253.648804 21.0
254.106583 42.896278
255.269852 14.29167
256.138641 26.245689
257.153809 295.017609
257.32016 33.0
257.487701 10.24039
258.572205 28.3125
259.148499 292.478485
259.32309 66.881668
262.137573 427.777893
262.481842 22.0
263.057281 43.653221
263.876404 54.30616
265.159454 1664.582031
265.223206 17.14286
265.39386 44.8848
265.427643 14.01923
265.501404 12.25
265.525391 35.347221
265.657715 27.76923
265.870087 38.013161
265.921173 11.05921
266.161804 120.457703
266.647858 23.009609
267.173584 485.703003
267.23407 11.2
267.313416 14.13587
268.186188 16.242649
269.320953 37.333328
271.131012 149.669998
271.162323 44.003792
277.158051 1634.165039
277.248474 14.025
277.384979 20.450001
277.514404 24.603571
277.636169 46.151119
277.733795 10.08333
278.167023 17.75
281.080048 30.027781
281.360931 16.57143
283.165741 113.806297
283.957733 40.112499
287.139343 143.063095
287.186646 11.18382
288.266754 14.4
293.716553 31.100809
295.134186 167.793503
295.170044 716.893127
295.221527 33.0
295.568695 11.40833
297.148804 80.247643
297.181885 11.125
301.154175 31.117649
309.184875 19.32143
311.157593 34.224998
311.28067 30.245001
312.921997 14.5329
313.177826 181.145401
316.824799 20.089279
317.152496 296.826599
317.568573 17.107759
317.773499 15.625
318.38208 15.32143
321.182251 99.049606
323.174805 23.157049
327.119446 126.556
335.159119 122.144096
338.947723 28.48077
339.190704 171.629807
339.3703 26.0
341.144653 33.0625
344.175781 81.149391
349.829468 26.888889
350.115875 28.07143
351.194122 123.761398
351.832581 17.66667
352.006256 12.47115
358.18454 24.326611
358.203979 13.5
365.134705 66.004997
369.202515 181.0672
369.255646 13.01786
369.609711 16.56818
369.756836 37.63377
369.922577 23.33333
370.17926 51.723358
377.175537 269.166504
381.185486 154.641006
387.191254 88.884712
391.180084 38.67857
391.370697 17.025
392.191132 15.00658
399.19574 356.245789
405.665344 20.875
409.17392 196.291702
409.305786 25.0
417.205109 202.397095
417.618073 26.125
425.047852 26.32692
434.297363 29.361111
437.190704 63.18182
437.3013 50.90675
439.18811 1489.61499
439.309906 11.57143
440.099731 12.0
440.189392 85.506943
440.363129 18.53289
440.749756 21.052629
452.209045 203.183899
457.19931 69.160088
473.228882 77.729729
482.194275 20.07692
491.239563 140.002396
491.601288 40.38409
495.223389 37.900002
499.207947 1570.400024
499.313324 30.16346
499.542297 15.125
499.643707 100.051498
499.796722 26.0
499.949799 31.44907
501.016327 10.92045
503.588104 15.79605
511.22821 10.5625
513.224426 952.544983
513.448242 40.125
513.761597 14.00833
513.797791 37.5
513.840088 60.257809
513.878479 14.02778
513.982849 10.28409
514.09729 18.471149
514.230408 58.5625
515.520264 11.32143
517.222534 25.5
517.537415 34.224998
518.213928 124.529602
531.228455 32.097832
548.533142 14.59559
559.22998 1578.218018
559.36792 15.675
559.459717 18.52083
560.027893 21.30769
560.10199 31.025
560.232117 95.281967
560.401306 30.520161
560.884705 28.58333
561.651489 33.052631
568.551147 43.516129
570.202637 32.102268
570.345032 25.11574
571.109924 16.1875
571.808716 30.68598
572.653992 49.01786
572.716187 17.44022
573.244995 6475.383789
573.34967 45.041672
573.449646 55.310341
573.540955 18.29167
573.56604 17.08333
573.656311 52.470589
573.866211 34.0
573.953979 83.050003
574.003662 37.375
574.124512 18.164471
574.199463 41.259621
574.248352 580.317627
574.333679 39.680561
574.736633 85.22612
574.814575 43.779411
575.518799 21.125
584.780945 23.64015
589.766724 12.66667
592.082947 23.07143
619.08429 13.00961
629.955505 16.008329
630.640076 24.08333
630.811829 13.04891
633.265381 6751.400879
633.439758 10.33333
633.48938 32.036289
633.543335 25.53289
633.655823 25.45833
633.685242 25.361111
633.778442 39.01907
633.804504 19.03125
633.841736 20.45455
633.908813 80.757584
634.006226 25.64015
634.076477 17.125
634.164001 29.002911
634.225159 27.941179
634.268982 472.715912
634.35791 22.049999
634.699097 56.395161
634.862488 23.5
634.970581 33.002781
635.691528 35.0
636.576538 14.5329
637.016113 21.322371
655.478943 17.066179
END IONS
