BEGIN IONS
PEPMASS=462.198
CHARGE=1
MSLEVEL=2
SOURCE_INSTRUMENT=LC-ESI-qTof
FILENAME=f.negarg/160Gatech/Sponge_positive_5uL_P1-D-1_01_422.mzXML;
SEQ=*..*
IONMODE=Positive
ORGANISM=GNPS-LIBRARY
NAME=Smenathiazole A M+H
PI=Neha Garg
DATACOLLECTOR=Neha Garg
SMILES=[H]C#CCCC/C(C/C=C(C)/C(NC(C(C)C)C([NH+]1C(C2=NC=CS2)CCC1)=O)=O)=C/Cl
INCHI=
INCHIAUX=
PUBMED=
SUBMITUSER=negarg
TAGS=
LIBRARYQUALITY=3
SPECTRUMID=CCMSLIB00004752860
SCANS=3587
70.065422 2477.0
86.006401 2123.0
91.055336 547.0
119.085999 544.0
145.101456 2409.0
155.064041 20032.0
156.066925 1622.0
157.060974 708.0
173.095901 693.0
188.053223 1839.0
191.179764 807.0
280.146271 755.0
308.140503 1177.0
461.206757 807.0
END IONS
