BEGIN IONS
PEPMASS=637.262
CHARGE=1
MSLEVEL=2
SOURCE_INSTRUMENT=LC-ESI-qTof
FILENAME=f.Esposito/E-dendroides-ref/euphodendroidin W.mgf;
SEQ=*..*
IONMODE=Positive
ORGANISM=GNPS-LIBRARY
NAME=euphodendroidin W M+Na
PI=Litaudon and Paolini
DATACOLLECTOR=Esposito
SMILES=C[C@H]1C[C@](O)(C([C@@H](C)/C=C/C(C)(C)[C@H](OC(C)=O)[C@H](OC(C)=O)/C=C(C)\[C@@H]2OC(C(C)C)=O)=O)C2([H])[C@H]1OC(C)=O
INCHI=
INCHIAUX=
PUBMED=
SUBMITUSER=Esposito
TAGS=
LIBRARYQUALITY=3
SPECTRUMID=CCMSLIB00004680121
SCANS=1
51.030106 12.57031
53.046745 16.92614
55.02557 62.161949
55.06258 742.39917
55.067375 33.442711
55.074867 99.953621
55.083031 37.472439
55.088467 22.02047
55.094757 24.41773
55.102604 13.51535
55.107437 15.93733
57.042057 124.212196
57.049511 17.617821
57.079166 183.833405
57.093628 17.105659
57.104797 13.35433
59.057938 80.834557
59.066208 14.47407
65.047516 11.07563
67.063423 741.231323
67.070564 115.429298
67.078766 54.25074
67.086037 43.368771
67.091988 22.31138
67.099319 19.692011
67.107224 12.43499
67.112938 13.05515
69.042549 1196.227051
69.050606 123.726402
69.058182 90.582359
69.061462 17.377159
69.065849 55.426411
69.070557 11.13368
69.07914 763.89447
69.086731 123.232803
69.094749 71.289902
69.101418 26.13529
69.10743 23.250259
69.11599 21.32868
69.123314 11.17785
69.12899 12.92294
69.256355 10.67411
70.046898 10.59728
71.05851 218.628601
71.06636 57.20166
71.074417 31.446091
71.082085 12.63225
71.09465 26.504551
71.103111 11.25104
77.048279 94.279182
79.063637 490.866394
79.072914 80.816597
79.080788 56.940842
79.087196 26.979389
79.092926 16.766991
79.103188 10.72905
81.04435 32.274342
81.08004 531.251404
81.087379 73.928589
81.097107 71.995232
81.106216 15.89279
81.110435 11.56673
81.119461 11.31527
81.134842 12.44231
82.082283 10.07102
82.897346 14.67096
83.020905 397.710388
83.027695 61.370022
83.038155 57.802662
83.04599 23.6399
83.05896 3111.959961
83.067276 236.776199
83.07621 322.205811
83.084488 112.829002
83.091728 73.60508
83.096252 206.333206
83.107697 61.289909
83.114037 65.55777
83.123329 18.12336
83.323814 15.21347
83.366989 12.11305
85.037956 99.006668
85.047562 10.70258
85.054123 11.55926
85.074181 201.335907
85.082146 22.70472
85.091843 22.535271
85.101112 13.18939
90.187347 19.56337
91.064186 367.282288
91.071297 57.132622
91.082863 46.09951
91.090706 21.923149
91.105553 10.72309
91.11779 13.59191
93.079979 704.0979
93.088188 123.605202
93.098213 89.305313
93.105568 27.02846
93.112839 23.320311
93.122147 15.54876
93.13784 11.00608
94.082748 14.29167
95.059776 344.569885
95.067657 59.238159
95.078781 40.80233
95.095528 1509.822021
95.10379 227.395599
95.114143 151.869705
95.122177 49.80526
95.126572 36.11145
95.131744 16.355709
95.138222 37.030479
95.148109 22.21357
95.154488 26.468491
95.358627 10.08193
97.074837 548.522095
97.083862 113.579697
97.094124 58.854591
97.111626 680.127502
97.119881 102.5065
97.129509 83.149147
97.138252 39.771389
97.145897 19.55689
97.154625 17.31534
97.167496 26.859739
97.350006 10.08062
97.697105 11.4261
99.053497 35.78175
99.090561 16.6875
103.063858 32.625198
105.044044 38.139931
105.079994 726.758118
105.089645 135.131805
105.099846 62.537312
105.109238 34.930698
105.117172 18.73752
105.125298 17.861401
105.141289 13.22174
106.08168 18.730471
107.059433 797.439575
107.069633 106.640503
107.079987 64.238289
107.087639 18.92555
107.095818 976.059082
107.104652 154.859695
107.116386 96.369652
107.124565 56.73457
107.132019 15.50336
107.140572 24.664579
107.150803 14.84406
107.158508 15.41718
108.100883 30.47757
109.075096 459.966003
109.083771 86.551849
109.095169 86.2939
109.111572 2345.610107
109.120598 419.957092
109.132408 206.104202
109.139854 95.701874
109.146545 62.315681
109.157089 55.75428
109.168274 34.32325
109.174683 35.535439
109.184998 10.64615
109.445976 11.49524
109.482391 10.24869
110.107162 10.16016
110.116943 12.51818
111.05265 117.407799
111.063225 12.01205
111.071274 10.52917
111.090889 459.473511
111.100174 35.497601
111.111397 49.13908
111.119148 22.214821
111.127586 41.506908
111.137672 10.91922
111.148026 10.39386
111.155815 14.16944
113.069695 38.46981
113.107231 12.08854
114.056488 12.3788
115.065224 70.92157
116.073463 18.24152
117.080376 370.866608
117.090416 67.98217
117.102119 39.194729
117.112907 21.778749
119.059967 150.985107
119.070099 23.781389
119.079857 34.74855
119.096397 1276.357056
119.105499 140.670898
119.117493 147.403702
119.126534 29.62784
119.133514 40.59285
119.144798 21.1763
119.154526 14.95028
119.162895 18.944401
119.346039 12.81101
121.07531 434.689911
121.08474 78.508591
121.094711 64.05938
121.102852 17.088409
121.11171 897.568176
121.122681 115.615799
121.133751 90.436043
121.141174 28.65811
121.151039 26.93791
121.160408 14.32133
121.168243 11.36384
121.178444 12.27585
122.082718 30.17639
123.054855 74.364861
123.075981 11.77234
123.091156 1122.706055
123.100777 175.246704
123.111961 96.280487
123.120987 37.104221
123.126335 56.087009
123.13578 46.394371
123.149376 15.77168
123.157944 14.90501
123.464851 12.46729
125.033897 10.18481
125.070724 215.065796
125.081566 36.238689
125.091766 22.244089
125.107208 178.336304
125.118851 45.06617
127.064674 14.00313
127.087288 10.38106
128.072159 32.735748
129.080383 344.81781
129.0914 47.78463
129.103256 44.772881
129.111923 17.068029
129.117371 11.825
130.089249 72.427612
130.100143 15.6875
130.112183 10.39792
131.058121 10.53616
131.096466 2835.666016
131.106766 224.214798
131.118393 310.460388
131.128891 119.029404
131.135071 40.759369
131.146423 68.688477
131.158066 41.43681
131.165848 46.769279
131.215027 12.5
131.247452 22.626699
132.102905 22.569389
132.298004 10.48438
133.075882 125.136002
133.086243 13.25446
133.097168 17.091961
133.112228 956.595886
133.123276 199.934601
133.134277 104.287201
133.144592 60.508831
133.162354 23.81193
133.174347 10.76066
133.457047 12.13194
133.479401 13.14299
135.054291 102.424896
135.063065 25.98715
135.07753 11.64375
135.091125 648.919312
135.102036 102.061996
135.113785 55.166649
135.127136 359.96759
135.136307 38.78754
135.149292 50.619659
135.16127 22.836491
136.136459 10.60938
137.070587 116.9571
137.083054 16.44375
137.107132 429.082214
137.11821 81.568581
137.129745 50.412521
137.145233 29.330629
137.178497 10.90026
139.086166 1358.94104
139.097748 181.664902
139.108871 146.496399
139.118973 87.757713
139.126892 44.38839
139.137741 35.514938
139.157104 22.891769
141.064651 20.930799
141.08226 55.736099
141.102768 35.468651
141.112411 20.507999
142.088287 140.168701
142.096802 18.7474
142.103333 22.431841
142.115265 23.566891
143.096481 523.769775
143.106415 93.521378
143.119232 93.048561
143.129105 24.183041
143.137939 19.241301
144.07225 40.359661
144.104782 69.036331
144.113815 18.64975
144.123825 17.725
145.078735 79.900284
145.11232 2175.545898
145.123474 371.628296
145.135559 202.378693
145.146103 74.279198
145.153 48.1208
145.165115 45.99575
145.177048 31.297489
145.184967 26.12323
145.199997 13.66311
145.37265 11.97897
145.617813 11.49092
146.044128 12.41667
146.051056 18.420139
146.084732 23.721121
146.12146 29.32477
146.132812 12.48621
147.053726 22.37747
147.066147 10.20833
147.076981 16.875
147.092056 580.15863
147.10318 73.718933
147.114944 59.670738
147.128281 492.629303
147.140686 78.579376
147.152374 58.301102
147.163345 31.13241
147.181702 13.90562
147.201294 10.42756
148.130264 20.245979
148.14006 10.84736
149.072296 136.755798
149.084259 29.438391
149.107208 1693.232056
149.117538 218.404007
149.129684 149.070404
149.1436 103.047401
149.151825 11.67662
149.161026 36.675751
149.173843 23.924471
149.18129 23.693569
150.111465 56.284889
151.086823 128.713699
151.096893 15.3
151.111374 16.75691
151.122925 119.270302
151.134964 17.561489
151.146179 18.89171
152.07225 18.665319
153.062775 104.5765
153.081268 59.690449
153.087692 13.79844
153.102859 71.040459
153.114182 10.26071
154.089905 15.42188
155.057892 10.75045
155.09671 343.132812
155.107544 90.064819
155.121506 47.1329
155.133453 14.15806
156.104553 106.995903
156.115784 42.145519
156.128418 23.015551
156.142136 11.85015
157.077515 43.534031
157.08873 23.17107
157.112732 1087.916016
157.124435 111.786301
157.135712 117.908203
157.14592 59.282959
157.156677 23.63998
157.167252 19.819201
157.183456 17.49231
158.084808 145.422302
158.097641 22.049999
158.119904 99.899727
158.134842 16.764919
158.147263 16.210421
159.092575 374.659302
159.104721 41.998611
159.115921 25.2118
159.128159 1018.869995
159.139297 174.940399
159.152161 114.693901
159.168472 22.200291
159.181747 18.60405
159.201019 18.775499
159.435272 10.2207
159.702454 10.84003
160.100571 79.721077
160.127426 15.36587
160.133926 45.64542
161.071381 126.018402
161.08194 34.821579
161.107651 831.728821
161.119797 177.994705
161.131805 53.950432
161.143906 191.859207
161.155319 33.39259
161.164658 24.32044
161.176697 20.26063
163.087219 245.319504
163.097733 46.917439
163.109375 10.62262
163.123642 1009.590027
163.13533 207.814697
163.148544 89.47905
163.159012 68.973633
163.169571 38.978859
163.179886 22.666201
163.19696 23.137699
163.322311 13.14154
165.070923 31.955589
165.079453 31.22995
165.102844 528.075684
165.112045 87.191048
165.124954 72.052872
165.142075 30.394079
165.156113 12.93001
165.176102 15.86247
166.088516 24.304239
167.096283 137.638504
167.105286 11.46007
167.114075 44.30761
168.10376 19.32604
168.115677 10.44755
169.077423 27.26388
169.112228 463.720215
169.123917 87.785744
169.137619 33.62001
169.147018 28.994881
169.158524 12.72138
169.16861 11.8689
170.120819 34.507549
171.09201 243.747101
171.102982 34.723228
171.113007 19.648701
171.128525 975.5177
171.140701 145.551605
171.154251 99.194763
171.167313 56.250992
171.185974 17.28256
171.204422 20.23904
171.25769 11.75952
172.09848 65.511253
172.10585 14.20674
172.132965 70.502411
172.145813 24.605419
172.176025 31.43404
172.186157 16.984381
173.059906 20.4608
173.071014 13.27188
173.108078 3534.564941
173.119095 669.871277
173.132675 191.383408
173.144333 1214.16394
173.155609 176.551102
173.167542 166.001099
173.1828 154.946304
173.201447 31.6068
173.214005 14.37801
173.223328 19.7729
173.273834 10.91088
173.304123 22.225071
173.335007 14.88929
173.3461 15.84368
173.360367 10.44479
173.384766 13.63111
173.402466 17.03141
173.427841 13.37325
173.4655 13.25132
173.516083 14.99914
173.60173 11.48438
173.713547 12.96636
174.110733 24.350651
174.119461 13.64458
174.14798 52.415039
174.154404 21.268089
175.086899 265.127899
175.099121 48.892761
175.111603 18.609091
175.123993 820.128174
175.136566 110.211304
175.148361 73.998894
175.160919 140.943405
175.179382 28.678049
175.199631 21.2558
176.121933 10.09549
177.102646 387.109589
177.114273 80.355797
177.127304 45.704288
177.139297 188.761505
177.150726 65.022957
177.165237 21.74436
177.17981 16.87377
178.106064 11.51723
179.080582 20.5861
179.097488 70.542503
179.11731 78.623009
179.129944 13.22135
179.140854 12.21801
179.155777 43.144211
179.166306 10.21839
180.106461 48.742729
180.116928 10.76042
181.113876 216.233307
181.125595 21.32403
181.138977 32.767349
181.153656 10.8151
182.12059 44.519451
183.091858 37.108601
183.128769 280.435303
183.141098 40.362171
183.153717 44.551609
183.16925 21.638691
184.059998 13.65505
184.08699 10.56696
184.100266 38.23103
184.132935 11.3338
185.070358 41.107422
185.108032 676.09613
185.121979 117.339897
185.132767 32.93755
185.144928 629.483215
185.16655 104.516197
185.182281 33.358429
185.190781 23.15382
185.206207 10.94334
185.223663 14.63218
185.3423 10.64928
186.075729 23.40592
186.086182 13.76452
186.115692 48.459572
186.13092 18.02961
186.146103 25.12483
186.153748 32.185169
186.170227 12.13059
186.39122 13.89352
187.086136 49.770481
187.123383 513.992981
187.134827 96.117416
187.148529 38.47567
187.160049 122.779602
187.170609 35.651939
187.184708 19.031561
187.200287 13.66958
187.458191 15.46729
188.095886 38.155102
188.125137 24.329901
189.103256 242.314194
189.115143 42.619678
189.12915 10.25787
189.140091 324.964386
189.152435 72.51651
189.166275 27.33149
189.177521 30.617929
189.1875 15.28556
191.082245 18.487341
191.099625 32.585049
191.118729 3586.731934
191.130051 306.113403
191.145554 335.922913
191.15683 317.512604
191.167679 17.3755
191.179199 77.887306
191.191818 22.30151
191.20137 49.41391
191.215881 17.012711
191.255951 13.5251
191.272675 11.9036
191.404877 19.411461
191.541214 13.95092
191.63269 10.65073
191.691391 11.02507
191.945663 12.7641
192.121429 47.724411
192.133896 12.96168
193.097855 73.146599
193.112823 131.755493
193.133774 208.800201
193.147903 29.705009
193.159149 34.5079
193.172562 11.49658
194.121185 110.490402
194.134842 15.89466
194.149658 13.6612
194.385712 13.25062
195.090576 26.02865
195.129242 499.579712
195.140472 79.361183
195.155991 64.122032
195.166992 26.83568
195.178848 16.925791
196.099396 47.7826
196.112442 15.04256
196.138214 151.599106
196.154617 33.167519
196.167191 21.076811
197.072037 25.743019
197.084885 13.68646
197.108017 185.807999
197.122345 40.914841
197.131622 21.38118
197.144592 624.843323
197.158005 119.569603
197.172684 76.923737
197.184357 31.179501
197.194031 10.49368
197.204742 13.92206
197.224625 16.2013
198.075363 23.968189
198.115143 57.116348
198.128357 18.253469
198.154358 90.501968
198.179474 11.5824
198.194244 10.40074
199.087372 59.82983
199.123642 463.705505
199.136337 127.860703
199.145828 16.51597
199.160507 396.946289
199.173538 98.047791
199.18689 65.193497
199.198456 15.73393
199.208527 18.126011
200.091934 27.034809
200.132355 58.181919
200.143478 19.20089
200.165665 27.807079
201.074356 12.24662
201.102921 648.338806
201.117126 106.253998
201.139389 546.732727
201.15744 177.970795
201.179199 28.70277
201.187683 21.33213
201.202011 15.18459
201.221161 10.349
202.105942 14.8058
202.115097 13.6275
202.151321 15.75956
203.119003 776.370972
203.132568 162.824005
203.154297 247.308807
203.166824 40.751171
203.187241 47.009979
203.206116 11.08026
203.2202 12.24308
204.161377 16.15625
205.097198 22.989519
205.109558 10.25
205.134628 151.9151
205.152313 20.851101
205.167923 16.64694
206.121307 76.396088
206.14328 12.29827
207.123306 214.497406
207.138733 13.82143
207.15065 27.494659
208.137131 115.886002
208.149612 19.130211
208.374374 14.15829
209.109375 58.100239
209.129974 266.964905
209.144608 715.121277
209.157104 145.890305
209.173309 99.305382
209.190384 41.412849
209.208069 15.7474
209.227875 18.47275
209.306519 10.69225
209.361328 10.13688
209.493515 13.64803
210.115646 90.320808
210.128967 14.11935
210.152634 93.018143
210.167145 16.127041
210.185287 11.89531
211.124161 255.767899
211.133987 55.099731
211.148468 11.65938
211.162582 538.253418
211.185837 46.33638
211.199661 38.85096
211.220947 13.16978
211.355148 11.19521
212.130722 33.560661
212.167633 83.469109
212.179001 14.48107
213.10228 63.52528
213.122375 13.55116
213.140228 975.052917
213.152695 83.162399
213.175446 321.685791
213.189056 69.84919
213.203781 49.902512
213.222107 35.180618
213.495087 11.2132
214.108093 21.07976
214.144348 60.4543
214.152145 67.861809
214.167679 32.433201
215.11937 289.280396
215.132812 29.58036
215.155243 401.2565
215.171143 43.61771
215.179092 42.175331
215.192047 71.091766
215.20488 17.65843
215.219727 15.43272
215.239212 11.44757
216.125916 21.41501
217.135666 580.686523
217.149719 48.751911
217.162643 66.536003
217.174179 98.795753
217.193405 36.66806
217.217651 15.39754
218.121414 60.33049
218.140732 28.39777
219.113495 465.852509
219.128021 109.3237
219.136749 22.56953
219.150604 625.941223
219.164551 133.912506
219.17897 65.140823
219.191772 34.525051
219.201859 13.45303
219.214462 15.88839
219.242554 12.09282
219.554749 21.95789
219.825363 14.69149
220.13446 25.518681
221.13063 55.294521
221.144913 261.601196
221.157669 70.485397
221.173752 26.68494
221.1866 10.06319
222.077469 32.298908
222.152527 113.935799
222.167526 13.91908
222.177917 22.92732
223.086456 17.671301
223.12532 162.558594
223.140518 40.928509
223.160309 265.936188
223.177109 26.42411
223.189728 31.59453
223.204941 11.23784
224.101135 17.15774
224.129898 77.365044
224.16069 34.004589
224.172592 28.111509
225.13652 33.13303
225.141464 154.247894
225.153244 43.670139
225.174774 172.5755
225.189224 43.50227
225.206345 26.56366
226.111359 19.17428
226.146759 109.685699
226.165146 10.55729
226.18454 79.050491
227.119751 116.309898
227.133499 36.69894
227.155304 555.639221
227.169937 66.505096
227.190979 323.004089
227.205078 45.65078
227.220169 39.602482
227.234207 18.91177
227.486359 16.61293
227.532898 20.025249
227.546127 16.372379
228.091537 12.75223
228.124863 22.42964
228.140793 13.66516
228.159256 39.79166
228.187973 12.54694
229.134903 185.919205
229.148819 24.668751
229.162079 27.524071
229.173996 141.079498
229.184479 10.49571
229.200699 18.21216
230.136749 12.32445
231.105637 23.460011
231.133179 14.14286
231.150787 281.224091
231.165497 51.815819
231.179916 26.478991
231.188446 50.645519
231.202667 21.651039
231.223175 30.6789
232.139694 53.360149
232.159271 47.568859
232.184097 10.65367
233.132736 238.564896
233.16156 39.739368
233.170715 23.35071
233.182663 10.05813
234.153946 11.04848
235.122574 51.831051
235.147003 73.072853
235.159088 157.832703
235.173843 25.513741
235.192368 16.919109
236.13205 39.232151
236.147522 18.54167
236.1689 158.151596
236.181961 29.379881
236.197311 13.85413
236.211441 14.64147
237.141159 284.319305
237.154114 57.98645
237.177139 359.957886
237.190201 32.908642
237.205338 41.261089
237.21846 15.86156
238.151581 24.945681
238.188736 36.17025
239.116577 15.48276
239.155777 293.349304
239.169403 68.640823
239.189331 46.948792
239.197433 12.80333
239.400101 10.05556
240.161392 55.294689
240.986816 11.17045
241.135254 354.520691
241.148453 90.604401
241.171265 462.470398
241.190094 63.143879
241.208298 293.506409
241.22374 114.193802
241.244003 39.689011
241.263351 16.82213
242.105133 35.484901
242.121445 14.64606
242.144745 90.114983
242.158066 23.53931
242.176819 18.212509
242.211166 20.458389
243.113815 41.01366
243.150726 24.765869
243.163284 10.41644
243.187531 64.087517
243.213715 13.61271
245.094879 12.71263
245.129517 20.1486
245.167038 57.147469
245.201233 47.444729
245.219543 14.21063
246.153717 32.084702
248.173233 36.934719
249.139618 71.797409
249.15712 14.22812
249.175018 66.98513
250.147415 58.07542
250.162521 11.64807
250.182877 28.632469
250.194733 14.00194
251.115784 57.34343
251.141037 447.838898
251.156021 77.79512
251.169724 36.65522
251.191818 459.549896
251.208328 20.8673
251.220612 58.283772
251.237961 22.92028
251.260162 12.39504
252.144135 20.82094
252.195099 36.798279
252.211578 10.94688
253.119873 11.22024
253.138046 26.04509
253.171326 140.476303
253.183899 39.33606
253.208267 46.29213
253.227341 11.69323
254.144012 56.334518
254.180603 62.20285
255.150955 232.508194
255.168106 55.241718
255.18808 211.446899
255.204086 60.325291
255.224625 15.40929
256.160553 42.06636
257.134399 45.123669
257.166931 99.175247
257.180756 35.46806
257.203125 44.748058
258.137329 17.038919
258.175079 33.13438
259.106689 18.85236
259.11673 11.53064
259.146515 145.615906
259.163605 13.54844
259.181152 48.984001
259.196411 12.50268
259.215607 31.02496
259.226868 16.889139
260.625854 18.61466
261.125 31.976721
261.179535 166.899704
261.202362 14.53341
261.213501 14.65848
263.138458 12.74006
264.124268 25.900089
264.140839 10.50893
264.164093 204.397903
264.176575 66.173393
264.195435 21.32477
264.210419 14.94193
265.13031 36.080639
265.172821 19.66667
265.207245 14.73857
267.187561 43.93494
268.155334 12.05952
268.195984 20.21962
269.203064 840.358276
269.214325 134.813202
269.234222 93.148438
269.251404 52.612099
269.279083 17.247351
269.3013 10.15849
269.475586 11.41875
270.211273 31.211189
271.143341 45.488621
271.161377 12.6994
271.180603 52.70137
271.194763 20.704321
271.215668 25.473289
273.124695 10.81971
273.163147 71.249222
273.195374 14.61615
274.131104 17.832199
274.161346 13.66875
277.155609 15.26184
279.187622 625.185303
279.203613 85.925438
279.216858 61.612068
279.233154 25.581249
279.242859 14.12377
279.260284 11.27588
280.160614 12.11579
280.192169 24.180161
281.166382 18.091249
281.198883 20.60195
281.214661 26.56304
282.172913 56.27496
282.187286 19.53281
283.184784 22.495899
285.159149 13.88095
285.198395 50.535702
286.135376 12.35312
287.214661 420.734009
287.232086 54.08585
287.246796 31.426149
287.264709 26.500191
289.228577 13.64569
291.169983 15.75284
291.186279 197.849396
291.204712 25.77836
291.218597 17.9196
291.23053 14.18728
293.202057 18.20549
293.213409 11.33139
297.078491 10.37592
297.198395 1251.482056
297.214661 210.551895
297.233368 101.715202
297.252686 62.887211
297.27356 21.81673
297.291168 12.30231
297.301147 11.15088
298.130035 29.259121
298.203522 60.114471
298.235229 14.42672
299.13681 10.90433
299.213501 23.52054
309.197266 13.28225
311.216797 13.27097
315.208923 1281.501953
315.223572 247.0755
315.243713 129.0383
315.258209 61.44442
315.271179 11.95399
315.284302 25.16885
315.302185 12.1481
315.316071 14.96457
315.570221 13.41998
315.807983 11.61422
315.984528 17.076679
316.181671 18.10342
316.212341 46.438789
316.225372 24.472269
317.144196 10.18599
319.130951 24.16897
319.18042 1025.983032
319.196991 181.400604
319.21344 93.555817
319.228699 53.60088
319.262207 19.231409
320.189087 18.540621
321.198547 169.246597
321.231689 26.62402
325.15152 11.26781
329.224854 91.526917
329.237122 23.665251
329.258392 20.75721
330.197266 10.87684
331.127716 22.04504
331.169373 20.16341
333.219391 17.912069
335.250824 11.64063
337.194366 307.266205
337.230591 32.136349
339.212921 51.013859
339.226959 16.796989
343.166199 16.522671
345.127533 12.78409
350.942383 12.04593
351.20575 207.089294
351.225067 42.393711
351.24881 28.495279
357.218384 91.680519
361.189911 21.27528
367.241089 31.70331
375.230835 187.282196
375.247314 48.375511
375.267456 15.74256
379.203125 1867.322998
379.238922 299.441315
379.256622 127.481697
379.27887 31.54755
379.311768 33.61055
379.336212 14.94208
379.474304 13.18378
379.503876 19.603979
379.533112 17.30562
379.724518 12.41183
379.915833 15.13715
380.20401 85.622299
380.223969 60.21471
380.253387 24.822069
381.216766 179.184296
381.23468 73.233551
381.259735 38.502289
397.211975 411.273407
397.22934 57.69862
397.247131 57.261211
397.266754 29.51119
404.156677 10.125
407.233337 772.5177
407.265808 154.545898
407.292267 45.42086
407.325134 12.84396
407.348694 10.94942
408.929352 10.86189
409.213409 13.01125
411.231232 79.703178
417.241272 65.107193
417.264801 16.876011
423.263824 48.60014
425.243988 47.662739
439.22226 1501.012939
439.25177 555.605225
439.274811 53.129829
439.290283 54.272129
439.320862 21.33712
439.34314 17.59827
439.405396 14.50116
439.523224 13.38864
439.678955 12.08724
439.753326 10.02729
439.786713 10.13986
439.839874 21.395281
439.967438 10.44926
440.206055 12.54077
440.231659 18.39673
440.264587 11.16809
440.606354 13.11506
441.125031 13.65312
441.236053 31.417801
455.215271 11.25054
457.236237 51.798779
465.561829 12.01406
467.253906 1946.338013
467.287567 316.042389
467.325592 114.910797
467.378387 29.239281
467.635254 10.2471
467.706879 23.65143
467.798645 18.045931
467.825378 36.23613
467.846741 15.41971
467.917725 12.80445
468.015839 12.43795
468.076385 10.9252
468.192474 17.42115
468.25589 158.410095
468.270813 32.909988
468.294922 14.75895
468.324585 15.2873
468.611938 10.38518
471.246185 11.14801
485.266846 23.871639
487.289856 10.38278
493.670715 16.6
499.243805 357.095093
499.26355 54.969761
499.283539 48.274818
499.306549 22.90484
500.247009 19.756701
501.259613 28.721769
527.206604 10.40057
527.248962 18.30254
527.274963 2119.695068
527.304321 412.612091
527.346863 45.380421
527.370972 37.102501
527.409607 27.282749
527.840454 20.923981
527.899353 10.28446
527.920288 12.6685
528.0578 17.24185
528.167908 12.71246
528.277771 53.312618
528.306458 24.332689
528.327515 11.39686
530.531433 10.50174
587.235962 18.980471
587.295776 1796.89502
587.340393 206.725296
587.365845 36.091751
587.399841 21.639759
587.428711 14.451
587.445679 11.6854
587.555786 15.00468
587.61969 10.81607
587.713623 19.38349
587.869812 17.571341
587.971191 13.1567
588.10675 13.80635
588.146973 12.83239
588.231812 10.20426
588.268799 15.14096
588.300293 53.752102
678.976746 11.75
END IONS
