BEGIN IONS
PEPMASS=889.421
CHARGE=2
MSLEVEL=2
SOURCE_INSTRUMENT=LC-ESI-qTof
FILENAME=f.philipwi/0_WilliamsFreshwaterCyanosStandardsConvertedTo_mzXML_v2/PW-2_P1-A-2__Microviridin_M_1776amu_01_15524_Scan469-560.mzXML;
SEQ=*..*
IONMODE=Positive
ORGANISM=GNPS-LIBRARY
NAME=Microviridin M M+2H
PI=Philip Williams
DATACOLLECTOR=Williams
SMILES=O=C(CCC(NC(C(NC(C(NC(C(NC(C(NC(C1CCCN12)=O)CO3)=O)CC(OC(C(NC(C(NC(C4CCCN4C(C5N(C(C(NC(C)=O)C)=O)CCC5)=O)=O)C)=O)C(NC(C(N6)=O)CC(C)C)=O)C)=O)=O)CC7=CNC8=C7C=CC=C8)=O)CCC3=O)=O)C(NC(C(O)=O)CC9=CC=C(O)C=C9)=O)NCCCCC6C(NC(CC%10=CNC%11=C%10C=CC=C%11)C2=O)=O
INCHI=
INCHIAUX=
PUBMED=
SUBMITUSER=philipwi
TAGS=
LIBRARYQUALITY=3
SPECTRUMID=CCMSLIB00000425008
SCANS=470
140.921005 116.0
149.858597 32.0
159.099014 228.0
159.465164 40.0
168.111618 104.0
169.146301 88.0
170.069626 196.0
170.80838 88.0
177.444595 72.0
182.549973 44.0
185.073441 136.0
186.124207 52.0
195.11792 88.0
196.093277 152.0
197.072754 92.0
198.094193 152.0
198.992371 44.0
199.091293 84.0
202.093307 76.0
202.605392 76.0
203.077484 88.0
205.062561 92.0
207.075653 112.0
208.150253 84.0
209.098572 108.0
211.126389 372.0
212.077133 128.0
212.13533 104.0
212.355698 32.0
219.164841 64.0
220.106766 92.0
220.854904 44.0
221.1297 84.0
222.130341 184.0
223.125977 188.0
224.154282 104.0
224.966217 44.0
225.098724 112.0
226.277969 36.0
226.546524 48.0
227.122559 100.0
228.132355 156.0
234.101685 100.0
235.177139 120.0
236.066147 104.0
237.066177 48.0
238.153824 220.0
239.120697 132.0
240.167862 244.0
241.090271 84.0
242.078217 88.0
242.177414 44.0
244.117722 96.0
245.072693 96.0
247.072037 80.0
247.109451 76.0
247.149368 132.0
247.965103 32.0
248.115692 96.0
248.879364 108.0
250.854294 36.0
251.103256 68.0
251.864899 44.0
252.138123 1240.0
252.847137 32.0
253.139023 192.0
254.146225 88.0
256.159576 136.0
256.938263 32.0
257.152863 172.0
257.439148 32.0
258.288757 48.0
259.104156 136.0
260.002441 28.0
262.888367 44.0
263.167511 52.0
264.095428 204.0
264.212952 64.0
265.115173 92.0
265.239746 64.0
266.148407 484.0
267.580719 80.0
267.987518 32.0
268.158691 60.0
268.540863 60.0
270.152222 304.0
271.149414 136.0
273.125122 132.0
274.110016 76.0
275.172668 84.0
276.125183 56.0
276.64444 84.0
276.962616 76.0
277.132355 88.0
277.249115 28.0
278.142426 84.0
279.205505 100.0
280.124878 124.0
281.194824 92.0
282.104584 540.0
282.978088 32.0
283.120819 84.0
284.112457 116.0
285.152008 92.0
287.261932 80.0
288.13385 200.0
289.134064 120.0
292.133362 80.0
293.114868 272.0
293.485931 48.0
294.163391 68.0
295.18103 124.0
295.279602 28.0
296.115784 124.0
298.134399 92.0
299.10376 72.0
300.121704 224.0
300.814972 92.0
302.109924 120.0
303.1745 92.0
304.163116 60.0
306.055969 44.0
306.152161 120.0
306.524536 28.0
307.67511 32.0
308.190369 228.0
309.192505 184.0
310.192474 228.0
311.139801 52.0
312.161163 84.0
312.69342 36.0
313.155731 48.0
316.134369 92.0
317.134369 92.0
317.661407 136.0
318.138763 76.0
318.536835 52.0
319.037628 48.0
319.137573 196.0
320.170715 84.0
320.496674 48.0
321.159637 112.0
322.167511 124.0
323.17923 76.0
324.130157 80.0
325.123627 132.0
325.215576 76.0
327.115112 160.0
327.795685 84.0
328.188202 52.0
329.228333 36.0
330.652527 148.0
332.707336 28.0
333.169281 56.0
335.136108 168.0
336.192963 96.0
336.742523 108.0
337.215607 600.0
337.81955 32.0
337.924988 44.0
338.224182 76.0
338.687103 32.0
339.150879 100.0
339.908234 112.0
345.13446 76.0
346.165527 60.0
346.651947 96.0
347.209991 148.0
347.538727 36.0
347.685272 40.0
348.208466 68.0
348.446411 48.0
349.010254 76.0
349.187286 3040.0
349.422821 36.0
349.863831 40.0
350.191711 216.0
350.351135 28.0
351.182343 108.0
352.025269 36.0
353.195648 752.0
353.509857 40.0
354.193481 156.0
355.178711 140.0
355.273895 32.0
355.706543 32.0
355.869354 28.0
356.560669 28.0
357.54837 28.0
358.201935 120.0
359.624573 32.0
359.890564 28.0
360.156647 32.0
360.955505 40.0
361.148499 136.0
361.391632 48.0
363.188232 124.0
364.013885 44.0
364.176056 104.0
365.214996 388.0
366.18573 140.0
367.196686 120.0
367.891663 40.0
368.197998 80.0
368.42981 52.0
369.213318 36.0
370.132538 80.0
372.219147 84.0
372.687775 88.0
374.170074 80.0
375.194427 96.0
376.178528 104.0
377.168243 100.0
377.341583 120.0
377.737946 48.0
378.179138 60.0
379.238495 44.0
379.722809 36.0
380.137482 96.0
380.39386 40.0
380.630127 84.0
381.188934 312.0
381.8125 40.0
382.268036 140.0
383.153687 200.0
384.174072 108.0
384.532684 44.0
385.202454 200.0
386.140472 100.0
386.409973 128.0
387.199799 92.0
387.626404 88.0
388.172729 140.0
389.196777 92.0
390.16568 40.0
391.226257 212.0
392.018799 56.0
392.164764 64.0
393.172363 108.0
394.040802 28.0
394.192657 68.0
394.686401 100.0
395.195435 88.0
396.270996 52.0
396.47403 32.0
396.981903 36.0
397.134338 72.0
399.016632 32.0
399.127563 120.0
400.231903 76.0
402.142395 56.0
403.84436 32.0
404.149841 120.0
405.147034 68.0
405.460022 32.0
405.691101 132.0
405.960785 32.0
406.195648 56.0
407.104675 84.0
407.213989 72.0
408.250153 132.0
408.713959 116.0
409.206207 72.0
410.14212 72.0
411.179108 140.0
411.299561 88.0
411.379944 60.0
412.149139 36.0
412.731689 76.0
413.664642 96.0
414.222321 88.0
415.092865 124.0
415.715637 92.0
416.231262 116.0
416.71701 56.0
417.06842 32.0
417.198608 76.0
418.214813 32.0
419.194153 96.0
420.180267 104.0
420.603821 32.0
420.721466 80.0
421.170807 108.0
421.663422 36.0
422.166077 92.0
424.214417 108.0
424.469269 40.0
425.678375 100.0
426.200592 92.0
426.296722 84.0
426.915527 36.0
427.182953 80.0
428.182495 172.0
429.203461 92.0
430.227844 76.0
430.426208 32.0
431.146118 148.0
431.265778 132.0
432.147156 64.0
432.232788 56.0
433.213531 120.0
433.951233 36.0
434.268585 404.0
434.416138 48.0
434.721771 116.0
435.255341 60.0
435.692535 96.0
436.17926 204.0
436.715027 172.0
437.167389 48.0
437.317352 28.0
437.864075 36.0
439.212311 224.0
440.179932 292.0
441.231903 32.0
441.86145 28.0
442.2099 136.0
442.719421 28.0
442.987732 52.0
443.175568 84.0
443.323212 128.0
444.2901 136.0
445.171234 68.0
447.898315 40.0
448.19516 84.0
449.176361 96.0
450.223785 52.0
451.154633 96.0
452.11731 28.0
452.28363 120.0
453.292542 96.0
454.204803 144.0
455.250153 132.0
455.525818 28.0
455.737946 236.0
456.996368 52.0
457.214417 104.0
458.20401 112.0
459.214844 152.0
459.694611 112.0
460.2146 80.0
460.518921 28.0
460.710449 40.0
461.235443 144.0
461.999481 28.0
462.267548 1124.0
463.243164 344.0
463.731384 96.0
464.204346 160.0
464.246765 228.0
465.242859 100.0
465.786835 32.0
466.130829 28.0
466.3125 92.0
467.235992 256.0
467.811371 88.0
468.17511 64.0
469.241425 528.0
469.735413 100.0
470.130524 32.0
470.26416 120.0
471.749054 108.0
472.253357 180.0
473.209442 60.0
473.370331 36.0
473.717133 120.0
474.175079 36.0
475.244507 84.0
476.245605 96.0
476.342987 108.0
477.254089 96.0
477.744568 216.0
478.233032 248.0
478.744385 124.0
478.906311 28.0
479.285767 160.0
479.576172 48.0
480.168762 192.0
480.283844 192.0
481.306305 96.0
481.708527 72.0
482.302155 68.0
483.016388 32.0
483.251465 112.0
483.60498 32.0
485.24649 104.0
485.752136 92.0
486.187775 308.0
486.755554 152.0
487.244324 92.0
488.242065 36.0
489.24118 120.0
489.67981 48.0
490.07486 32.0
490.258331 136.0
490.371246 116.0
491.260956 44.0
491.882812 28.0
493.24826 116.0
493.750763 172.0
494.251892 140.0
495.177216 76.0
495.27478 100.0
496.232666 44.0
496.7724 40.0
497.228943 64.0
497.744354 160.0
498.305908 84.0
498.735016 108.0
498.834686 36.0
499.221283 108.0
499.475555 48.0
499.632294 32.0
499.770325 212.0
500.155396 124.0
500.273682 96.0
500.844147 28.0
501.036743 40.0
501.213287 92.0
501.643341 32.0
501.859589 28.0
502.235077 148.0
502.757599 108.0
503.257996 32.0
503.744324 144.0
504.220123 96.0
504.402649 100.0
504.502869 28.0
505.250977 140.0
505.764923 88.0
506.2146 80.0
506.738953 144.0
507.198242 80.0
507.485382 68.0
507.748108 212.0
508.215881 140.0
509.219696 72.0
510.218781 88.0
510.808014 132.0
511.153839 100.0
511.302246 176.0
511.932373 28.0
512.285828 104.0
513.274597 100.0
513.749084 176.0
514.261536 248.0
514.488403 84.0
514.759949 36.0
515.243225 108.0
515.744507 284.0
516.286377 236.0
516.710266 40.0
517.216003 176.0
518.051453 44.0
518.196594 48.0
518.298157 88.0
518.729187 92.0
519.299988 76.0
519.764954 136.0
520.15741 68.0
520.268616 208.0
520.782715 108.0
521.264038 128.0
521.728699 128.0
522.284607 72.0
523.195496 36.0
523.296631 60.0
524.261963 428.0
524.760803 104.0
525.243164 132.0
525.765869 120.0
526.257019 276.0
527.203125 72.0
527.58374 56.0
527.744812 96.0
527.952576 128.0
528.16748 56.0
528.280212 244.0
528.741089 100.0
529.254211 44.0
529.747131 140.0
530.046448 140.0
530.248291 268.0
530.369324 60.0
531.260803 172.0
532.273621 84.0
532.55896 52.0
532.770203 112.0
533.252686 164.0
534.242981 52.0
534.767883 220.0
535.201965 88.0
535.933044 52.0
536.247986 148.0
536.804077 84.0
537.243225 184.0
537.912354 36.0
538.259338 180.0
538.385559 132.0
539.333252 84.0
539.773132 160.0
540.287292 232.0
541.227905 132.0
542.260986 88.0
542.769043 228.0
543.288147 412.0
543.649109 28.0
543.792114 212.0
543.976135 28.0
544.257996 92.0
545.261536 148.0
545.508606 52.0
545.746826 112.0
546.259338 68.0
546.744995 96.0
547.23938 76.0
547.520386 36.0
548.271423 336.0
548.774963 284.0
549.291687 308.0
549.520935 28.0
549.769836 140.0
549.939392 36.0
550.283264 100.0
551.231567 72.0
551.779663 64.0
552.216492 180.0
552.79834 100.0
553.260803 80.0
553.787964 92.0
554.277649 148.0
554.778442 84.0
555.259033 100.0
556.266724 156.0
556.761658 76.0
557.287048 312.0
557.589722 36.0
557.782166 584.0
558.286987 104.0
558.759033 124.0
558.930176 40.0
559.312561 108.0
559.638733 44.0
559.781067 100.0
560.323792 132.0
560.775208 164.0
561.259827 164.0
561.751892 44.0
562.282959 584.0
562.418091 48.0
562.782349 392.0
563.006592 32.0
563.279358 188.0
563.430176 52.0
563.78772 76.0
564.261108 128.0
564.398987 84.0
564.783813 116.0
565.254761 188.0
566.283569 176.0
567.288574 64.0
567.447021 168.0
567.777222 116.0
568.287598 256.0
568.647278 28.0
568.784119 152.0
569.235107 236.0
569.787903 124.0
570.242432 264.0
570.564209 40.0
570.784363 192.0
571.021118 48.0
571.291443 272.0
571.478149 32.0
571.762329 56.0
572.27832 180.0
572.807678 112.0
573.308289 92.0
573.812073 64.0
573.934265 32.0
574.322449 48.0
574.643188 40.0
574.759216 152.0
575.322205 48.0
575.783569 172.0
576.299683 372.0
576.786255 228.0
577.294128 164.0
577.589905 32.0
577.779236 56.0
578.312988 132.0
578.778381 328.0
579.265991 92.0
579.811523 112.0
580.268127 248.0
581.272583 80.0
581.795227 168.0
582.232727 116.0
583.041321 28.0
583.226013 60.0
583.595581 28.0
583.795776 104.0
584.08844 76.0
584.427429 44.0
584.812744 88.0
585.30011 164.0
585.522095 100.0
585.784302 148.0
586.29126 100.0
586.786987 72.0
586.926575 40.0
587.308838 148.0
587.922668 40.0
588.27832 108.0
589.291809 60.0
590.29071 452.0
590.78595 356.0
591.303467 324.0
591.816833 100.0
592.274658 108.0
592.468323 56.0
592.797485 168.0
593.275391 76.0
593.648132 40.0
593.794861 240.0
594.036438 32.0
594.294922 136.0
594.813538 72.0
595.233398 64.0
595.357788 124.0
595.591125 168.0
595.816895 92.0
596.288025 288.0
597.23822 652.0
597.817871 76.0
598.233704 188.0
598.805786 792.0
599.112183 52.0
599.299194 520.0
599.812256 252.0
600.217773 160.0
600.777466 116.0
601.287292 72.0
601.814514 124.0
602.299377 64.0
602.784424 64.0
603.316711 28.0
603.789917 128.0
604.311096 272.0
604.679626 32.0
604.796509 232.0
605.00885 60.0
605.291138 52.0
605.796753 136.0
606.275208 112.0
606.790283 200.0
607.190247 40.0
607.312317 344.0
607.818726 212.0
608.070251 36.0
608.361084 248.0
608.840698 68.0
609.07666 40.0
609.269409 160.0
610.294861 152.0
610.813171 168.0
611.107788 32.0
611.321533 108.0
611.659424 88.0
612.229919 92.0
612.338318 172.0
612.4953 40.0
612.802185 908.0
613.017761 72.0
613.314209 532.0
613.797363 120.0
613.979126 36.0
614.259521 436.0
614.525024 44.0
614.6427 48.0
614.804443 240.0
614.958862 40.0
615.271729 128.0
615.448975 68.0
615.812744 92.0
616.081726 40.0
616.366516 112.0
617.304993 144.0
617.800964 180.0
618.083252 40.0
618.29248 60.0
618.473206 28.0
618.604858 92.0
619.279968 96.0
619.818481 108.0
620.297607 104.0
620.434875 56.0
620.678711 52.0
620.813354 144.0
620.935974 40.0
621.32135 644.0
621.584229 36.0
621.817017 924.0
621.962097 52.0
622.311768 356.0
622.547119 36.0
622.820068 104.0
623.339294 80.0
623.53064 32.0
624.028198 64.0
624.265747 120.0
624.830627 108.0
625.46814 28.0
625.615234 52.0
625.771057 100.0
626.297424 80.0
626.667908 36.0
626.806519 832.0
627.306396 752.0
627.571106 40.0
627.809021 496.0
628.053467 40.0
628.354431 64.0
628.660645 52.0
628.830505 32.0
629.044312 28.0
629.250549 80.0
629.378357 72.0
629.811951 164.0
630.295349 88.0
631.310791 280.0
631.637024 28.0
632.31311 192.0
632.78302 92.0
633.079712 56.0
633.286682 220.0
633.464661 80.0
633.689331 84.0
633.813965 52.0
634.27655 212.0
634.957642 44.0
635.314453 1768.0
635.820251 1340.0
636.31427 472.0
636.809326 260.0
637.32489 96.0
637.787842 160.0
638.342224 168.0
638.809631 144.0
639.31366 80.0
639.557922 32.0
639.821289 120.0
640.011414 32.0
640.177246 112.0
640.335388 120.0
640.575928 28.0
640.824585 92.0
641.327576 708.0
641.807251 364.0
642.025452 116.0
642.330688 388.0
642.603577 44.0
642.797668 136.0
643.331665 184.0
643.515625 52.0
643.816284 164.0
644.30603 80.0
644.793762 192.0
645.307617 76.0
645.570984 36.0
645.807861 64.0
646.340332 432.0
646.845459 92.0
647.322205 308.0
647.815735 280.0
648.018921 36.0
648.164978 40.0
648.290894 168.0
648.700684 28.0
648.820251 276.0
649.306824 584.0
649.463989 92.0
649.826721 712.0
650.097656 52.0
650.32959 580.0
650.82251 392.0
651.341614 340.0
651.789124 108.0
652.0495 32.0
652.262451 152.0
652.814819 88.0
653.254639 64.0
654.25885 124.0
654.798828 84.0
655.031738 48.0
655.317566 324.0
655.825562 88.0
656.013977 44.0
656.348572 448.0
656.827576 28.0
657.088989 36.0
657.350891 180.0
657.824524 296.0
658.333984 368.0
658.625854 52.0
658.822205 204.0
659.018555 44.0
659.330505 124.0
660.066284 96.0
660.344727 100.0
660.819885 200.0
660.963684 36.0
661.316101 608.0
661.475525 40.0
661.813965 328.0
662.120483 36.0
662.33374 88.0
663.099609 36.0
663.299744 172.0
663.803223 104.0
664.305176 204.0
664.479126 52.0
664.848755 192.0
665.842163 388.0
666.351196 52.0
666.649963 76.0
666.822998 180.0
666.987366 40.0
667.127319 36.0
668.2948 64.0
668.8078 80.0
669.328735 376.0
669.819885 324.0
670.344604 216.0
670.473877 32.0
670.655457 108.0
670.853516 216.0
671.310303 92.0
671.47113 40.0
671.839722 120.0
672.302185 168.0
672.472534 28.0
672.604797 28.0
672.833801 312.0
673.347168 204.0
673.841003 296.0
674.156616 148.0
674.380554 176.0
674.828857 96.0
675.337158 216.0
675.82428 128.0
676.346497 280.0
676.578369 156.0
676.777344 28.0
677.026123 36.0
677.278687 128.0
677.424255 36.0
677.856689 296.0
678.320312 224.0
678.837708 160.0
679.338867 204.0
679.699158 44.0
679.825378 256.0
680.328735 276.0
680.927734 36.0
681.255188 160.0
681.811462 32.0
681.94458 36.0
682.330444 68.0
682.910461 104.0
683.193665 128.0
683.330994 956.0
683.510254 28.0
683.837036 704.0
684.330383 372.0
684.610657 44.0
684.826721 212.0
685.103149 92.0
685.331604 192.0
685.825806 92.0
686.129272 68.0
686.311951 216.0
686.822266 220.0
687.350647 96.0
687.84314 60.0
688.333862 108.0
688.519104 44.0
688.831665 60.0
689.020996 44.0
689.338928 124.0
690.306519 136.0
690.628296 40.0
691.013611 84.0
691.33844 112.0
691.566711 52.0
691.844727 1464.0
692.082764 36.0
692.351929 1000.0
692.600159 32.0
692.856201 560.0
693.039612 44.0
693.189514 32.0
693.329224 128.0
693.479065 40.0
693.842834 108.0
694.100342 36.0
694.312073 184.0
694.688232 28.0
695.320312 268.0
695.461304 32.0
696.294739 64.0
696.53949 36.0
696.803467 80.0
697.330994 272.0
697.842224 532.0
698.069397 84.0
698.310669 148.0
698.541077 48.0
698.8526 80.0
699.315002 104.0
699.990723 36.0
700.37738 204.0
700.862427 108.0
701.322021 80.0
701.354675 72.0
701.864075 32.0
701.999146 28.0
702.184937 40.0
702.465698 84.0
702.935547 80.0
703.080505 36.0
703.28894 36.0
703.722961 40.0
703.871582 112.0
704.044312 48.0
704.273193 36.0
704.43335 88.0
704.909302 32.0
705.339661 180.0
705.84491 3936.0
706.344849 1564.0
706.689148 36.0
706.855957 1212.0
707.096741 44.0
707.348389 628.0
707.71344 68.0
707.848633 256.0
708.020447 80.0
708.348999 200.0
708.873047 80.0
709.298462 64.0
709.869141 84.0
710.307373 164.0
710.621399 52.0
710.847046 124.0
711.325928 120.0
711.574158 32.0
711.838196 92.0
712.143311 60.0
712.348999 36.0
712.579651 36.0
712.825562 100.0
713.366577 164.0
713.70697 72.0
714.357727 1964.0
714.634827 20.0
714.861633 2648.0
715.078918 28.0
715.359131 1396.0
715.865723 212.0
716.384277 132.0
716.839966 216.0
716.974731 28.0
717.323853 264.0
717.572266 28.0
717.849365 88.0
718.033386 40.0
718.37207 92.0
718.835449 64.0
719.092834 28.0
719.346802 116.0
719.848389 1792.0
720.153076 32.0
720.349182 1428.0
720.632141 28.0
720.848267 1520.0
721.117737 32.0
721.358521 504.0
721.527405 40.0
721.859985 72.0
722.341858 280.0
722.995544 100.0
723.295532 40.0
723.698486 44.0
724.353638 96.0
724.590454 36.0
724.847839 48.0
725.031494 40.0
725.186584 64.0
725.382202 76.0
725.647522 48.0
725.855225 452.0
726.13562 36.0
726.303772 168.0
726.472168 88.0
726.668213 36.0
726.857239 284.0
727.029114 40.0
727.268005 40.0
727.389038 64.0
727.735046 64.0
727.923157 32.0
728.16394 56.0
728.35376 4524.0
728.634949 32.0
728.861572 2984.0
729.361206 1560.0
729.597778 36.0
729.864258 808.0
730.358521 656.0
730.588196 152.0
730.853333 200.0
731.041321 36.0
731.332458 52.0
731.470398 44.0
731.866943 72.0
732.065308 40.0
732.384399 88.0
733.314392 72.0
733.557922 48.0
733.859619 136.0
734.093262 52.0
734.349121 148.0
734.879333 32.0
735.078064 32.0
735.395203 104.0
735.786804 40.0
736.253784 56.0
736.530518 36.0
737.349609 196.0
737.534241 32.0
737.86676 264.0
738.272461 92.0
738.590637 44.0
738.843445 136.0
739.075806 40.0
739.318481 168.0
739.470398 72.0
739.85199 876.0
740.34259 736.0
740.869812 140.0
741.226257 64.0
741.356995 212.0
741.857361 124.0
742.357361 864.0
742.63269 28.0
742.862427 708.0
743.136536 96.0
743.359741 460.0
743.853333 64.0
744.398743 60.0
744.875305 136.0
745.382385 180.0
746.126648 112.0
746.430969 140.0
747.361694 176.0
747.870728 196.0
748.347534 104.0
748.568176 60.0
748.820496 112.0
749.322327 52.0
749.894287 96.0
750.363037 80.0
750.907043 44.0
751.353149 60.0
751.82489 76.0
752.322632 104.0
752.74231 68.0
752.952209 48.0
753.862061 92.0
754.373779 68.0
755.311462 228.0
755.590759 28.0
755.823608 28.0
756.335388 220.0
756.59491 64.0
756.875427 72.0
757.331482 36.0
758.283447 48.0
758.577515 56.0
759.315125 76.0
759.684021 52.0
760.386963 160.0
760.756165 44.0
761.369568 68.0
761.670715 60.0
761.899414 72.0
762.110596 36.0
762.350342 240.0
762.871582 96.0
763.360229 220.0
763.69519 32.0
763.871399 40.0
764.400024 64.0
765.381897 100.0
765.841736 136.0
766.416565 104.0
767.289917 88.0
767.824585 112.0
768.413513 68.0
768.9375 108.0
769.342773 96.0
769.484192 44.0
770.014771 32.0
770.340698 200.0
770.871155 100.0
771.324341 60.0
772.209778 48.0
772.435486 92.0
773.131165 32.0
773.374084 156.0
774.340637 108.0
774.478821 156.0
774.833679 36.0
775.387695 92.0
775.88092 96.0
776.361084 176.0
776.852966 180.0
777.389404 124.0
777.853088 48.0
778.354553 172.0
778.848999 64.0
778.973572 72.0
779.25824 120.0
779.382812 68.0
780.397522 60.0
782.874756 96.0
783.316956 136.0
783.731079 40.0
784.385254 80.0
784.837891 88.0
785.387695 84.0
786.404236 60.0
787.125427 56.0
787.393738 180.0
787.912537 88.0
788.352234 216.0
789.362549 56.0
790.411865 120.0
790.688416 52.0
790.813904 44.0
791.360168 68.0
791.602844 32.0
792.343018 168.0
793.367249 84.0
793.824463 36.0
794.371033 76.0
794.546936 32.0
794.816467 128.0
795.409668 120.0
795.863525 164.0
796.387817 212.0
796.887634 156.0
797.371887 320.0
797.676514 28.0
797.892578 124.0
798.378845 160.0
799.495911 92.0
800.336792 124.0
800.866394 32.0
801.197449 44.0
801.372009 192.0
801.84082 64.0
802.324463 76.0
802.870056 140.0
803.24939 108.0
803.382935 124.0
803.610779 40.0
804.390808 76.0
804.906433 340.0
805.389832 352.0
805.898865 60.0
806.352173 76.0
807.301392 52.0
808.352234 52.0
808.932312 92.0
809.38562 60.0
809.603271 32.0
809.90863 272.0
810.169556 36.0
810.375427 384.0
810.882629 256.0
811.38739 244.0
811.908386 112.0
812.424561 144.0
812.616943 88.0
813.371216 80.0
814.439819 224.0
814.908142 40.0
815.333435 76.0
815.617981 32.0
816.036743 40.0
816.47644 80.0
817.466431 84.0
817.73114 44.0
818.422852 68.0
818.893066 836.0
819.153625 32.0
819.397522 860.0
819.599548 36.0
819.898499 372.0
820.382446 276.0
820.899292 132.0
821.379517 64.0
821.709839 32.0
822.404358 100.0
823.044312 28.0
823.397217 96.0
823.896179 132.0
824.375427 336.0
824.883667 260.0
825.093811 32.0
825.40509 56.0
825.643188 172.0
825.936279 84.0
826.486023 128.0
827.164185 28.0
827.439209 52.0
827.842651 52.0
828.375916 76.0
829.07196 56.0
829.200439 36.0
829.457458 84.0
829.753967 132.0
830.433533 84.0
830.577759 180.0
831.092224 28.0
831.423767 64.0
831.625244 52.0
831.882629 76.0
832.473206 124.0
832.895142 804.0
833.39093 908.0
833.890137 580.0
834.405945 204.0
834.605957 40.0
834.900635 160.0
835.379578 32.0
835.895508 120.0
836.381531 104.0
837.149231 36.0
837.379639 88.0
839.400879 32.0
840.40863 180.0
840.546326 44.0
841.396667 64.0
841.615295 68.0
842.460083 96.0
843.466003 180.0
843.987366 36.0
844.392944 120.0
844.691223 28.0
844.857971 104.0
845.361389 72.0
846.248169 160.0
846.396545 96.0
847.732361 40.0
848.340149 168.0
849.013489 64.0
849.360901 104.0
849.471619 64.0
850.425659 48.0
851.392639 36.0
852.397339 80.0
852.899902 76.0
854.456116 72.0
855.41394 44.0
857.299072 28.0
857.467041 72.0
857.933777 84.0
858.410217 68.0
860.082275 48.0
860.429626 108.0
861.416565 84.0
863.394043 88.0
864.40448 44.0
865.389282 124.0
866.356445 92.0
867.06958 104.0
867.318298 96.0
868.456238 76.0
869.422302 180.0
870.470398 44.0
871.386719 204.0
872.386414 132.0
873.381348 68.0
875.404846 52.0
876.35553 64.0
877.326599 40.0
878.085083 32.0
878.459656 92.0
879.483459 68.0
880.37738 44.0
881.39856 80.0
882.444519 72.0
883.397644 88.0
884.424438 28.0
886.378174 68.0
886.928589 80.0
887.49231 96.0
887.707153 32.0
888.470703 68.0
888.809021 116.0
889.353271 268.0
890.321289 84.0
891.446228 88.0
891.966553 56.0
892.309265 64.0
892.450439 68.0
893.071106 80.0
894.157288 56.0
894.481384 56.0
896.503418 40.0
897.095154 28.0
898.489502 44.0
899.375488 56.0
899.923096 32.0
900.422607 176.0
901.505615 200.0
901.89386 68.0
902.085327 36.0
902.381165 124.0
904.614319 36.0
905.464844 124.0
906.590149 52.0
907.319702 36.0
909.477478 88.0
909.817566 60.0
910.39447 68.0
911.799072 32.0
912.387939 68.0
914.416992 44.0
915.397278 128.0
916.443909 48.0
917.428772 128.0
919.449097 108.0
920.425171 48.0
921.429443 48.0
923.37738 52.0
923.430847 32.0
923.491333 64.0
924.443848 128.0
925.555603 76.0
927.146484 116.0
927.476501 36.0
927.709473 40.0
928.447449 56.0
929.419617 76.0
930.507446 128.0
931.324341 28.0
932.472473 104.0
933.462097 200.0
934.439514 48.0
935.082642 96.0
935.426697 140.0
936.38916 76.0
937.469482 96.0
937.821411 40.0
938.457947 36.0
939.498901 88.0
939.805908 32.0
940.440674 76.0
941.466919 96.0
942.445923 96.0
943.463806 32.0
944.776123 32.0
945.42218 84.0
946.453003 44.0
948.432434 80.0
949.38623 52.0
950.466797 92.0
951.452759 48.0
953.476013 76.0
954.460449 36.0
955.38623 92.0
956.371704 28.0
957.441284 60.0
958.489868 56.0
959.546021 36.0
960.415039 112.0
961.452332 232.0
962.431763 112.0
963.066223 52.0
963.449097 136.0
963.592834 136.0
963.917053 28.0
964.440796 76.0
965.500977 40.0
966.413574 68.0
968.533875 148.0
969.45459 36.0
970.510071 76.0
971.567505 48.0
972.462891 160.0
972.843628 28.0
973.411438 116.0
973.599304 104.0
974.156311 32.0
974.47467 56.0
975.529602 56.0
976.514771 68.0
977.439087 28.0
978.457153 104.0
979.475708 68.0
980.50592 64.0
981.032471 48.0
982.483337 56.0
982.601379 80.0
983.499512 68.0
984.509644 64.0
984.709656 120.0
985.486023 52.0
986.44635 36.0
987.448425 44.0
988.233398 92.0
988.529907 40.0
988.98938 100.0
989.455383 60.0
990.418884 44.0
992.185059 32.0
993.450439 64.0
994.442749 196.0
994.63623 44.0
995.01825 36.0
995.485779 268.0
996.459106 108.0
997.452759 80.0
998.505432 96.0
999.285645 60.0
999.521057 76.0
1000.474915 84.0
1001.200928 152.0
1002.458618 48.0
1003.518188 84.0
1004.485352 48.0
1005.441101 72.0
1006.573364 100.0
1007.119507 28.0
1007.382507 48.0
1009.427002 48.0
1011.033142 88.0
1011.493835 40.0
1014.455994 52.0
1015.369812 120.0
1015.534851 160.0
1016.507629 68.0
1016.731201 44.0
1017.498352 76.0
1017.570129 104.0
1018.516724 144.0
1019.467834 44.0
1019.680603 148.0
1020.148865 116.0
1020.291382 76.0
1021.289368 32.0
1021.493042 40.0
1022.449402 136.0
1023.478699 48.0
1024.42334 68.0
1025.442993 64.0
1026.505005 172.0
1027.521973 172.0
1028.478027 92.0
1030.333862 64.0
1030.545654 92.0
1031.468994 52.0
1032.516846 140.0
1032.70874 40.0
1033.507812 48.0
1034.204712 48.0
1035.537598 40.0
1035.865845 132.0
1038.493652 44.0
1039.523071 80.0
1041.441528 100.0
1042.451782 40.0
1043.499878 88.0
1044.487183 152.0
1046.52063 112.0
1047.532593 116.0
1048.536743 144.0
1049.430298 48.0
1050.339111 36.0
1050.532837 64.0
1052.157959 44.0
1052.571533 104.0
1053.505493 80.0
1054.475098 72.0
1055.496094 52.0
1056.542358 44.0
1057.520142 72.0
1058.515991 152.0
1058.888672 124.0
1059.509277 48.0
1060.478271 40.0
1061.358643 64.0
1061.52478 40.0
1061.753174 44.0
1062.459595 32.0
1063.483154 64.0
1065.525879 112.0
1066.556763 56.0
1067.514648 72.0
1067.7854 48.0
1068.514526 72.0
1070.557617 68.0
1071.037354 160.0
1071.245972 40.0
1071.538086 52.0
1072.477295 52.0
1073.551514 72.0
1074.502441 104.0
1075.512207 180.0
1076.510132 124.0
1077.556152 152.0
1078.539795 36.0
1079.691528 48.0
1080.67627 44.0
1082.521118 28.0
1083.514893 64.0
1085.417358 80.0
1086.509033 128.0
1087.287231 36.0
1087.474609 48.0
1090.295166 32.0
1090.584961 52.0
1091.4646 140.0
1092.548462 120.0
1092.780273 36.0
1093.526978 48.0
1094.508911 76.0
1094.951782 64.0
1095.59082 112.0
1096.545898 124.0
1097.555176 104.0
1098.477295 56.0
1099.301392 32.0
1099.570435 84.0
1099.87207 104.0
1100.548706 44.0
1102.495117 36.0
1103.526855 92.0
1104.592773 76.0
1105.529297 64.0
1106.477905 32.0
1107.543701 64.0
1108.526733 76.0
1109.490967 64.0
1110.519531 84.0
1111.522339 120.0
1113.559814 136.0
1114.656616 40.0
1115.486694 80.0
1116.530151 88.0
1116.849731 96.0
1117.467651 44.0
1117.616821 56.0
1119.066406 72.0
1119.556885 36.0
1120.538208 68.0
1121.574707 128.0
1122.459473 44.0
1123.543335 136.0
1124.57312 252.0
1124.981079 40.0
1125.536987 36.0
1126.552246 52.0
1127.499878 92.0
1128.575806 72.0
1129.496826 32.0
1129.646851 32.0
1132.498169 32.0
1133.807129 36.0
1134.515503 48.0
1135.267212 32.0
1136.559204 116.0
1137.53894 72.0
1138.555664 80.0
1139.609863 60.0
1140.518311 204.0
1140.695557 56.0
1141.07373 32.0
1141.516357 72.0
1142.633545 136.0
1143.529785 72.0
1143.702271 68.0
1144.615601 64.0
1145.666992 40.0
1146.355347 68.0
1147.585938 32.0
1148.50647 84.0
1149.574707 76.0
1150.570068 104.0
1152.567383 64.0
1153.48877 68.0
1154.528198 32.0
1155.577637 64.0
1156.543457 104.0
1157.552734 44.0
1158.567871 104.0
1159.471924 88.0
1159.716919 96.0
1160.49231 92.0
1162.599731 52.0
1164.540161 76.0
1164.730713 44.0
1167.016113 72.0
1168.998657 124.0
1169.565308 44.0
1170.52478 32.0
1171.397339 36.0
1171.615479 40.0
1172.571289 160.0
1173.574951 140.0
1174.574951 80.0
1175.542358 108.0
1176.552856 60.0
1177.509888 64.0
1179.575684 100.0
1179.768188 84.0
1180.578491 104.0
1181.498535 64.0
1182.550537 96.0
1183.010986 36.0
1184.57019 44.0
1184.765625 48.0
1185.555664 44.0
1186.329468 160.0
1187.564453 108.0
1188.586548 96.0
1190.516724 80.0
1191.590576 68.0
1192.540405 52.0
1193.250122 92.0
1194.509766 148.0
1195.536133 52.0
1196.180542 28.0
1196.546631 140.0
1197.579712 72.0
1198.584961 28.0
1199.549438 52.0
1200.588135 76.0
1201.590576 120.0
1202.578979 48.0
1203.507568 440.0
1203.820923 48.0
1204.482666 324.0
1205.519043 208.0
1206.565063 36.0
1208.610107 68.0
1209.567261 48.0
1211.574463 68.0
1212.351196 28.0
1212.54541 80.0
1213.548828 104.0
1216.61499 68.0
1218.50708 40.0
1220.532837 40.0
1221.535156 36.0
1223.563477 36.0
1224.575928 32.0
1225.63623 76.0
1227.592529 80.0
1229.54187 56.0
1230.664429 52.0
1231.55249 40.0
1231.916992 32.0
1233.615112 60.0
1234.611938 96.0
1237.651367 88.0
1239.629883 64.0
1241.63269 108.0
1243.660767 100.0
1244.578735 60.0
1245.550293 36.0
1246.570435 36.0
1249.092407 28.0
1251.715332 56.0
1252.338745 32.0
1252.60144 100.0
1253.584229 208.0
1254.550537 80.0
1255.611938 64.0
1256.063721 28.0
1257.660522 84.0
1258.621094 56.0
1259.353027 64.0
1259.613159 88.0
1261.606812 296.0
1262.564453 64.0
1264.618042 80.0
1265.607666 68.0
1265.865112 124.0
1267.598267 72.0
1268.644043 52.0
1269.133057 92.0
1269.670044 72.0
1270.619385 88.0
1271.607788 144.0
1272.484985 68.0
1273.554443 40.0
1275.135376 48.0
1276.592651 64.0
1277.594971 60.0
1279.623657 96.0
1280.631226 68.0
1281.623413 88.0
1282.619141 140.0
1283.708618 80.0
1284.371094 52.0
1284.57666 60.0
1285.444946 140.0
1285.594116 80.0
1286.61084 72.0
1288.60083 92.0
1289.630859 32.0
1290.592407 44.0
1292.562622 56.0
1295.612549 88.0
1295.933716 32.0
1297.605347 68.0
1298.620605 184.0
1300.677368 76.0
1303.793823 80.0
1304.530396 36.0
1307.640503 72.0
1309.627197 316.0
1310.622803 168.0
1311.308228 40.0
1311.606201 104.0
1313.630249 44.0
1314.62439 100.0
1315.667358 64.0
1316.609985 80.0
1318.609985 68.0
1322.550781 44.0
1324.661255 60.0
1325.635864 56.0
1326.678223 44.0
1327.400269 112.0
1327.615845 92.0
1328.654663 44.0
1329.688965 64.0
1330.64209 44.0
1332.718994 108.0
1333.655029 52.0
1335.564697 36.0
1336.644165 104.0
1337.755371 44.0
1341.627197 100.0
1341.932007 32.0
1342.609375 40.0
1343.609009 56.0
1344.4552 32.0
1344.665527 84.0
1345.624146 88.0
1346.679932 56.0
1353.658447 52.0
1353.914673 48.0
1354.360352 52.0
1354.65271 52.0
1355.731812 48.0
1356.683838 36.0
1358.557251 84.0
1358.708496 176.0
1359.688965 140.0
1360.325562 68.0
1360.654785 64.0
1363.713257 76.0
1367.565552 60.0
1370.052856 28.0
1370.572021 32.0
1372.578735 52.0
1374.530518 52.0
1380.691162 40.0
1381.621338 144.0
1382.612793 168.0
1382.791504 64.0
1383.795776 80.0
1386.713989 104.0
1387.663696 72.0
1388.676636 68.0
1389.671509 52.0
1391.63208 88.0
1399.633667 72.0
1402.687866 28.0
1405.673706 48.0
1410.697144 28.0
1415.393799 40.0
1421.664307 44.0
1427.669922 52.0
1433.654663 36.0
1434.306396 44.0
1434.692749 52.0
1436.55249 124.0
1437.639893 52.0
1439.79187 64.0
1450.697021 56.0
1451.679932 84.0
1453.611938 32.0
1454.414062 48.0
1454.632935 76.0
1455.751465 72.0
1456.602905 32.0
1456.846191 60.0
1457.64917 80.0
1458.330688 28.0
1459.962158 80.0
1460.619873 76.0
1463.47168 56.0
1466.716797 60.0
1468.817017 52.0
1469.672241 40.0
1471.663818 68.0
1474.661743 52.0
1478.648804 72.0
1479.763916 84.0
1480.696045 68.0
1481.106812 40.0
1481.695679 76.0
1483.765015 52.0
1484.707764 92.0
1485.697876 36.0
1486.730103 128.0
1493.718628 80.0
1499.686768 44.0
1502.667236 68.0
1504.65271 52.0
1505.765625 36.0
1510.939819 36.0
1512.798828 88.0
1520.444824 32.0
1521.737671 40.0
1523.727661 32.0
1536.827515 48.0
1539.7146 124.0
1549.791016 36.0
1550.69458 64.0
1553.708374 56.0
1567.738281 204.0
1568.743164 168.0
1569.733032 100.0
1570.664551 64.0
1571.700439 36.0
1582.560669 32.0
1636.030029 100.0
1664.775024 28.0
1665.748901 56.0
1668.834961 32.0
1758.52124 72.0
END IONS
