BEGIN IONS
PEPMASS=732.397
CHARGE=2
MSLEVEL=2
SOURCE_INSTRUMENT=LC-ESI-qTof
FILENAME=f.philipwi/0_WilliamsFreshwaterCyanosStandardsConvertedTo_mzXML_v2/PW-43_P1-E-7_Scytonemin_A_1462amu_01_15558_Scan632-735.mzXML;
SEQ=*..*
IONMODE=Positive
ORGANISM=GNPS-LIBRARY
NAME=Scytonemin A M+2H
PI=Philip Williams
DATACOLLECTOR=Williams
SMILES=O=C([C@H]([C@@H](C[C@H](CCCC(CC1=CC=CC=C1)O)OC([C@@H](NC(C)=O)C)=O)NC([C@@H]2[C@@H](C)CCN2C([C@]([C@H](C(C)C)O)([H])NC(CNC3=O)=O)=O)=O)O)N[C@H](CO)C(NCC(N4[C@H](C(N5[C@H](C(N[C@H](CC(C)C)C(N[C@@H](CCO)C(N[C@@H]3CC6=CC=CC=C6)=O)=O)=O)[C@@H](C)[C@@H](O)C5)=O)[C@@H](C)[C@@H](O)C4)=O)=O
INCHI=
INCHIAUX=
PUBMED=
SUBMITUSER=philipwi
TAGS=
LIBRARYQUALITY=3
SPECTRUMID=CCMSLIB00000424914
SCANS=650
71.808563 96.0
106.36113 64.0
110.134377 64.0
138.029358 40.0
140.451263 40.0
141.102005 88.0
142.125687 116.0
145.091782 116.0
145.558136 20.0
146.092102 200.0
146.2742 32.0
147.10025 84.0
148.308731 24.0
150.146362 112.0
156.095367 92.0
157.10289 628.0
158.106598 84.0
158.668137 44.0
158.917145 24.0
158.985886 36.0
159.11853 196.0
159.987656 56.0
160.948532 56.0
161.563705 80.0
162.927734 44.0
165.107346 284.0
165.250305 80.0
167.375671 32.0
167.846054 20.0
167.95343 116.0
168.14682 172.0
168.424622 24.0
169.101807 468.0
169.725891 44.0
170.118942 92.0
171.082184 96.0
171.274002 36.0
172.519226 28.0
173.063858 76.0
174.122055 32.0
174.458664 24.0
175.118256 356.0
175.46199 28.0
176.117813 108.0
176.265045 40.0
176.959671 116.0
177.10675 524.0
178.131241 196.0
179.137054 60.0
180.393372 132.0
181.113235 212.0
182.101105 36.0
183.117523 252.0
183.428177 28.0
184.001007 40.0
184.135132 316.0
184.526215 32.0
184.961731 60.0
185.098282 1408.0
185.471237 40.0
185.714371 52.0
185.957687 40.0
186.113922 84.0
186.220123 72.0
186.740814 28.0
187.109558 364.0
187.194046 48.0
187.481964 36.0
188.01474 24.0
188.994934 48.0
189.056274 44.0
189.152695 36.0
189.837128 96.0
190.162216 68.0
191.086288 88.0
192.445663 72.0
193.038574 32.0
193.109436 88.0
194.022888 24.0
194.395981 72.0
195.120972 288.0
195.214478 24.0
195.784882 28.0
196.123962 144.0
196.186447 64.0
197.136154 188.0
197.36676 32.0
198.11969 128.0
198.595505 28.0
198.667374 76.0
199.118286 80.0
199.602859 120.0
199.972275 24.0
200.147461 904.0
200.45932 32.0
201.144775 108.0
201.290482 32.0
202.159607 140.0
203.114395 448.0
203.675995 24.0
203.73967 36.0
204.141769 108.0
205.000397 52.0
205.105637 1024.0
205.325897 24.0
206.114014 244.0
206.460052 28.0
207.116409 188.0
208.525986 20.0
208.968048 44.0
209.130112 96.0
210.126144 184.0
211.119888 120.0
211.630264 40.0
211.945663 40.0
212.074127 56.0
212.146835 428.0
212.423859 56.0
212.521423 40.0
213.16423 3936.0
213.298477 44.0
213.405121 32.0
213.470322 44.0
213.647308 32.0
213.843018 36.0
214.010834 32.0
214.161896 564.0
214.383987 28.0
214.692093 28.0
214.897629 36.0
215.010818 36.0
215.142883 872.0
215.505447 40.0
216.106781 92.0
216.134247 108.0
216.70488 24.0
217.104233 92.0
217.371628 48.0
217.437408 56.0
217.540817 48.0
217.663055 36.0
217.973511 28.0
218.15715 1208.0
218.566803 32.0
219.057129 40.0
219.157135 132.0
219.387451 40.0
220.001572 24.0
220.275848 40.0
220.398849 20.0
220.929108 28.0
221.005478 40.0
221.132629 1144.0
221.298782 36.0
221.431549 32.0
221.630783 36.0
221.706711 36.0
222.131378 124.0
222.434479 52.0
222.590286 32.0
222.668167 148.0
223.120819 636.0
223.418442 32.0
224.11438 144.0
224.467728 32.0
224.725662 40.0
224.983734 32.0
225.105652 112.0
225.16095 280.0
225.776108 40.0
225.93129 32.0
226.118164 176.0
226.496933 44.0
226.631256 28.0
226.996063 40.0
227.14006 360.0
227.313095 68.0
227.449265 48.0
228.053711 32.0
228.136536 280.0
228.670197 28.0
229.124588 484.0
229.287521 52.0
229.441986 24.0
229.86702 40.0
230.037918 100.0
230.157074 1168.0
230.263428 40.0
230.766693 28.0
230.853851 28.0
231.145859 212.0
231.619614 96.0
232.150909 108.0
232.464371 60.0
232.858444 36.0
233.148666 168.0
233.758774 52.0
234.139023 60.0
235.140747 108.0
235.663086 44.0
236.10675 120.0
236.309372 40.0
237.121002 244.0
238.118759 84.0
238.499573 24.0
238.647263 36.0
238.883652 52.0
239.070877 108.0
239.152847 92.0
239.327209 24.0
239.889633 32.0
239.95874 36.0
240.047623 20.0
240.145218 160.0
240.314346 52.0
240.40329 60.0
241.007797 32.0
241.155807 3112.0
241.261703 36.0
241.491699 24.0
241.838516 32.0
242.036819 32.0
242.157166 636.0
242.307785 76.0
242.979843 28.0
243.145859 220.0
244.144104 152.0
244.975143 40.0
245.160248 80.0
246.130524 100.0
246.760269 100.0
247.139755 340.0
247.281235 20.0
247.829376 76.0
247.908844 56.0
247.993439 52.0
248.093109 56.0
248.169525 1636.0
248.47551 72.0
248.616196 36.0
249.018402 32.0
249.129761 1324.0
249.340393 80.0
250.131485 180.0
250.660706 112.0
251.142166 216.0
251.741714 44.0
252.176804 524.0
252.541351 40.0
252.96698 24.0
253.159546 244.0
253.261078 28.0
253.649094 136.0
254.115784 252.0
254.29686 32.0
254.673096 64.0
254.935959 56.0
255.133331 696.0
255.222717 36.0
255.319473 32.0
255.412033 40.0
255.844284 40.0
255.997253 24.0
256.145294 168.0
256.527863 52.0
257.147705 176.0
257.815887 40.0
257.928467 40.0
258.041107 48.0
258.170502 408.0
258.59433 28.0
259.157532 288.0
259.743683 20.0
259.825867 36.0
260.00058 156.0
260.14386 448.0
260.81665 48.0
261.165619 280.0
261.276642 40.0
261.503387 32.0
261.895233 36.0
262.122894 1344.0
262.242981 40.0
262.390625 36.0
262.597168 44.0
262.680847 360.0
262.969177 32.0
263.131653 232.0
263.248352 60.0
263.688293 100.0
263.952087 48.0
264.118439 268.0
264.741364 52.0
264.833099 28.0
265.797241 28.0
265.902649 56.0
266.137695 152.0
266.308197 32.0
267.124847 100.0
267.870819 24.0
268.136627 392.0
268.988312 28.0
269.151581 256.0
269.396179 64.0
269.961456 28.0
270.116913 272.0
271.009827 40.0
271.121918 88.0
271.324738 44.0
271.744873 36.0
271.965607 60.0
272.135529 1476.0
272.449371 40.0
272.669128 136.0
273.017853 28.0
273.152283 568.0
273.660706 108.0
273.871643 32.0
274.150269 128.0
274.959259 44.0
275.144135 428.0
275.61499 48.0
276.174103 256.0
276.663666 48.0
277.167511 108.0
277.894958 92.0
278.123444 140.0
278.458435 32.0
278.916016 36.0
279.187378 132.0
279.754089 48.0
280.01358 24.0
280.167084 464.0
280.397736 32.0
280.579224 40.0
281.070587 28.0
281.17099 492.0
281.840576 28.0
281.926178 28.0
282.145844 556.0
282.34375 28.0
282.590149 36.0
282.793793 48.0
283.173218 104.0
283.823792 24.0
284.13446 100.0
284.163361 56.0
284.683563 80.0
284.823425 32.0
284.952515 20.0
285.200073 68.0
286.155365 180.0
286.331512 28.0
286.622803 48.0
287.152344 88.0
287.36792 60.0
287.681396 108.0
288.042694 116.0
288.172485 2432.0
288.475342 64.0
288.666107 164.0
288.770782 44.0
289.023621 48.0
289.170654 924.0
289.327118 40.0
289.424713 40.0
289.739288 32.0
290.161407 92.0
290.412415 28.0
290.531921 24.0
290.651428 92.0
290.760132 40.0
291.184174 108.0
291.858978 32.0
292.139893 288.0
292.665375 100.0
293.00354 44.0
293.188171 344.0
293.440155 36.0
293.515045 28.0
293.61026 104.0
293.745972 52.0
294.104065 268.0
294.533112 36.0
295.13327 212.0
295.176422 88.0
295.214111 224.0
295.430847 24.0
295.814453 40.0
296.162476 508.0
296.329956 48.0
296.83493 32.0
297.197723 312.0
297.62619 40.0
297.857178 32.0
298.173676 816.0
298.415375 28.0
298.561676 64.0
298.671844 128.0
298.892212 36.0
299.180786 240.0
299.399353 68.0
299.586884 68.0
299.829681 32.0
300.164825 616.0
300.846008 56.0
300.99292 28.0
301.157349 96.0
302.107758 52.0
303.182281 80.0
304.16095 100.0
304.249878 72.0
304.47229 52.0
304.767548 52.0
305.164581 220.0
305.284821 36.0
305.474182 28.0
305.904053 56.0
306.042633 40.0
306.18222 2192.0
306.35495 36.0
306.511169 32.0
306.66745 256.0
306.812561 40.0
306.961945 64.0
307.179535 348.0
307.67511 140.0
307.863037 64.0
308.030823 48.0
308.16098 364.0
308.468689 32.0
308.661987 124.0
308.852173 48.0
309.18222 208.0
309.722473 24.0
310.149445 512.0
310.351013 28.0
310.654297 28.0
310.844086 36.0
311.180511 316.0
311.691101 116.0
312.153961 1700.0
312.30484 28.0
312.522125 32.0
312.690125 84.0
312.799805 28.0
312.905396 52.0
313.166534 456.0
313.214966 316.0
313.469421 40.0
313.571014 100.0
314.170776 476.0
314.662567 64.0
314.847839 20.0
315.172028 116.0
315.266479 28.0
315.357025 56.0
315.534485 124.0
315.699127 116.0
315.798645 36.0
316.169159 2280.0
316.467346 24.0
316.786346 32.0
316.99408 56.0
317.181396 720.0
317.488739 68.0
318.171814 268.0
318.295685 24.0
318.580078 48.0
318.685364 172.0
318.79303 84.0
318.910095 40.0
319.023956 52.0
319.200104 256.0
319.432281 80.0
319.593475 24.0
319.832825 40.0
320.180237 124.0
320.334625 24.0
320.675171 952.0
320.848236 40.0
321.174927 312.0
321.293701 32.0
321.465118 40.0
321.670868 120.0
322.071136 36.0
322.208405 56.0
322.734985 36.0
323.207489 428.0
323.709106 36.0
323.927032 24.0
324.167023 80.0
325.175232 208.0
325.369415 48.0
325.682983 52.0
326.1763 64.0
326.294708 24.0
327.009003 28.0
327.176147 352.0
327.53949 24.0
327.692352 152.0
327.865143 56.0
327.995911 80.0
328.153259 988.0
328.251984 44.0
328.532379 40.0
328.608643 48.0
328.694153 124.0
328.786591 140.0
329.194946 340.0
329.376343 32.0
329.464294 36.0
329.68512 752.0
329.920319 24.0
330.138885 464.0
330.499481 76.0
330.684906 96.0
330.91037 36.0
331.143646 300.0
331.380798 40.0
331.675568 40.0
331.949615 32.0
332.030945 36.0
332.165283 596.0
332.28653 24.0
332.379486 40.0
332.54892 44.0
332.697418 52.0
332.879395 32.0
332.98407 52.0
333.165619 256.0
333.635773 44.0
333.828735 32.0
333.925751 40.0
334.065033 28.0
334.180206 6808.0
334.404694 80.0
334.509613 24.0
334.591217 36.0
334.79657 72.0
334.964447 32.0
335.184418 1440.0
335.463959 40.0
335.583069 24.0
335.953918 48.0
335.978516 28.0
336.187531 620.0
336.72406 108.0
337.044312 40.0
337.167847 236.0
337.301819 32.0
337.682404 116.0
338.177216 504.0
338.297668 32.0
338.409058 40.0
338.837189 52.0
338.954559 36.0
339.189484 308.0
339.3302 76.0
339.494598 24.0
339.633575 24.0
339.95282 36.0
340.22168 280.0
340.398102 32.0
340.577484 64.0
340.661591 44.0
340.799011 48.0
340.844482 44.0
340.982361 44.0
341.224548 4012.0
341.522186 48.0
341.622345 32.0
341.736938 132.0
341.776978 36.0
341.802307 76.0
342.070648 60.0
342.206207 18272.0
342.418915 72.0
342.554718 60.0
342.708618 84.0
342.809967 36.0
342.935608 84.0
343.04248 72.0
343.083801 84.0
343.205383 3888.0
343.425171 104.0
343.512482 48.0
343.688751 88.0
343.777802 32.0
343.91333 48.0
344.194824 880.0
344.374512 20.0
344.532837 32.0
344.646637 28.0
344.753143 112.0
344.835999 60.0
345.189453 424.0
345.41629 40.0
345.605865 52.0
345.70285 132.0
345.848846 36.0
346.171387 456.0
346.340973 32.0
346.518951 88.0
347.205414 156.0
347.41507 76.0
348.202423 148.0
348.455811 48.0
348.824768 24.0
348.943848 24.0
349.155151 260.0
349.515625 36.0
349.69223 152.0
349.837463 60.0
349.992493 24.0
350.188019 168.0
350.994934 36.0
351.204254 352.0
351.317444 36.0
351.404602 96.0
351.556458 36.0
351.69989 40.0
352.202148 388.0
352.381622 40.0
352.704773 124.0
352.968201 32.0
353.213013 112.0
353.363525 36.0
353.591248 76.0
353.962921 28.0
354.18869 204.0
354.406799 180.0
354.562805 68.0
355.161255 260.0
355.292969 140.0
355.559753 28.0
355.788177 28.0
355.924805 56.0
356.181488 340.0
356.353516 44.0
356.690521 104.0
357.197662 620.0
357.365021 64.0
357.521698 88.0
357.831604 68.0
358.208374 188.0
358.546936 60.0
358.87442 32.0
358.994598 52.0
359.235504 6332.0
359.479767 120.0
359.695831 36.0
359.884949 84.0
360.057312 84.0
360.23999 1364.0
360.410858 36.0
360.51709 52.0
361.025604 40.0
361.231628 340.0
361.801178 40.0
361.93457 28.0
362.2005 492.0
362.359131 32.0
362.601868 20.0
362.70694 140.0
363.051117 32.0
363.199738 596.0
363.707306 36.0
363.808105 68.0
364.190216 248.0
364.400574 24.0
365.078827 28.0
365.186951 88.0
365.447784 76.0
365.618408 48.0
366.093933 28.0
366.191498 96.0
366.3013 40.0
366.838287 36.0
366.923767 36.0
367.036621 88.0
367.18103 448.0
367.537354 52.0
367.803436 24.0
368.212616 836.0
368.929016 168.0
369.051453 24.0
369.218048 672.0
369.480194 20.0
369.717194 232.0
369.921417 20.0
370.210022 308.0
370.473328 52.0
370.743317 144.0
371.035675 44.0
371.215912 508.0
371.369537 36.0
371.721161 208.0
371.836487 44.0
372.029541 108.0
372.218781 148.0
372.611267 32.0
372.712036 104.0
372.88205 32.0
373.189819 640.0
373.41153 24.0
373.719543 132.0
373.941376 48.0
374.205109 368.0
374.699066 148.0
374.804749 24.0
374.891144 28.0
375.209778 192.0
375.743225 40.0
376.206604 360.0
376.534454 24.0
376.707306 152.0
376.8685 36.0
376.957306 112.0
377.197021 260.0
377.470367 84.0
377.698059 208.0
378.209595 128.0
378.722748 160.0
379.226715 144.0
380.22171 156.0
380.602509 48.0
380.714447 24.0
381.196808 188.0
381.722443 164.0
382.215759 468.0
382.370483 116.0
382.582397 36.0
382.797424 100.0
383.03714 28.0
383.220154 92.0
383.992615 36.0
384.200378 1220.0
384.529938 24.0
384.711365 392.0
384.975067 40.0
385.05658 104.0
385.200348 752.0
385.716156 324.0
385.901276 44.0
386.224854 516.0
386.691895 112.0
386.933685 24.0
387.234039 596.0
387.987671 36.0
388.231079 504.0
388.578033 72.0
388.721222 128.0
388.845367 84.0
389.013031 56.0
389.183655 476.0
389.721832 100.0
389.923706 40.0
390.213898 172.0
390.414764 40.0
390.623108 136.0
390.716278 636.0
390.899841 72.0
391.222839 488.0
391.53656 28.0
391.712616 96.0
392.225067 644.0
392.457855 48.0
392.571533 72.0
392.723358 556.0
393.210938 1284.0
393.60788 28.0
393.70752 276.0
394.21701 364.0
394.730774 180.0
395.207306 224.0
395.418427 28.0
395.618073 48.0
395.706543 468.0
395.824158 32.0
395.948059 52.0
396.213043 244.0
396.728058 120.0
397.042572 16.0
397.240112 520.0
397.720917 136.0
398.248566 592.0
398.619141 24.0
398.860992 56.0
399.202362 736.0
399.586975 60.0
399.723938 496.0
400.219116 516.0
400.41568 36.0
400.517731 24.0
400.716888 212.0
400.98111 44.0
401.226868 1040.0
401.729858 148.0
401.986145 40.0
402.210968 956.0
402.369659 40.0
402.543488 108.0
402.945251 44.0
403.207245 436.0
403.446045 32.0
403.546875 28.0
403.719269 200.0
404.256348 508.0
404.542755 72.0
404.718781 1612.0
404.821167 148.0
405.226562 888.0
405.405792 20.0
405.495636 40.0
405.709808 248.0
405.945038 36.0
406.099152 52.0
406.264587 64.0
406.548889 36.0
406.741119 88.0
407.011719 36.0
407.233185 524.0
408.02832 60.0
408.234375 448.0
408.44046 56.0
408.736816 176.0
409.200897 160.0
409.345673 124.0
409.484619 68.0
409.708649 44.0
410.026581 40.0
410.241943 228.0
410.743011 100.0
410.833313 36.0
411.079224 32.0
411.230652 272.0
411.383026 32.0
411.589905 36.0
411.73941 112.0
411.90033 44.0
412.195679 512.0
412.443878 48.0
412.749481 80.0
413.20929 188.0
413.616058 56.0
413.724274 1532.0
413.850494 36.0
414.065094 36.0
414.220062 964.0
414.439941 24.0
414.608643 36.0
414.727966 572.0
414.95816 52.0
415.226624 168.0
415.374817 40.0
415.543732 44.0
415.719299 296.0
415.81665 52.0
416.253021 148.0
416.440796 92.0
416.773895 60.0
416.918335 40.0
417.226593 800.0
417.443054 20.0
417.74707 120.0
418.221741 324.0
418.824738 32.0
419.072632 40.0
419.232758 208.0
419.425049 20.0
419.869019 32.0
419.960449 32.0
420.220642 496.0
420.509308 180.0
420.686493 36.0
420.847351 52.0
421.071564 64.0
421.223267 348.0
421.490234 144.0
421.6604 40.0
421.914154 52.0
422.242615 244.0
422.431152 28.0
422.744568 332.0
423.231262 380.0
423.36377 100.0
423.534271 148.0
423.724518 764.0
423.83606 28.0
424.111694 112.0
424.22226 540.0
424.348022 164.0
424.718506 228.0
424.899719 32.0
425.031128 36.0
425.236786 900.0
425.438629 36.0
425.609558 80.0
425.744568 120.0
425.975464 44.0
426.240479 440.0
426.491119 44.0
426.753113 232.0
426.912476 28.0
427.095245 32.0
427.240021 860.0
427.94043 24.0
428.253479 1140.0
428.436401 100.0
428.731995 128.0
429.062042 36.0
429.249939 184.0
429.443115 28.0
429.55072 48.0
429.643219 44.0
429.762115 24.0
430.217499 456.0
430.621521 24.0
430.72229 188.0
430.939056 20.0
431.058167 180.0
431.231934 328.0
431.7276 120.0
431.821716 116.0
432.024811 52.0
432.211578 164.0
432.511047 64.0
432.731689 188.0
432.913727 36.0
432.972687 32.0
433.027557 88.0
433.223907 292.0
433.417145 44.0
433.576416 44.0
433.741516 144.0
434.255096 244.0
434.359894 60.0
434.762878 256.0
435.227844 1288.0
435.410065 24.0
435.747131 504.0
436.007874 56.0
436.239136 644.0
436.733276 140.0
437.111267 68.0
437.236267 224.0
437.480865 32.0
437.567535 108.0
437.714203 44.0
437.947632 48.0
438.240173 660.0
438.621552 32.0
438.717773 136.0
438.96875 32.0
439.062225 104.0
439.190033 320.0
439.583313 72.0
439.751709 252.0
440.234772 264.0
440.412323 92.0
440.559479 104.0
440.746185 412.0
441.221619 224.0
441.743866 204.0
442.240143 316.0
442.434631 28.0
442.760315 84.0
442.904053 100.0
443.238495 472.0
444.129059 48.0
444.266968 764.0
444.560822 52.0
444.731842 440.0
444.878296 32.0
445.066559 40.0
445.248108 680.0
445.744629 272.0
445.900726 24.0
446.021881 32.0
446.265533 940.0
446.493195 40.0
446.745972 120.0
446.889252 60.0
447.233795 204.0
447.251282 172.0
447.719757 116.0
447.827667 32.0
448.016541 32.0
448.223999 388.0
448.461884 20.0
448.556396 32.0
448.650909 144.0
448.749268 360.0
449.241394 552.0
449.377045 148.0
449.596558 36.0
449.734192 496.0
449.934509 32.0
450.0224 24.0
450.241272 360.0
450.504089 36.0
450.748596 308.0
451.251587 252.0
451.73465 116.0
452.005676 56.0
452.141205 36.0
452.269562 324.0
452.507233 60.0
452.739288 72.0
452.980469 40.0
453.262665 116.0
453.606262 24.0
453.733704 228.0
453.94574 60.0
454.253601 380.0
454.737793 476.0
454.964935 56.0
455.255768 404.0
455.46814 72.0
455.746552 236.0
455.930817 20.0
456.046936 36.0
456.246613 1348.0
456.728668 128.0
456.965851 52.0
457.251617 348.0
457.483795 96.0
457.759338 344.0
457.874756 108.0
458.042969 76.0
458.231049 248.0
458.520599 192.0
458.745422 672.0
458.97113 36.0
459.231232 536.0
459.626892 36.0
459.739838 208.0
459.881134 20.0
460.232605 360.0
460.500214 32.0
460.758881 128.0
461.050995 32.0
461.253418 668.0
461.75116 64.0
462.007874 36.0
462.10379 24.0
462.272491 820.0
462.528687 36.0
462.775482 32.0
462.926331 56.0
463.063507 20.0
463.262421 432.0
463.7612 324.0
463.914368 28.0
464.124237 28.0
464.259552 760.0
464.463715 28.0
464.577606 108.0
464.753174 720.0
465.054626 24.0
465.253387 604.0
465.533752 76.0
465.747711 340.0
466.072449 72.0
466.250763 456.0
466.631683 32.0
466.724945 120.0
466.910553 32.0
467.09137 24.0
467.259338 436.0
467.486938 68.0
467.601257 88.0
467.739105 52.0
467.866638 28.0
468.070038 32.0
468.250671 1716.0
468.51059 64.0
468.754669 468.0
468.894958 76.0
469.005981 40.0
469.266113 7972.0
469.519226 32.0
469.750061 424.0
470.117188 64.0
470.275055 2864.0
470.514252 32.0
470.748047 280.0
470.956818 32.0
471.079559 168.0
471.274567 480.0
471.621063 48.0
471.767303 180.0
472.070435 100.0
472.276642 624.0
472.507477 52.0
472.756897 228.0
472.964844 36.0
473.26181 1160.0
473.762299 736.0
473.977386 40.0
474.099426 136.0
474.259857 2224.0
474.563538 36.0
474.749603 392.0
474.900543 80.0
474.9953 52.0
475.264069 556.0
475.699799 32.0
476.005737 36.0
476.117004 36.0
476.260925 132.0
476.423035 56.0
476.652649 64.0
476.739899 140.0
476.96582 20.0
477.258179 1524.0
477.620361 32.0
477.752838 856.0
478.250977 2212.0
478.396637 40.0
478.582092 28.0
478.754761 1428.0
479.070312 48.0
479.250244 748.0
479.510406 32.0
479.656494 44.0
479.767578 192.0
480.019531 84.0
480.145721 64.0
480.282745 196.0
480.466553 76.0
480.76004 104.0
480.885834 32.0
481.072205 84.0
481.270905 192.0
481.622009 56.0
481.892822 36.0
482.272614 248.0
482.570648 104.0
482.763153 216.0
483.08429 128.0
483.258789 720.0
483.492706 64.0
483.634918 52.0
483.757202 200.0
483.966064 28.0
484.270569 592.0
484.513123 32.0
484.757721 88.0
484.921875 32.0
485.03241 56.0
485.276428 928.0
485.770782 140.0
485.899323 72.0
486.131195 112.0
486.264557 596.0
486.763428 608.0
487.085785 72.0
487.260681 5324.0
487.490509 228.0
487.605804 128.0
487.760223 4712.0
487.978455 36.0
488.127411 36.0
488.265411 828.0
488.757324 424.0
488.906342 80.0
489.012451 52.0
489.112244 52.0
489.26886 1468.0
489.549347 52.0
489.683014 44.0
489.786133 108.0
489.823669 36.0
490.276306 1532.0
490.565369 56.0
490.783295 132.0
490.974915 44.0
491.087921 24.0
491.279633 1036.0
491.454529 80.0
491.773651 540.0
491.990356 28.0
492.277588 340.0
492.628876 32.0
492.784515 332.0
492.992767 56.0
493.262329 284.0
493.423279 32.0
493.591431 104.0
493.780487 148.0
493.877411 84.0
493.99231 40.0
494.10141 40.0
494.241547 268.0
494.616791 64.0
495.021301 36.0
495.261444 608.0
495.647095 132.0
495.774475 136.0
496.26355 4140.0
496.437408 36.0
496.568512 64.0
496.765533 3488.0
496.921997 36.0
497.138336 20.0
497.268127 1096.0
497.606018 36.0
497.763275 420.0
497.913239 80.0
498.103485 32.0
498.273834 148.0
498.611633 48.0
498.754852 100.0
498.930756 56.0
499.092743 64.0
499.280182 124.0
499.783844 324.0
499.981415 32.0
500.279846 724.0
500.590271 44.0
500.776306 624.0
500.983215 68.0
501.121918 112.0
501.272095 852.0
501.75293 112.0
501.925354 16.0
502.047424 88.0
502.257935 304.0
502.496765 104.0
502.780579 124.0
502.975555 24.0
503.284088 536.0
503.647369 44.0
503.78363 116.0
503.918549 28.0
504.271423 316.0
504.542206 28.0
504.795685 40.0
505.048462 64.0
505.269348 304.0
505.416016 20.0
505.775818 176.0
506.104126 44.0
506.275848 488.0
506.434021 60.0
506.606171 32.0
506.77948 204.0
507.274353 108.0
507.488159 36.0
507.794037 140.0
507.95575 44.0
508.289001 812.0
508.410828 48.0
508.496338 84.0
508.625702 52.0
508.789581 512.0
508.961914 24.0
509.148895 68.0
509.284149 384.0
509.768494 220.0
510.282745 568.0
510.506134 108.0
510.766693 264.0
510.991669 32.0
511.268402 436.0
511.409637 36.0
511.553802 36.0
511.763214 140.0
512.257874 1192.0
512.790344 112.0
512.96106 52.0
513.272034 2996.0
513.501099 64.0
513.627258 24.0
513.656799 28.0
513.779907 272.0
513.94989 24.0
514.086182 56.0
514.274048 1232.0
514.548706 76.0
514.644287 120.0
514.764221 176.0
515.274353 576.0
515.520081 56.0
515.774902 180.0
515.910583 44.0
516.263123 116.0
516.525452 40.0
516.789917 88.0
517.010925 32.0
517.286133 352.0
517.525574 56.0
517.641602 40.0
517.771851 472.0
517.931702 56.0
518.27771 1452.0
518.460205 48.0
518.775757 504.0
519.277832 360.0
519.786438 452.0
519.942322 52.0
520.048157 92.0
520.282104 236.0
520.795898 324.0
520.923157 44.0
521.275513 392.0
521.413452 72.0
521.779114 236.0
521.899719 76.0
522.287903 412.0
522.511536 92.0
522.763733 132.0
522.977905 32.0
523.275024 448.0
523.478516 72.0
523.541748 24.0
523.570312 64.0
523.778503 408.0
524.005371 36.0
524.130188 96.0
524.279541 424.0
524.524292 36.0
524.626465 64.0
524.786865 436.0
525.006165 40.0
525.123047 24.0
525.267151 60.0
525.322449 92.0
525.44165 164.0
525.868286 28.0
526.072937 148.0
526.289856 5012.0
526.580933 92.0
527.292847 1748.0
527.477478 24.0
527.646667 36.0
527.788147 992.0
528.085205 28.0
528.292847 1368.0
528.452209 124.0
528.771423 1088.0
529.024353 48.0
529.055603 28.0
529.278015 1528.0
529.429321 140.0
529.602478 28.0
529.774719 572.0
530.019592 56.0
530.142639 172.0
530.281616 632.0
530.644531 48.0
530.77356 388.0
531.006409 68.0
531.281494 2924.0
531.52594 28.0
531.794373 68.0
531.928284 64.0
532.288147 708.0
532.569885 32.0
532.780518 512.0
533.030762 136.0
533.278931 700.0
533.790161 684.0
534.027222 40.0
534.130371 84.0
534.288391 508.0
534.63739 52.0
534.815491 220.0
535.071777 32.0
535.282715 216.0
535.795105 224.0
535.993042 160.0
536.274353 332.0
536.504883 32.0
536.79187 888.0
536.977478 140.0
537.136597 104.0
537.293823 860.0
537.580994 76.0
537.782471 3440.0
538.283142 2768.0
538.617065 52.0
538.787842 916.0
538.954956 164.0
539.280518 384.0
539.563477 28.0
539.786682 172.0
539.968201 108.0
540.287598 216.0
540.741455 136.0
541.07251 40.0
541.204041 84.0
541.302124 176.0
541.542664 40.0
541.786499 2556.0
541.906738 128.0
542.290039 1916.0
542.425293 64.0
542.596375 40.0
542.630798 28.0
542.795288 820.0
543.289368 136.0
543.523071 172.0
543.78656 516.0
543.88678 96.0
544.066406 32.0
544.293152 412.0
544.63855 20.0
544.822144 112.0
544.968811 24.0
545.315674 236.0
545.489807 44.0
545.799072 308.0
546.13147 44.0
546.302734 712.0
546.579163 84.0
546.785278 4688.0
546.90802 48.0
547.044189 52.0
547.091431 32.0
547.285034 3944.0
547.461609 144.0
547.629517 56.0
547.788818 1532.0
547.941833 76.0
548.109497 108.0
548.29895 1144.0
548.531799 92.0
548.681519 52.0
548.809631 100.0
548.930298 44.0
549.299072 320.0
549.502014 64.0
549.831299 92.0
550.079773 60.0
550.302063 360.0
550.662048 40.0
550.791382 6200.0
550.9375 48.0
551.295166 2676.0
551.797058 1148.0
551.934937 76.0
552.285034 396.0
552.499207 60.0
552.788818 736.0
553.109131 44.0
553.293701 588.0
553.513977 48.0
553.788391 376.0
554.110168 108.0
554.299438 260.0
554.819519 84.0
554.924622 36.0
555.104858 32.0
555.301758 192.0
555.510437 44.0
555.799805 708.0
556.006348 40.0
556.312378 580.0
556.464905 40.0
556.652832 36.0
556.805481 504.0
557.008606 96.0
557.112488 36.0
557.297302 880.0
557.465271 36.0
557.618469 68.0
557.798401 520.0
557.931946 32.0
558.297424 336.0
558.534424 28.0
558.788086 172.0
558.927551 44.0
559.09198 28.0
559.303101 424.0
559.452515 48.0
559.579407 40.0
559.79303 3656.0
560.159241 108.0
560.295715 1612.0
560.668152 48.0
560.802185 988.0
560.94043 32.0
561.077515 52.0
561.311707 468.0
561.583313 44.0
561.795044 596.0
561.96698 24.0
562.30603 300.0
562.480896 64.0
562.810425 188.0
563.000183 140.0
563.31366 260.0
563.467224 28.0
563.507507 32.0
563.819641 116.0
564.125793 32.0
564.320923 272.0
564.475708 36.0
564.533813 72.0
564.805969 5752.0
564.971252 148.0
565.070068 128.0
565.309631 4864.0
565.535889 40.0
565.807922 1580.0
566.019348 64.0
566.310303 1092.0
566.588379 48.0
566.798218 416.0
567.090759 40.0
567.301514 320.0
567.549316 68.0
567.792847 232.0
568.006348 44.0
568.156921 32.0
568.307678 228.0
568.64325 76.0
569.084106 52.0
569.301025 360.0
569.631714 64.0
569.807129 68.0
570.051086 64.0
570.301147 424.0
570.646423 48.0
570.824524 412.0
571.125977 88.0
571.311646 568.0
571.82843 684.0
572.106689 80.0
572.318542 820.0
572.617554 20.0
572.829163 132.0
573.009155 96.0
573.161072 124.0
573.326233 520.0
573.679871 80.0
573.813904 12436.0
574.033203 132.0
574.188293 108.0
574.315308 11508.0
574.605469 128.0
574.81427 3516.0
574.9823 164.0
575.318604 1436.0
575.532166 24.0
575.572205 80.0
575.615051 48.0
575.816406 308.0
575.977722 72.0
576.03833 28.0
576.072571 72.0
576.321594 588.0
576.53479 76.0
576.811523 160.0
576.951965 76.0
577.31842 296.0
577.601074 40.0
577.708374 24.0
577.925903 36.0
578.17572 160.0
578.3078 336.0
578.810059 540.0
579.313599 348.0
579.50238 36.0
579.819702 436.0
579.96283 68.0
580.126587 60.0
580.343384 316.0
580.595215 44.0
580.826538 496.0
581.053284 44.0
581.174255 32.0
581.316223 428.0
581.826355 340.0
582.15741 124.0
582.314941 292.0
582.448303 60.0
582.687134 92.0
582.810974 408.0
583.060974 132.0
583.321594 432.0
583.802979 420.0
584.068848 72.0
584.318115 2172.0
584.467773 40.0
584.614929 32.0
584.816589 1228.0
585.112061 140.0
585.320068 2236.0
585.717407 156.0
585.821716 1240.0
586.315186 588.0
586.474609 24.0
586.828003 108.0
587.107727 44.0
587.313904 448.0
587.529236 32.0
587.822021 372.0
588.019348 108.0
588.312988 760.0
588.584534 36.0
588.831177 104.0
589.039978 56.0
589.328552 520.0
589.816406 296.0
590.020874 32.0
590.169922 24.0
590.331482 156.0
590.541626 32.0
590.830505 56.0
590.854126 96.0
591.080872 40.0
591.337463 224.0
591.478455 44.0
591.604797 40.0
591.828064 168.0
592.051575 68.0
592.176208 36.0
592.305969 1092.0
592.647522 68.0
592.820557 832.0
593.136902 52.0
593.321716 3472.0
593.501709 28.0
593.826172 1616.0
594.323486 2820.0
594.489746 36.0
594.822083 1324.0
595.10614 56.0
595.330688 940.0
595.687378 52.0
595.828735 264.0
596.022522 24.0
596.330322 748.0
596.631348 72.0
596.792908 84.0
597.065674 36.0
597.341492 212.0
597.579773 24.0
597.803162 96.0
598.096436 136.0
598.128296 68.0
598.325928 616.0
598.59314 68.0
598.827332 512.0
599.323181 420.0
599.647034 44.0
599.846008 164.0
599.9599 116.0
600.345093 336.0
600.66217 80.0
600.845703 308.0
601.109802 60.0
601.315186 3152.0
601.548706 116.0
601.689819 40.0
601.81543 1588.0
602.127441 52.0
602.323792 1876.0
602.512146 32.0
602.830078 1192.0
602.997864 44.0
603.323914 2068.0
603.586975 60.0
603.688171 32.0
603.825256 1092.0
604.32074 632.0
604.446228 104.0
604.625549 48.0
604.889893 192.0
605.035889 116.0
605.161377 100.0
605.316833 576.0
605.520386 36.0
605.684448 52.0
605.833801 80.0
606.013977 80.0
606.329773 240.0
606.526367 152.0
606.850891 108.0
606.988525 56.0
607.335693 1488.0
607.655762 128.0
607.830383 1776.0
608.334595 540.0
608.584717 64.0
608.858093 52.0
609.332703 228.0
609.854919 88.0
610.127747 64.0
610.317932 1844.0
610.504761 44.0
610.575623 32.0
610.637512 28.0
610.822876 1192.0
611.09552 40.0
611.323792 496.0
611.544739 56.0
611.830383 176.0
612.031494 64.0
612.329102 1160.0
612.625488 68.0
612.8255 652.0
613.322449 3384.0
613.647888 144.0
613.822876 120.0
614.022156 256.0
614.167847 36.0
614.332031 1004.0
614.717346 28.0
614.929626 112.0
615.355225 204.0
615.523621 76.0
615.693298 44.0
615.846802 108.0
616.029846 92.0
616.332275 1720.0
616.668091 24.0
616.82489 1336.0
617.332947 712.0
617.826172 276.0
618.167603 48.0
618.335876 168.0
618.484619 36.0
618.706543 24.0
618.91272 36.0
619.150635 28.0
619.348389 68.0
619.515503 124.0
619.642395 36.0
619.801086 28.0
620.070923 104.0
620.344116 176.0
620.547241 52.0
620.674255 100.0
620.842773 356.0
621.335327 400.0
621.516235 52.0
621.659241 24.0
621.831848 696.0
622.03241 112.0
622.150757 40.0
622.321777 964.0
622.496155 44.0
622.524658 28.0
622.834412 164.0
623.170105 76.0
623.330566 352.0
623.506226 144.0
623.840942 80.0
624.085388 72.0
624.338379 824.0
624.650879 24.0
624.857971 80.0
625.343933 604.0
625.567627 92.0
625.852783 528.0
626.149353 20.0
626.357971 428.0
626.640503 148.0
626.846924 356.0
627.026978 32.0
627.154663 80.0
627.337463 480.0
627.653625 96.0
627.87323 224.0
627.976807 120.0
628.078918 36.0
628.117798 52.0
628.337036 592.0
628.624207 24.0
628.888306 48.0
629.347595 692.0
629.857544 132.0
630.339355 1808.0
630.837646 1732.0
631.155945 52.0
631.3396 1704.0
631.837402 596.0
632.081116 52.0
632.333984 500.0
632.855652 64.0
633.160217 92.0
633.33905 208.0
633.620605 24.0
633.888672 108.0
634.092041 32.0
634.317566 232.0
634.58728 72.0
634.854187 1368.0
635.350586 1636.0
635.530029 72.0
635.857849 852.0
636.358521 516.0
636.592529 44.0
636.848938 136.0
637.334656 84.0
637.606201 60.0
637.776489 76.0
637.930298 40.0
638.105286 48.0
638.356079 728.0
638.643188 40.0
638.855469 584.0
639.055664 108.0
639.34198 4580.0
639.49762 172.0
639.714844 40.0
639.846069 5692.0
640.153381 44.0
640.340698 6080.0
640.63031 76.0
640.848022 1372.0
641.068359 40.0
641.340515 936.0
641.569336 48.0
641.682068 64.0
641.870239 136.0
642.015259 64.0
642.111877 28.0
642.344177 732.0
642.709595 76.0
642.832031 36.0
642.886597 32.0
642.946533 48.0
643.018799 36.0
643.056335 32.0
643.351013 512.0
643.61853 80.0
643.859802 3320.0
644.082764 60.0
644.359253 2608.0
644.557861 84.0
644.855652 1184.0
645.073547 28.0
645.126099 40.0
645.357056 1064.0
645.83551 228.0
646.068542 32.0
646.229675 44.0
646.374451 168.0
646.724915 56.0
646.852539 32.0
647.089661 80.0
647.23053 88.0
647.369324 260.0
647.592468 44.0
647.871521 152.0
648.048767 64.0
648.358276 156.0
648.566162 84.0
648.852234 9960.0
649.065186 236.0
649.169128 192.0
649.35437 8216.0
649.59021 40.0
649.852295 5520.0
650.352295 1516.0
650.517151 132.0
650.862 480.0
651.180969 44.0
651.216614 40.0
651.366455 440.0
651.614685 68.0
651.757568 92.0
651.869385 92.0
652.146484 124.0
652.367615 292.0
652.533264 88.0
652.683899 32.0
652.865295 1000.0
653.168518 40.0
653.368103 1240.0
653.570679 76.0
653.86554 548.0
654.034668 56.0
654.20343 44.0
654.361572 432.0
654.687073 96.0
654.896545 52.0
655.21698 100.0
655.369263 364.0
655.558777 116.0
655.6922 152.0
655.874329 48.0
656.375305 664.0
656.610535 56.0
656.773376 132.0
656.998779 160.0
657.140198 60.0
657.370972 1660.0
657.625122 44.0
657.703857 88.0
657.858459 24640.0
658.202148 156.0
658.358643 25100.0
658.678284 204.0
658.862244 9028.0
659.026428 132.0
659.360596 3848.0
659.863831 1612.0
660.078796 88.0
660.354797 1036.0
660.738037 68.0
660.855347 312.0
661.097961 72.0
661.357117 524.0
661.518677 136.0
661.829468 44.0
662.034119 36.0
662.352356 384.0
662.682983 48.0
662.885071 92.0
663.00415 124.0
663.360596 168.0
663.77771 80.0
664.044617 124.0
664.142761 44.0
664.17157 44.0
664.35968 264.0
664.654236 56.0
664.824219 108.0
664.97168 156.0
665.141602 72.0
665.337341 36.0
665.685425 36.0
665.810181 128.0
665.92749 156.0
666.292725 48.0
666.582886 72.0
666.863708 17992.0
667.229553 60.0
667.365295 13244.0
667.563171 164.0
667.667297 116.0
667.860596 6460.0
668.036682 128.0
668.096069 168.0
668.213196 60.0
668.362427 1948.0
668.60376 196.0
668.865784 592.0
669.070068 80.0
669.344055 240.0
669.848022 176.0
670.1698 36.0
670.369812 336.0
670.634949 40.0
670.844604 48.0
671.076538 156.0
671.338379 340.0
671.754211 52.0
672.104126 32.0
672.359314 256.0
672.581665 36.0
672.676453 64.0
672.858093 164.0
673.035706 40.0
673.360107 1536.0
673.767151 28.0
673.868835 112.0
673.98938 60.0
674.121826 32.0
674.387817 1840.0
674.544922 68.0
674.870605 156.0
675.0224 64.0
675.181458 16.0
675.380249 1484.0
675.669861 108.0
675.85376 692.0
676.135132 36.0
676.363342 1260.0
676.859863 200.0
677.13739 32.0
677.374023 360.0
677.847717 112.0
678.15741 36.0
678.35791 204.0
678.647705 148.0
678.763977 28.0
679.358337 156.0
679.558044 40.0
679.623657 32.0
680.20575 104.0
680.358337 72.0
680.517578 84.0
680.666199 52.0
680.738892 24.0
680.799927 48.0
680.974548 40.0
681.366516 392.0
681.73999 28.0
681.880066 96.0
682.106201 148.0
682.370178 416.0
682.605713 52.0
682.738953 36.0
683.005493 36.0
683.220276 36.0
683.356689 140.0
683.855408 36.0
683.972107 44.0
684.375427 196.0
684.561462 128.0
684.69751 32.0
684.763611 60.0
685.080261 108.0
685.335144 88.0
685.570374 44.0
685.677795 48.0
685.873901 108.0
685.990784 44.0
686.386414 188.0
686.625366 56.0
686.875977 32.0
687.36499 316.0
687.856079 280.0
688.112793 24.0
688.334106 112.0
688.542542 92.0
689.099731 108.0
689.382751 232.0
689.844543 64.0
690.385498 244.0
690.600037 92.0
690.803406 96.0
691.374939 140.0
691.973694 28.0
692.4021 464.0
692.685364 32.0
692.917053 104.0
693.121643 60.0
693.382385 380.0
693.89386 40.0
694.112122 64.0
694.378845 72.0
694.88208 280.0
695.364929 352.0
695.52356 108.0
695.871094 144.0
696.359009 408.0
696.61676 24.0
696.893677 180.0
697.02063 32.0
697.372375 152.0
697.864136 112.0
698.414795 168.0
698.741333 44.0
698.889954 32.0
699.196106 48.0
699.375488 912.0
699.839905 68.0
700.086914 32.0
700.383118 820.0
700.89386 380.0
701.386841 624.0
701.751038 112.0
701.897888 192.0
702.076477 32.0
702.119629 28.0
702.186096 44.0
702.391968 556.0
702.585388 20.0
702.872681 40.0
703.007874 36.0
703.244507 96.0
703.384583 228.0
703.717896 36.0
703.896606 168.0
704.386414 424.0
704.648254 24.0
704.868286 172.0
705.07135 24.0
705.206787 24.0
705.377441 416.0
705.630066 32.0
705.879822 496.0
706.12616 96.0
706.376282 80.0
706.883667 72.0
707.381287 120.0
708.375854 84.0
708.851013 44.0
709.116943 36.0
709.379333 356.0
709.616821 36.0
709.892212 664.0
710.390076 588.0
710.634155 32.0
710.900757 140.0
711.127014 160.0
711.239258 100.0
711.875183 92.0
712.360535 100.0
713.11731 100.0
713.416443 56.0
713.647583 28.0
714.002747 32.0
714.383545 1948.0
714.667236 64.0
714.891846 1704.0
715.391235 632.0
715.655945 48.0
715.887268 168.0
716.382874 132.0
716.641113 32.0
716.768066 152.0
716.940002 88.0
717.089111 32.0
717.208618 24.0
717.380981 728.0
717.717041 36.0
718.157776 28.0
718.388123 332.0
718.555725 32.0
718.902222 288.0
719.173157 48.0
719.371765 124.0
719.925537 216.0
720.132935 32.0
720.400269 216.0
720.883667 24.0
721.396667 312.0
722.202148 32.0
722.3974 60.0
722.897278 120.0
723.123657 36.0
723.387512 3892.0
723.890381 3080.0
724.156372 136.0
724.393921 1468.0
724.881653 512.0
725.040039 48.0
725.191956 148.0
725.394226 336.0
725.616577 48.0
725.989197 36.0
726.403259 228.0
726.594238 52.0
726.925049 128.0
727.411926 128.0
727.642822 36.0
728.055542 60.0
728.428833 120.0
728.726501 56.0
728.977783 40.0
729.26001 64.0
729.401855 84.0
730.017639 32.0
730.377563 556.0
730.896301 112.0
731.031006 44.0
731.38031 156.0
731.893311 48.0
732.024353 112.0
732.397644 2872.0
732.894836 2164.0
733.403992 1048.0
733.624939 44.0
733.896118 348.0
734.396362 396.0
734.571655 24.0
735.078003 84.0
735.390381 268.0
735.885315 36.0
736.179321 28.0
736.376953 308.0
736.542542 64.0
736.78479 40.0
737.130859 28.0
737.392151 148.0
737.66748 28.0
737.979187 108.0
738.396606 68.0
738.769653 56.0
738.949219 36.0
739.219604 40.0
739.410034 428.0
739.763855 136.0
739.967163 52.0
740.421509 232.0
740.578979 36.0
740.752441 28.0
741.394287 260.0
741.875854 132.0
742.141052 36.0
742.413025 204.0
742.696838 44.0
743.079102 156.0
743.414551 704.0
743.612915 56.0
743.826477 136.0
744.408142 84.0
744.643799 44.0
745.41571 136.0
745.653076 84.0
745.89679 52.0
746.157959 36.0
746.382141 64.0
746.872009 64.0
747.046265 28.0
747.414062 100.0
749.225708 124.0
749.396118 240.0
750.37262 96.0
751.023987 32.0
751.396912 260.0
751.7229 36.0
751.897705 152.0
752.142395 36.0
752.396423 336.0
752.614502 68.0
753.391968 188.0
753.839172 24.0
754.392822 172.0
754.583862 104.0
755.187378 56.0
755.402466 220.0
756.414978 168.0
756.624512 32.0
756.90509 60.0
757.150635 32.0
757.416565 320.0
757.560181 140.0
757.957703 20.0
758.430969 60.0
758.923279 40.0
759.098877 40.0
759.221863 24.0
759.422791 392.0
759.641663 40.0
760.194031 36.0
760.395142 792.0
760.873779 28.0
760.996887 68.0
761.115173 64.0
761.406189 680.0
761.788391 40.0
762.420288 404.0
763.090881 56.0
763.205811 48.0
763.411499 212.0
763.830688 64.0
764.042114 28.0
764.427429 60.0
765.430298 64.0
765.702881 116.0
766.406128 132.0
766.563843 32.0
766.90802 40.0
767.181702 40.0
767.405029 564.0
767.764465 24.0
768.413574 444.0
768.630188 52.0
768.765869 88.0
769.089722 76.0
769.419434 936.0
770.115417 40.0
770.419067 300.0
770.69928 20.0
771.177185 28.0
771.406189 772.0
771.690613 92.0
772.408752 336.0
772.664856 164.0
772.842041 36.0
773.001587 120.0
773.412842 376.0
774.001465 40.0
774.404541 360.0
774.686157 80.0
774.93457 32.0
775.218506 24.0
775.417236 304.0
776.442688 232.0
776.650818 48.0
777.065491 168.0
777.413147 220.0
778.44281 104.0
779.110291 48.0
779.460632 340.0
780.000183 160.0
780.427246 256.0
780.837158 36.0
781.221741 48.0
781.434448 92.0
781.70343 52.0
782.120239 120.0
782.405457 112.0
783.101013 32.0
783.404297 124.0
783.607117 68.0
783.796875 132.0
783.993164 32.0
784.207397 40.0
784.415649 856.0
784.672852 56.0
784.838562 88.0
785.183533 48.0
785.4198 904.0
785.620789 124.0
785.93988 20.0
786.422058 816.0
786.712585 68.0
787.077454 44.0
787.423279 624.0
787.710083 16.0
788.139526 48.0
788.422241 160.0
788.694397 40.0
788.837646 36.0
789.088318 84.0
789.422424 1788.0
789.772827 36.0
789.894287 56.0
790.216797 40.0
790.432983 428.0
790.700684 36.0
791.130981 140.0
791.425842 352.0
791.842834 52.0
792.260925 32.0
792.412598 220.0
792.619812 52.0
793.399292 120.0
794.181946 56.0
794.413818 68.0
794.900635 36.0
795.457886 60.0
796.349243 152.0
796.82489 68.0
797.202759 80.0
797.449463 120.0
797.670837 44.0
797.940918 180.0
798.433472 120.0
798.733398 48.0
799.408142 100.0
799.658936 36.0
799.796631 44.0
799.940857 60.0
800.121155 56.0
800.408325 468.0
800.84259 24.0
801.286743 76.0
801.436035 344.0
801.907288 36.0
802.185852 48.0
802.437195 1332.0
802.999756 64.0
803.448181 912.0
803.876099 24.0
804.020691 68.0
804.4599 152.0
804.743835 36.0
805.450073 392.0
806.082581 36.0
806.438477 196.0
806.62561 44.0
807.427917 884.0
807.730347 32.0
808.056458 136.0
808.436646 664.0
808.781433 28.0
809.162231 28.0
809.44696 600.0
809.92395 20.0
810.433289 268.0
810.976501 44.0
811.15802 32.0
811.431274 372.0
811.78241 96.0
812.138733 88.0
812.416748 156.0
812.75647 28.0
812.883728 68.0
813.338135 76.0
813.50647 104.0
814.247375 144.0
814.529602 84.0
814.689392 148.0
815.411926 96.0
816.424316 40.0
816.883423 104.0
817.42981 104.0
817.96228 60.0
818.437683 340.0
818.691711 96.0
819.093018 24.0
819.443848 336.0
819.822937 48.0
820.060242 44.0
820.450012 236.0
821.439453 224.0
821.893127 92.0
822.371887 132.0
822.636108 44.0
823.46106 108.0
824.141907 100.0
824.446899 208.0
825.06958 44.0
825.447693 268.0
825.783813 28.0
826.436584 936.0
827.459229 332.0
828.432373 1392.0
828.654724 128.0
828.955933 28.0
829.176147 36.0
829.437744 516.0
830.167664 36.0
830.44104 292.0
830.893921 156.0
831.104614 48.0
831.443665 176.0
832.471863 224.0
834.084412 36.0
834.481567 212.0
834.728882 136.0
834.968323 44.0
835.454773 88.0
835.613098 84.0
836.073853 72.0
836.448425 288.0
837.253906 32.0
837.446594 204.0
837.770447 32.0
838.237976 132.0
838.385071 156.0
838.76709 48.0
839.425598 156.0
839.764282 32.0
840.022949 24.0
840.404724 72.0
840.885559 88.0
841.459595 344.0
841.834473 96.0
842.45636 188.0
843.468628 176.0
844.203552 120.0
844.436096 468.0
844.796326 32.0
844.94458 20.0
845.166931 216.0
845.454041 356.0
845.704468 80.0
846.005005 168.0
846.444946 2096.0
846.865662 52.0
847.243774 44.0
847.4505 1116.0
847.976868 40.0
848.153198 36.0
848.457214 456.0
848.710205 48.0
848.895935 32.0
849.174561 44.0
849.455261 172.0
849.862 48.0
850.031311 36.0
850.438171 28.0
851.219116 64.0
851.479492 120.0
851.926025 136.0
852.487488 448.0
852.968262 24.0
853.474487 352.0
853.737976 56.0
854.214294 44.0
854.266418 40.0
854.461914 224.0
854.654663 164.0
854.94281 32.0
855.451782 204.0
855.707153 32.0
856.447693 216.0
856.919678 128.0
857.106262 24.0
857.516907 28.0
858.464172 60.0
859.141663 92.0
859.448853 536.0
859.870544 112.0
860.461182 328.0
860.730591 24.0
861.14209 36.0
861.27301 20.0
861.461426 152.0
862.208679 76.0
862.456848 256.0
862.626221 120.0
862.814026 24.0
863.455322 152.0
863.613037 36.0
863.867859 132.0
864.45874 1460.0
864.924866 40.0
865.074829 52.0
865.262329 32.0
865.466125 884.0
865.774292 68.0
866.468384 220.0
866.969543 32.0
867.452759 140.0
867.729248 36.0
868.20874 16.0
868.461304 160.0
869.072937 124.0
869.443298 64.0
869.860535 40.0
870.069214 24.0
870.482483 1224.0
870.786255 164.0
870.971985 32.0
871.114441 120.0
871.475037 532.0
872.119934 40.0
872.484863 212.0
873.023804 24.0
873.452515 92.0
874.286194 40.0
874.459229 80.0
875.042358 36.0
875.457825 56.0
875.624939 28.0
876.530579 44.0
876.66272 28.0
876.85144 64.0
877.504272 88.0
878.520264 88.0
880.237366 124.0
880.493896 524.0
881.070557 80.0
881.483826 216.0
881.955383 48.0
882.481262 276.0
883.110535 52.0
883.47229 180.0
883.697876 68.0
883.868469 20.0
884.171692 148.0
884.460938 104.0
884.977417 64.0
885.425354 60.0
885.954346 48.0
886.462097 196.0
887.188049 40.0
887.459534 136.0
888.477112 1148.0
889.020325 44.0
889.201782 20.0
889.476135 1052.0
889.905273 172.0
890.095459 80.0
890.480896 204.0
890.894348 60.0
891.141724 32.0
891.485046 228.0
891.99823 36.0
892.483826 264.0
893.480896 104.0
894.122314 72.0
894.492554 112.0
895.119385 180.0
895.497925 104.0
895.962646 24.0
896.477905 136.0
897.356079 24.0
897.53656 212.0
897.695923 40.0
897.845459 32.0
898.148132 60.0
898.499939 908.0
898.999023 76.0
899.496643 824.0
900.491943 112.0
901.493225 124.0
901.712402 28.0
901.832642 28.0
902.212891 116.0
902.472839 180.0
903.266235 24.0
903.474304 116.0
904.457886 112.0
904.914612 16.0
905.451599 52.0
905.681824 52.0
906.535706 48.0
906.610046 64.0
907.428406 48.0
907.562805 44.0
908.119812 48.0
908.506897 136.0
909.489014 32.0
909.610535 28.0
909.791809 56.0
910.272583 32.0
910.477356 252.0
911.471802 128.0
911.608826 44.0
912.196838 32.0
912.524292 312.0
912.928589 36.0
913.519287 168.0
914.516602 156.0
914.855652 144.0
915.506348 296.0
915.762024 92.0
916.49585 348.0
916.823303 132.0
916.99707 36.0
917.463562 24.0
917.672791 36.0
918.155579 100.0
918.489136 92.0
919.460754 160.0
919.778809 76.0
920.468262 216.0
920.9198 32.0
921.151978 32.0
921.484192 116.0
922.507812 76.0
923.516235 52.0
924.586243 104.0
924.732666 76.0
925.510193 88.0
925.74292 112.0
926.510681 72.0
927.504761 132.0
928.481323 268.0
929.480713 484.0
930.505188 352.0
930.85083 56.0
931.317688 28.0
931.493225 128.0
932.498962 192.0
933.458801 76.0
934.567078 72.0
935.485352 140.0
935.953369 132.0
936.505249 188.0
937.498901 220.0
937.982666 108.0
938.497925 112.0
938.978577 104.0
939.485718 96.0
939.760071 32.0
940.092285 28.0
940.539429 68.0
941.489502 320.0
941.832581 28.0
942.263062 24.0
942.525085 96.0
942.674011 24.0
943.518066 220.0
944.455872 56.0
945.495972 180.0
946.501099 272.0
947.292908 84.0
947.496765 284.0
948.519531 272.0
949.501221 208.0
950.509705 100.0
951.049622 232.0
951.511963 84.0
952.553345 64.0
952.977173 124.0
953.134583 44.0
953.54834 288.0
954.079468 44.0
954.501465 96.0
955.103577 20.0
955.493958 1184.0
955.793213 56.0
956.502502 468.0
957.506226 308.0
958.037964 144.0
958.544067 64.0
959.159546 40.0
959.483154 192.0
960.133789 28.0
960.495239 148.0
960.943787 68.0
961.518311 80.0
961.793701 32.0
961.991394 28.0
962.529785 88.0
963.533081 372.0
964.526855 512.0
965.236572 28.0
965.502441 460.0
965.784546 36.0
965.969482 36.0
966.167603 36.0
966.490845 376.0
967.019836 36.0
967.507385 200.0
967.674072 20.0
967.906006 52.0
968.22937 20.0
968.551575 100.0
968.784851 68.0
969.036011 128.0
969.531494 96.0
970.055115 20.0
970.529785 156.0
971.539917 172.0
972.240234 40.0
972.541809 56.0
973.035461 28.0
973.192383 36.0
973.513855 1748.0
973.875122 36.0
974.510254 1416.0
974.735229 144.0
974.985107 80.0
975.522278 464.0
976.259399 136.0
976.533936 144.0
976.757385 24.0
976.941528 132.0
977.325256 56.0
977.471619 128.0
977.674072 116.0
978.292053 40.0
978.521301 136.0
978.889038 88.0
979.189453 32.0
979.329102 52.0
979.564453 40.0
980.507324 84.0
980.725952 32.0
981.534668 2852.0
981.924133 40.0
982.545166 1664.0
982.94574 60.0
983.280396 32.0
983.539001 344.0
983.727661 68.0
984.202576 32.0
984.530701 236.0
985.302795 28.0
985.499756 152.0
985.82312 32.0
986.303528 32.0
986.500916 116.0
986.904175 40.0
987.5271 240.0
988.554321 308.0
989.565491 104.0
989.810059 24.0
990.490906 72.0
990.519165 68.0
990.615234 96.0
990.953491 32.0
991.520752 1328.0
992.25824 76.0
992.519653 1028.0
993.172119 64.0
993.518982 404.0
994.126587 40.0
994.287354 40.0
994.531738 168.0
995.051331 24.0
995.529907 60.0
995.855835 180.0
996.671326 60.0
996.97522 76.0
997.539673 100.0
998.188782 68.0
998.517944 40.0
998.956116 40.0
999.225464 48.0
999.54425 5628.0
999.986755 28.0
1000.185486 28.0
1000.326599 56.0
1000.552673 2536.0
1000.978638 52.0
1001.550659 832.0
1002.091492 72.0
1002.54541 532.0
1003.578857 304.0
1004.540527 96.0
1004.792297 32.0
1005.5047 44.0
1006.639465 32.0
1007.300537 52.0
1007.546143 36.0
1008.28595 96.0
1009.581787 24.0
1010.594788 28.0
1010.817688 40.0
1011.519714 76.0
1011.854919 48.0
1012.176025 60.0
1012.530029 176.0
1013.532715 104.0
1014.225403 48.0
1014.59082 48.0
1015.579651 188.0
1016.337769 116.0
1016.573059 112.0
1016.866211 112.0
1017.544739 448.0
1018.309998 52.0
1018.554565 92.0
1019.184875 40.0
1019.53418 108.0
1019.775085 28.0
1020.561523 140.0
1021.520142 64.0
1021.974792 20.0
1022.547668 36.0
1023.56189 68.0
1024.527466 68.0
1025.31958 84.0
1025.523682 28.0
1026.52417 56.0
1027.569214 100.0
1027.803467 116.0
1028.179199 132.0
1028.560425 164.0
1029.140015 20.0
1029.562378 192.0
1029.855957 36.0
1030.53833 120.0
1031.165527 52.0
1031.566895 120.0
1031.796021 80.0
1032.598999 92.0
1033.234009 36.0
1033.586914 132.0
1034.115356 36.0
1034.299805 124.0
1034.581299 168.0
1035.099487 36.0
1035.559204 540.0
1035.899536 28.0
1036.545776 500.0
1037.315674 44.0
1037.533691 148.0
1038.558716 164.0
1039.548218 140.0
1040.554321 148.0
1041.625977 88.0
1042.589111 68.0
1042.804565 36.0
1043.484009 108.0
1043.731079 36.0
1044.101807 28.0
1044.575684 24.0
1044.967163 76.0
1045.559204 184.0
1046.546021 140.0
1047.550659 68.0
1048.585571 168.0
1049.588013 56.0
1050.514282 52.0
1051.323486 40.0
1051.592163 72.0
1052.584595 124.0
1052.750122 68.0
1054.559326 64.0
1054.819458 28.0
1055.527588 156.0
1056.5177 124.0
1057.383667 92.0
1057.46521 72.0
1057.540283 40.0
1058.54248 104.0
1059.233765 36.0
1059.586548 64.0
1060.535034 108.0
1061.529785 44.0
1062.579224 156.0
1063.070557 132.0
1063.283203 56.0
1063.582397 100.0
1064.13562 76.0
1064.551514 28.0
1066.589111 100.0
1067.587402 128.0
1068.569458 132.0
1069.611572 76.0
1069.799194 44.0
1070.589355 36.0
1070.821045 76.0
1071.601807 160.0
1072.549194 76.0
1072.991577 76.0
1073.534546 92.0
1074.572876 432.0
1075.164307 64.0
1075.552979 424.0
1075.91687 88.0
1076.063232 44.0
1076.564819 164.0
1077.569336 76.0
1077.958984 136.0
1078.364624 64.0
1078.594482 116.0
1079.097412 48.0
1079.568115 100.0
1080.589111 60.0
1081.381104 28.0
1081.779419 28.0
1082.219727 108.0
1082.551025 60.0
1083.578003 112.0
1084.601685 132.0
1085.606201 152.0
1086.123779 84.0
1086.590698 80.0
1087.585815 132.0
1090.562988 44.0
1091.38208 44.0
1091.655884 28.0
1092.363403 136.0
1092.590576 188.0
1092.877808 28.0
1093.19397 40.0
1093.570435 100.0
1094.574707 164.0
1095.608643 128.0
1096.577026 204.0
1097.516602 36.0
1097.626831 36.0
1098.579956 52.0
1099.039917 20.0
1099.547119 68.0
1100.601318 112.0
1101.58313 148.0
1102.603027 184.0
1102.868286 128.0
1103.574585 32.0
1103.990479 36.0
1104.181152 36.0
1104.571777 124.0
1104.964966 36.0
1105.19812 72.0
1105.599854 176.0
1106.279175 28.0
1106.580933 104.0
1106.734375 84.0
1107.318359 80.0
1107.594116 96.0
1108.52771 84.0
1110.593872 156.0
1111.599854 40.0
1112.583862 300.0
1112.840332 96.0
1113.031738 32.0
1113.605225 156.0
1114.071777 36.0
1114.607544 224.0
1115.414917 144.0
1115.602051 28.0
1116.032349 20.0
1116.656372 108.0
1117.012207 112.0
1117.331787 36.0
1117.608765 64.0
1118.588501 100.0
1119.65686 64.0
1119.975464 32.0
1120.646606 44.0
1121.234497 32.0
1121.661377 32.0
1122.323364 32.0
1122.589966 72.0
1122.884888 56.0
1123.63269 76.0
1123.989746 56.0
1124.459961 28.0
1124.618896 88.0
1125.058472 40.0
1126.44873 76.0
1126.726807 76.0
1127.272095 44.0
1128.61853 256.0
1129.438477 124.0
1129.61377 128.0
1129.917358 72.0
1130.369507 40.0
1130.609497 620.0
1131.117554 24.0
1131.613037 560.0
1132.611694 436.0
1132.81189 48.0
1133.650146 128.0
1134.27124 40.0
1134.595825 76.0
1135.387939 36.0
1135.602661 56.0
1136.139771 36.0
1136.642578 88.0
1139.817017 24.0
1140.591797 20.0
1141.625488 48.0
1142.605103 76.0
1146.600952 476.0
1147.150269 40.0
1147.594482 336.0
1148.376831 52.0
1148.610474 168.0
1148.901733 40.0
1149.633545 144.0
1150.622681 48.0
1151.230103 44.0
1151.602539 128.0
1152.008789 44.0
1152.614746 32.0
1154.411621 80.0
1154.628296 64.0
1155.34314 28.0
1157.609375 100.0
1158.009766 48.0
1158.595581 28.0
1158.769165 28.0
1159.333374 128.0
1159.724121 48.0
1160.114868 56.0
1160.624634 48.0
1161.656982 108.0
1163.526123 44.0
1164.686523 88.0
1165.658081 64.0
1166.579224 100.0
1167.628296 232.0
1167.987915 32.0
1168.629028 164.0
1168.881226 40.0
1169.077393 20.0
1169.624634 152.0
1169.993042 56.0
1170.625488 80.0
1171.643433 172.0
1172.632812 32.0
1173.113159 72.0
1175.078857 40.0
1175.47229 28.0
1175.647095 104.0
1177.155762 96.0
1177.639893 80.0
1178.643433 28.0
1179.300049 40.0
1179.639893 76.0
1180.372925 32.0
1180.635742 60.0
1182.629761 44.0
1183.584961 64.0
1183.857666 44.0
1184.471924 28.0
1184.647461 64.0
1184.888794 96.0
1185.639038 608.0
1186.139771 36.0
1186.625488 512.0
1187.116333 68.0
1187.656982 276.0
1188.050659 40.0
1188.648682 356.0
1188.892212 40.0
1189.651123 136.0
1190.661499 68.0
1191.539307 36.0
1192.647095 40.0
1194.651245 32.0
1195.025879 40.0
1196.625244 40.0
1197.621216 84.0
1198.642578 52.0
1199.746216 48.0
1200.143677 44.0
1200.651733 48.0
1200.828369 36.0
1201.601685 36.0
1202.618286 28.0
1203.644897 376.0
1204.144165 80.0
1204.638916 400.0
1205.667603 208.0
1206.24646 28.0
1206.675781 188.0
1207.043579 64.0
1207.65686 64.0
1208.616577 48.0
1209.281494 84.0
1210.855835 36.0
1211.676758 64.0
1212.675415 48.0
1213.642334 48.0
1214.118774 24.0
1214.622681 108.0
1215.639282 64.0
1216.674438 64.0
1219.655762 108.0
1221.654907 72.0
1222.172607 100.0
1222.630005 100.0
1223.661011 160.0
1224.580566 32.0
1225.138306 124.0
1225.629272 36.0
1226.656006 52.0
1228.800293 124.0
1229.917725 68.0
1231.682739 172.0
1232.24231 60.0
1232.648071 96.0
1233.651733 100.0
1234.661743 76.0
1235.692261 64.0
1236.364624 84.0
1236.633545 40.0
1240.335083 96.0
1241.749878 68.0
1242.64856 52.0
1243.659912 32.0
1245.728882 24.0
1250.63855 56.0
1251.585449 76.0
1252.803589 52.0
1253.95459 144.0
1257.116699 84.0
1259.692993 56.0
1260.66272 120.0
1261.682495 100.0
1262.682861 68.0
1263.679688 40.0
1264.641479 36.0
1268.715332 40.0
1269.169434 52.0
1270.805054 132.0
1276.765747 120.0
1277.659912 100.0
1278.678711 260.0
1279.656494 120.0
1280.681396 36.0
1281.626587 40.0
1282.722412 56.0
1284.955933 92.0
1286.715942 56.0
1287.751953 108.0
1289.667358 48.0
1290.720581 68.0
1291.04126 48.0
1296.692993 132.0
1297.708008 112.0
1298.692261 124.0
1300.665894 84.0
1301.736694 32.0
1302.67981 96.0
1303.807495 104.0
1304.705322 56.0
1305.720947 40.0
1307.631104 24.0
1309.498901 84.0
1311.668213 24.0
1313.192383 36.0
1313.67749 20.0
1314.711182 556.0
1314.899048 56.0
1315.457153 40.0
1315.709961 232.0
1316.081421 44.0
1316.536133 48.0
1316.717407 156.0
1317.399902 24.0
1317.701538 384.0
1318.070923 20.0
1318.730103 120.0
1319.701416 112.0
1320.108276 100.0
1320.432617 72.0
1320.704224 64.0
1321.359253 100.0
1323.863037 48.0
1324.55896 48.0
1324.721313 64.0
1325.138916 36.0
1328.064331 36.0
1329.69104 72.0
1331.109253 44.0
1332.458618 36.0
1332.717407 168.0
1333.179932 24.0
1333.734131 364.0
1334.3125 44.0
1334.713257 276.0
1335.731445 144.0
1336.711548 176.0
1337.63855 40.0
1337.979004 52.0
1339.910034 132.0
1340.685059 32.0
1344.679321 28.0
1345.716187 60.0
1346.737061 48.0
1350.248413 36.0
1350.728638 96.0
1351.727783 136.0
1352.730591 88.0
1354.444458 36.0
1355.33606 32.0
1359.845581 80.0
1362.752319 68.0
1363.915283 48.0
1367.543213 120.0
1369.429688 108.0
1375.995361 20.0
1398.431519 36.0
1400.697021 40.0
1403.800171 108.0
1414.424561 28.0
1418.959229 64.0
1427.737183 32.0
1438.040527 32.0
1448.842041 52.0
1452.192261 148.0
1458.977661 108.0
1468.977539 44.0
1476.022339 56.0
1494.471802 172.0
1503.751831 76.0
1510.28479 80.0
1510.780396 88.0
1522.025146 108.0
1522.273804 36.0
1532.413208 104.0
1553.92334 108.0
1568.304688 96.0
1581.738037 32.0
1603.896729 152.0
1618.942993 140.0
1620.174316 108.0
1647.512085 16.0
1678.863647 68.0
1683.228394 76.0
1799.401855 88.0
1859.052124 64.0
1984.818848 52.0
END IONS
