BEGIN IONS
PEPMASS=617.377
CHARGE=2
MSLEVEL=2
SOURCE_INSTRUMENT=LC-ESI-qTof
FILENAME=f.philipwi/0_WilliamsFreshwaterCyanosStandardsConvertedTo_mzXML_v2/PW-11_P1-B-2_Puwainaphycin_B_1232amu_01_15528_Scan752-779.mzXML;
SEQ=*..*
IONMODE=Positive
ORGANISM=GNPS-LIBRARY
NAME=Puwainaphycin B M+H
PI=Philip Williams
DATACOLLECTOR=Williams
SMILES=NC(C[C@H]1C(N2[C@H](C(N[C@@H]([C@@H](O)C(N[C@@H](C(C)C)C(N/C(C(N[C@H](C(N[C@H](C(N[C@@H](CCC(N)=O)C(NCC(N[C@H](C(N1C)=O)[C@@H](OC)C)=O)=O)=O)C(C)C)=O)[C@@H](O)C)=O)=C/C)=O)=O)[C@@H](C)CCCCCCCCCC(CCCC)=O)=O)CCC2)=O)=O
INCHI=
INCHIAUX=
PUBMED=
SUBMITUSER=philipwi
TAGS=
LIBRARYQUALITY=3
SPECTRUMID=CCMSLIB00000424832
SCANS=758
74.271347 120.0
79.064697 76.0
99.826508 36.0
100.937691 80.0
102.480446 36.0
130.694626 76.0
136.484985 104.0
140.045105 24.0
145.052536 40.0
152.602631 48.0
153.082123 208.0
154.648865 68.0
155.094284 80.0
158.090225 144.0
158.709961 128.0
166.093414 76.0
166.858292 36.0
167.084808 380.0
167.192383 36.0
168.087387 56.0
169.065903 500.0
169.3293 140.0
169.852264 32.0
169.968582 32.0
171.29248 40.0
172.261597 28.0
172.805817 48.0
172.914764 60.0
173.134842 316.0
173.41806 48.0
173.938889 32.0
178.193192 32.0
179.062164 112.0
180.108582 72.0
180.301117 36.0
180.935043 64.0
181.089417 76.0
182.102554 76.0
182.223465 60.0
183.106934 68.0
183.184677 108.0
183.343781 60.0
183.913879 28.0
184.117813 124.0
185.097778 152.0
185.256226 24.0
186.088959 184.0
187.09137 144.0
189.821548 32.0
189.944519 84.0
193.120331 76.0
194.087082 124.0
194.869354 32.0
195.071625 132.0
196.08139 124.0
197.14502 92.0
197.368835 108.0
198.106827 24.0
198.168823 132.0
199.100967 88.0
200.145676 36.0
202.125488 80.0
204.069504 40.0
204.30632 40.0
206.09166 220.0
206.233307 28.0
206.892929 32.0
208.988678 64.0
210.123672 136.0
211.112778 212.0
212.107437 140.0
212.551529 32.0
213.053665 124.0
218.164062 72.0
218.587952 20.0
219.097794 120.0
219.210403 72.0
220.183563 40.0
221.137115 148.0
221.22525 84.0
222.126862 272.0
222.76384 52.0
222.887543 36.0
222.97319 32.0
223.109451 64.0
224.104507 340.0
224.613373 32.0
225.100845 48.0
226.082428 176.0
226.163681 16.0
227.110825 200.0
228.135239 980.0
229.135529 116.0
230.108246 164.0
230.536774 24.0
230.64325 36.0
231.112122 156.0
234.067368 36.0
234.258545 44.0
238.144974 100.0
239.143234 392.0
239.285172 60.0
239.773682 36.0
240.133118 48.0
241.108063 196.0
241.982574 88.0
242.111557 144.0
243.133774 160.0
244.136673 336.0
244.634628 24.0
246.132431 52.0
246.242447 32.0
247.023285 36.0
247.163559 124.0
247.394119 168.0
247.56459 80.0
247.703186 408.0
248.202744 176.0
248.704391 148.0
248.829926 40.0
249.130341 148.0
249.634995 48.0
249.896927 24.0
250.115906 132.0
250.29007 20.0
250.774368 72.0
251.113892 1336.0
251.764603 44.0
251.865753 32.0
251.999298 40.0
252.1008 1880.0
252.331314 32.0
252.625046 20.0
252.858124 36.0
253.102753 280.0
253.457794 32.0
254.187729 148.0
255.183655 80.0
256.128479 204.0
257.388885 20.0
257.777649 32.0
258.115509 92.0
258.207672 28.0
261.166077 92.0
262.135315 120.0
262.414032 24.0
263.127014 140.0
263.230438 104.0
264.234558 40.0
265.116058 76.0
265.240631 56.0
265.759949 28.0
266.078552 80.0
266.15152 440.0
266.342194 52.0
266.72467 32.0
266.96402 76.0
267.13504 448.0
267.279297 32.0
267.392914 40.0
267.665039 76.0
267.925812 24.0
268.040619 44.0
268.139099 276.0
268.265656 4992.0
268.651733 40.0
268.750732 36.0
268.910126 32.0
269.126709 3580.0
269.265472 1424.0
269.450287 40.0
269.629242 48.0
269.686249 36.0
269.859589 40.0
269.932892 36.0
270.128296 500.0
270.320526 56.0
270.48822 68.0
270.582581 48.0
270.739899 36.0
270.823822 40.0
270.907745 128.0
271.132141 104.0
272.936462 76.0
273.237213 80.0
273.600311 28.0
274.127777 48.0
274.602905 40.0
274.867035 32.0
275.141876 28.0
278.833771 36.0
279.132996 72.0
280.101868 24.0
280.261749 508.0
280.998749 20.0
281.264923 284.0
282.061035 68.0
282.175385 96.0
282.273041 132.0
282.700317 40.0
282.979034 48.0
283.139893 164.0
283.865723 32.0
284.149506 156.0
285.145935 288.0
286.187439 88.0
287.126221 116.0
287.587128 24.0
287.954773 44.0
289.210907 72.0
289.926819 20.0
290.404602 120.0
291.121979 100.0
291.223633 244.0
292.145264 68.0
292.221527 120.0
293.159393 200.0
294.153442 76.0
295.142914 116.0
296.157532 52.0
296.2453 56.0
296.398926 36.0
296.53064 28.0
296.887817 36.0
297.123688 108.0
298.057678 32.0
298.179199 136.0
298.27597 3588.0
298.686005 24.0
298.940826 32.0
299.121918 36.0
299.277283 744.0
300.020508 52.0
300.279205 288.0
300.876282 44.0
300.987915 44.0
301.154968 700.0
301.4133 48.0
302.158325 104.0
303.020142 36.0
303.230225 228.0
303.586334 44.0
303.728729 112.0
304.222717 104.0
304.512573 36.0
306.119537 112.0
306.235474 36.0
307.105652 84.0
307.229065 96.0
307.517395 40.0
308.260559 712.0
309.126129 76.0
309.260498 188.0
310.158569 144.0
310.271942 104.0
311.17337 212.0
311.275818 92.0
311.743408 124.0
312.097351 36.0
313.150024 208.0
313.506592 32.0
313.596893 32.0
313.935638 144.0
314.154236 136.0
314.444092 36.0
315.177887 232.0
315.292419 120.0
320.58905 36.0
320.885864 48.0
321.156616 96.0
322.317657 64.0
323.172211 356.0
323.643677 120.0
323.941925 24.0
324.176544 108.0
324.313538 52.0
324.676605 32.0
324.906372 32.0
325.147705 96.0
326.148468 104.0
326.270264 272.0
326.943298 28.0
327.277649 56.0
327.439117 36.0
328.143097 124.0
328.870972 20.0
329.180054 996.0
329.287262 96.0
330.097473 136.0
330.191223 100.0
330.740662 112.0
331.117432 32.0
331.228363 164.0
331.709259 124.0
332.16861 80.0
333.069 76.0
333.164307 84.0
334.186768 76.0
335.149231 96.0
336.124908 96.0
336.310974 96.0
336.392822 40.0
337.193115 88.0
338.019897 36.0
338.174927 84.0
338.688232 32.0
340.191498 80.0
340.991455 20.0
341.17984 204.0
342.169586 64.0
342.948273 24.0
343.196228 212.0
343.515137 32.0
344.177063 32.0
344.74292 468.0
344.886993 60.0
345.253326 236.0
345.585785 24.0
345.736542 200.0
346.214142 124.0
346.878662 36.0
347.305695 92.0
348.30954 60.0
348.69751 28.0
349.316315 364.0
350.181122 116.0
350.67627 20.0
351.166168 512.0
351.333099 100.0
351.416748 36.0
351.69165 20.0
352.174042 356.0
352.540924 32.0
353.153748 136.0
353.243683 216.0
353.460114 36.0
353.745331 900.0
353.990631 40.0
354.143036 68.0
354.236847 276.0
354.422516 32.0
354.740234 108.0
354.830658 40.0
355.154938 132.0
355.731812 40.0
356.008362 48.0
356.173767 144.0
356.549805 40.0
358.209808 96.0
358.743866 64.0
360.169952 76.0
360.290955 64.0
360.654022 80.0
361.162628 76.0
361.329834 140.0
362.077179 36.0
362.156708 148.0
362.321289 120.0
362.933502 44.0
363.164276 88.0
363.297913 176.0
364.185394 68.0
364.287994 68.0
365.309082 380.0
366.226227 68.0
366.329559 48.0
366.781128 92.0
367.171875 144.0
367.239594 96.0
367.685059 48.0
367.782867 52.0
368.189301 500.0
368.602386 84.0
369.199341 100.0
370.176697 112.0
371.161957 124.0
371.270477 84.0
371.778931 136.0
372.233856 112.0
372.479858 44.0
372.75058 120.0
373.250519 92.0
373.72345 100.0
375.179016 120.0
375.290131 28.0
376.328156 200.0
377.319397 216.0
378.187042 252.0
378.318176 288.0
379.003967 28.0
379.177704 84.0
379.337006 188.0
379.612274 20.0
379.960114 48.0
380.047119 48.0
380.177124 100.0
380.315552 1064.0
380.569214 24.0
380.769318 388.0
381.293945 64.0
381.863617 52.0
382.32251 164.0
382.910675 44.0
383.227661 128.0
383.322418 44.0
384.196564 64.0
384.746521 116.0
384.971619 28.0
385.960297 28.0
386.204559 112.0
386.411285 28.0
387.213654 296.0
387.301453 56.0
387.765778 44.0
390.154419 60.0
390.252014 80.0
391.301056 124.0
392.184204 96.0
392.285217 20.0
392.929382 36.0
393.200104 76.0
393.314728 220.0
393.574066 28.0
393.735413 140.0
393.890289 24.0
394.266998 456.0
394.523102 32.0
394.796265 112.0
395.014343 44.0
395.189789 388.0
395.324951 10164.0
395.543915 28.0
395.750732 36.0
395.910736 40.0
396.093658 144.0
396.189728 200.0
396.331299 2864.0
396.602325 32.0
396.87619 28.0
397.182709 500.0
397.34137 1308.0
397.554993 60.0
397.720245 100.0
397.83252 24.0
397.974518 32.0
398.172699 100.0
398.340057 688.0
399.234467 112.0
399.330017 64.0
399.451019 44.0
400.088287 56.0
400.223328 68.0
400.330597 60.0
400.99408 40.0
401.223877 96.0
401.377136 40.0
401.658142 32.0
402.284363 128.0
402.872711 128.0
403.27771 124.0
403.423065 40.0
403.770935 244.0
404.294189 104.0
404.781372 88.0
404.89682 56.0
405.044342 28.0
405.314087 340.0
406.173706 136.0
406.321838 136.0
406.488922 84.0
406.617432 36.0
406.977417 32.0
407.200104 64.0
407.322296 1736.0
407.775116 40.0
407.968231 52.0
408.071228 28.0
408.200012 36.0
408.330017 360.0
408.781708 108.0
409.341675 272.0
409.837311 52.0
410.172882 80.0
410.33429 64.0
410.934937 36.0
411.189575 284.0
411.594238 36.0
411.776215 56.0
412.209961 128.0
412.784882 32.0
413.196198 128.0
414.044373 92.0
414.262634 96.0
414.755798 36.0
415.249268 28.0
416.323029 92.0
417.147949 60.0
417.47348 24.0
417.782562 368.0
418.164062 36.0
418.26474 124.0
418.933502 20.0
419.194489 76.0
419.795074 20.0
420.330719 68.0
421.038849 100.0
421.206818 52.0
421.350739 68.0
421.95285 28.0
422.213562 84.0
422.384308 68.0
423.324097 940.0
423.630585 52.0
423.774902 48.0
423.984894 28.0
424.319855 436.0
424.641418 48.0
424.891052 56.0
425.225708 132.0
425.334259 156.0
426.23761 140.0
427.18045 36.0
427.588959 40.0
428.578125 32.0
429.210205 256.0
429.383514 100.0
429.528809 32.0
430.176422 80.0
430.335083 128.0
431.790894 132.0
432.360687 100.0
433.036926 48.0
433.331665 252.0
433.580963 32.0
433.75354 56.0
434.197479 200.0
434.340118 168.0
435.108765 52.0
435.215118 84.0
435.321167 508.0
435.574249 36.0
435.773834 108.0
436.013397 68.0
436.186462 184.0
436.32489 80.0
438.239105 88.0
438.986725 28.0
439.227142 80.0
440.346466 344.0
441.139648 36.0
441.233368 136.0
441.367279 36.0
443.165009 40.0
443.316498 440.0
444.315979 44.0
444.479706 112.0
444.771027 196.0
445.891937 28.0
446.276917 108.0
446.5383 40.0
448.952728 24.0
449.371521 64.0
450.282471 92.0
451.227295 180.0
451.357117 304.0
451.671661 28.0
451.820709 52.0
452.21814 476.0
452.339233 88.0
452.851074 56.0
453.221649 64.0
453.342316 176.0
453.801117 156.0
454.208588 128.0
454.317291 96.0
454.507538 108.0
454.996918 24.0
455.472931 32.0
455.704224 36.0
455.908386 32.0
456.235107 100.0
456.425751 44.0
456.739014 28.0
457.038788 36.0
457.280701 208.0
458.309601 172.0
458.934998 24.0
460.350861 240.0
461.22522 88.0
461.335724 376.0
461.68396 40.0
462.202454 76.0
462.343781 308.0
463.342773 112.0
464.235077 44.0
464.344971 100.0
464.605988 32.0
465.073273 36.0
465.183258 28.0
465.35202 148.0
466.181641 76.0
466.376129 192.0
466.834564 24.0
467.041168 44.0
467.300598 608.0
467.537262 108.0
467.688873 24.0
467.800293 508.0
468.041138 44.0
468.212891 104.0
468.309448 88.0
468.812531 52.0
469.013245 68.0
469.238983 896.0
469.441284 32.0
469.855713 72.0
470.076843 40.0
470.242706 144.0
470.768127 40.0
471.234985 128.0
471.902954 36.0
472.346161 80.0
473.328033 208.0
473.968506 32.0
474.343262 104.0
474.884888 84.0
475.315613 72.0
475.579681 60.0
475.78421 124.0
475.98291 92.0
476.340607 56.0
477.352142 104.0
477.945862 76.0
478.235413 88.0
478.348724 208.0
479.258484 64.0
479.376617 88.0
480.35907 72.0
481.25824 132.0
481.618073 36.0
482.289795 156.0
483.26535 120.0
484.442047 56.0
485.2341 80.0
485.374512 44.0
486.273743 36.0
486.50531 76.0
486.817566 92.0
487.300446 168.0
487.807159 164.0
488.342285 216.0
488.53952 24.0
489.314758 64.0
490.230194 84.0
490.360443 252.0
491.3349 80.0
491.601746 36.0
492.374115 68.0
492.910004 48.0
493.186005 52.0
493.334991 92.0
493.908234 56.0
494.082794 64.0
494.242554 92.0
494.391815 3244.0
494.656708 32.0
495.158875 36.0
495.400879 604.0
495.822601 480.0
496.313812 460.0
496.603607 28.0
496.821594 140.0
497.251282 116.0
497.360657 132.0
497.612701 32.0
497.783356 48.0
498.366638 56.0
499.220825 36.0
500.27536 92.0
501.298431 128.0
502.259155 60.0
502.373444 96.0
503.116669 20.0
503.30481 300.0
504.365021 276.0
504.705048 40.0
505.268463 52.0
505.387299 32.0
505.53598 20.0
505.791595 160.0
506.08078 36.0
506.355011 376.0
506.640198 36.0
506.812408 60.0
507.243011 48.0
507.362518 136.0
507.669037 36.0
507.831818 48.0
507.96109 40.0
508.248474 76.0
508.372711 2344.0
508.812073 168.0
509.039185 36.0
509.230164 104.0
509.377899 368.0
509.513916 68.0
510.399933 96.0
510.819855 76.0
511.256165 160.0
511.660095 24.0
512.265869 84.0
512.799866 116.0
513.955322 40.0
514.258545 120.0
514.547974 52.0
514.663696 24.0
514.904724 108.0
515.281555 88.0
516.11084 24.0
516.253845 32.0
516.386047 72.0
516.835205 80.0
517.241028 44.0
517.893616 32.0
518.233032 88.0
518.369751 404.0
519.156494 84.0
519.378174 84.0
519.814819 284.0
520.318848 132.0
520.799011 136.0
521.250122 64.0
521.369507 108.0
521.570312 40.0
521.854553 108.0
522.158752 72.0
522.389465 1264.0
522.677307 20.0
522.837646 84.0
523.114624 28.0
523.39032 536.0
523.840515 228.0
524.237854 32.0
524.378967 136.0
524.559021 48.0
524.836426 100.0
525.070129 88.0
525.245422 28.0
525.398926 108.0
525.669189 56.0
525.859192 36.0
526.341675 96.0
527.282837 92.0
528.309448 156.0
528.824585 108.0
529.321228 324.0
529.989502 32.0
530.253662 96.0
530.356445 68.0
530.826294 52.0
531.325806 72.0
531.752014 20.0
532.378418 280.0
532.678467 36.0
532.825623 24.0
533.414307 132.0
534.275452 52.0
534.415955 84.0
534.725464 20.0
534.858093 36.0
535.249146 392.0
535.396118 116.0
535.831543 84.0
536.008606 48.0
536.355774 344.0
536.864929 92.0
537.0802 84.0
537.335022 836.0
537.592102 56.0
537.837463 416.0
538.313416 52.0
538.742371 32.0
538.857056 96.0
539.053162 32.0
539.398376 316.0
539.689758 24.0
539.856262 292.0
539.985962 112.0
540.295959 108.0
540.426636 164.0
540.635803 28.0
540.875122 36.0
541.37207 116.0
542.061768 32.0
543.918518 44.0
544.320007 48.0
544.885254 48.0
545.453247 64.0
546.359375 84.0
548.338196 76.0
548.440735 60.0
548.895325 36.0
549.403198 28.0
550.255249 124.0
550.419739 100.0
551.425781 220.0
551.856384 92.0
552.269043 320.0
552.400208 152.0
553.305115 116.0
553.519836 32.0
553.639832 44.0
554.289734 80.0
556.298584 76.0
556.809143 44.0
558.314331 100.0
559.323975 60.0
559.428894 52.0
559.859558 208.0
560.38324 52.0
560.847656 92.0
561.089233 44.0
561.37616 72.0
562.192017 40.0
562.402893 156.0
562.963135 32.0
563.403687 104.0
563.522888 36.0
563.704468 88.0
564.370239 104.0
565.309937 64.0
566.08313 48.0
566.295471 56.0
567.293335 64.0
568.284424 64.0
568.436401 24.0
569.262756 88.0
569.394287 80.0
569.83551 96.0
570.337769 92.0
570.885925 88.0
571.325134 120.0
573.391785 76.0
574.241638 16.0
574.403687 116.0
575.392517 132.0
576.259766 32.0
576.412842 80.0
577.419434 220.0
577.622498 116.0
578.250793 68.0
578.423279 48.0
578.848755 56.0
579.283142 172.0
579.412231 204.0
580.268555 184.0
580.418152 64.0
580.644592 108.0
581.274536 124.0
581.412842 40.0
583.443542 60.0
583.766907 36.0
584.312988 288.0
585.305298 212.0
585.863464 124.0
586.372742 72.0
587.401672 200.0
587.880127 100.0
588.362305 92.0
588.705872 48.0
589.365234 168.0
590.408447 64.0
590.795715 40.0
591.412109 404.0
592.376282 68.0
592.395569 108.0
592.703064 64.0
593.028992 36.0
593.455078 100.0
594.387512 60.0
594.862183 132.0
595.328674 76.0
597.290466 316.0
597.58606 44.0
597.897766 44.0
598.301758 336.0
599.301453 64.0
600.003906 40.0
600.441162 80.0
600.925476 40.0
601.360352 512.0
601.870361 436.0
602.07196 24.0
602.365173 332.0
602.551758 32.0
602.755188 56.0
602.880371 120.0
603.011719 144.0
603.385803 56.0
603.794128 56.0
603.997375 36.0
604.133179 36.0
604.487366 20.0
604.529419 56.0
604.982422 44.0
605.172363 108.0
605.426025 8256.0
605.690552 36.0
605.965759 64.0
606.090027 68.0
606.427551 4020.0
606.689758 72.0
606.893921 32.0
607.026306 80.0
607.434875 820.0
607.663635 32.0
608.395264 132.0
608.856018 76.0
609.094421 112.0
609.428101 180.0
609.645203 44.0
609.755371 32.0
609.86554 40.0
610.337952 36.0
610.558411 36.0
611.317871 128.0
611.566895 40.0
612.395752 172.0
613.112793 28.0
613.335388 40.0
614.060181 28.0
614.202332 20.0
614.328735 60.0
614.452515 48.0
615.418213 208.0
616.447754 48.0
617.429382 284.0
617.567078 52.0
617.888855 100.0
618.421265 128.0
618.903381 24.0
619.252319 104.0
619.41095 20.0
620.077454 44.0
620.436646 40.0
620.855469 40.0
620.996155 28.0
621.443298 36.0
621.7771 56.0
622.026001 456.0
622.285828 100.0
622.450867 180.0
622.715271 28.0
623.029602 164.0
623.240295 132.0
623.456787 40.0
624.441833 88.0
625.438354 148.0
626.57074 28.0
627.480591 16.0
629.078369 44.0
629.331116 244.0
630.198059 68.0
630.390137 96.0
631.382812 44.0
632.424377 84.0
633.418701 72.0
634.447998 156.0
635.457825 76.0
636.132935 60.0
638.32135 40.0
639.255798 48.0
639.658813 80.0
640.981506 36.0
643.406006 264.0
643.77655 32.0
644.428711 352.0
645.450012 144.0
645.929504 24.0
646.463257 64.0
647.298157 92.0
647.36731 40.0
647.424927 80.0
648.280762 28.0
648.443115 80.0
649.244446 80.0
649.417419 84.0
650.435852 132.0
651.428772 128.0
651.888977 48.0
652.45874 76.0
654.289368 68.0
655.343933 76.0
656.470398 44.0
659.462708 56.0
660.467773 64.0
660.707397 24.0
661.454712 312.0
661.658081 24.0
662.466492 604.0
662.904846 28.0
663.085388 32.0
663.314636 68.0
663.442444 108.0
664.169189 64.0
664.317078 40.0
664.467346 52.0
664.990906 32.0
665.467651 68.0
665.714355 156.0
667.442444 64.0
667.80481 28.0
668.661682 136.0
670.475464 140.0
671.053955 28.0
671.450317 164.0
672.441772 124.0
673.483582 28.0
674.436279 80.0
675.453613 80.0
676.421814 104.0
677.476318 48.0
678.473633 308.0
679.470154 100.0
679.81781 60.0
680.354675 116.0
680.470337 96.0
681.355835 60.0
681.88031 32.0
684.386292 68.0
684.726929 48.0
685.419617 440.0
686.410645 156.0
687.167236 40.0
687.424744 68.0
687.785645 36.0
688.164673 40.0
688.46283 2464.0
688.846313 44.0
689.173889 52.0
689.462524 648.0
689.994141 48.0
690.15741 48.0
690.466125 440.0
690.798096 48.0
691.508606 92.0
691.937866 32.0
692.072021 32.0
695.379639 68.0
696.556763 24.0
697.482422 24.0
698.358093 40.0
700.465393 156.0
701.258606 24.0
701.427368 48.0
702.34314 108.0
702.812439 32.0
702.964539 20.0
703.234985 36.0
704.063538 24.0
704.469543 24.0
704.994141 172.0
705.163452 32.0
705.492676 84.0
705.688293 28.0
705.965576 32.0
706.116211 104.0
706.475403 3184.0
707.026672 20.0
707.230103 40.0
707.47345 1508.0
708.488098 416.0
709.475403 128.0
709.996033 32.0
710.981567 36.0
711.984741 36.0
712.359009 96.0
712.614197 52.0
714.333923 72.0
715.469238 56.0
716.46521 48.0
717.4552 132.0
717.728394 76.0
718.392029 80.0
719.471375 200.0
720.600342 32.0
722.466736 112.0
723.501953 96.0
724.472778 88.0
725.193604 96.0
725.502625 40.0
727.426941 60.0
727.547302 140.0
729.43988 28.0
731.421082 84.0
732.497253 60.0
733.483643 440.0
733.750366 40.0
734.495239 180.0
734.804016 24.0
735.493103 108.0
735.841187 32.0
736.498413 72.0
738.523865 56.0
741.159363 36.0
741.44574 80.0
745.452026 36.0
747.489746 88.0
748.435059 112.0
751.503601 72.0
752.482544 56.0
755.492371 88.0
757.458618 40.0
758.471436 64.0
759.530212 392.0
760.537659 92.0
761.513428 428.0
762.130737 36.0
762.271545 116.0
762.496216 176.0
763.521606 96.0
764.490723 164.0
770.459656 36.0
772.504395 124.0
773.470581 124.0
774.055725 28.0
774.457153 76.0
776.540649 76.0
776.807129 52.0
777.073669 40.0
777.251343 52.0
777.5495 840.0
777.94458 28.0
778.122437 32.0
778.554382 764.0
779.54126 148.0
782.199768 28.0
787.528748 652.0
788.076233 40.0
788.219421 44.0
788.526917 356.0
788.845947 36.0
789.534119 228.0
790.502075 204.0
790.655273 52.0
791.537842 64.0
792.018066 56.0
792.699951 64.0
794.944946 44.0
795.376404 28.0
798.86792 44.0
799.522827 92.0
800.255798 32.0
800.53595 60.0
801.067505 44.0
801.410339 36.0
801.536682 20.0
801.68103 24.0
802.707642 28.0
804.585754 116.0
804.978394 40.0
805.539246 2332.0
805.910095 20.0
806.192566 92.0
806.394897 100.0
806.541321 1112.0
806.996216 24.0
807.177307 48.0
807.301819 32.0
807.553589 776.0
808.570312 104.0
808.875671 44.0
809.243225 36.0
809.551575 56.0
809.896179 68.0
811.402588 40.0
813.764893 44.0
816.532837 224.0
816.87738 24.0
817.529724 100.0
818.505798 72.0
820.513184 40.0
822.56311 500.0
823.357971 80.0
823.575623 316.0
823.833618 32.0
824.579651 212.0
827.31366 28.0
829.038086 92.0
832.547424 144.0
834.523132 104.0
835.520264 56.0
836.543518 160.0
836.875427 36.0
840.84491 20.0
844.586853 96.0
845.583618 136.0
846.529236 156.0
847.134399 96.0
847.512512 44.0
851.562866 40.0
858.496887 84.0
859.543152 48.0
861.52533 96.0
863.603394 40.0
869.176086 132.0
870.266418 80.0
870.586121 64.0
874.559265 28.0
875.58551 44.0
878.541443 60.0
881.528137 68.0
886.532959 44.0
887.558167 44.0
887.76709 32.0
888.545959 112.0
889.078125 32.0
889.534363 64.0
893.575012 56.0
895.552307 84.0
898.570557 96.0
899.58197 64.0
903.524841 48.0
904.003967 80.0
905.618652 228.0
906.593201 44.0
908.590454 68.0
912.013916 148.0
913.535339 56.0
915.592834 96.0
916.574951 120.0
917.605225 68.0
918.532288 52.0
920.523315 52.0
926.509216 32.0
927.59613 52.0
928.683655 32.0
929.558044 40.0
930.024536 60.0
931.580383 60.0
932.495056 20.0
932.767578 136.0
933.595337 1016.0
934.615906 520.0
934.988342 36.0
935.590576 232.0
936.606873 80.0
937.660645 80.0
938.12915 36.0
939.574524 48.0
940.180359 44.0
945.608643 100.0
946.622009 156.0
947.563599 44.0
948.58429 108.0
950.623962 96.0
951.649475 48.0
953.794189 24.0
956.572021 40.0
958.998596 148.0
962.74707 68.0
963.596375 48.0
970.422729 76.0
970.919189 24.0
972.610962 136.0
972.807129 32.0
973.616516 420.0
974.600098 104.0
975.632446 124.0
976.604248 40.0
977.64447 52.0
978.162781 96.0
985.413208 36.0
985.580811 32.0
986.580139 80.0
987.174927 32.0
990.62439 652.0
991.624207 412.0
992.208496 32.0
992.616211 192.0
993.624573 28.0
994.398315 28.0
994.619446 60.0
994.961243 32.0
996.027222 44.0
1002.636902 84.0
1014.215759 148.0
1016.632996 56.0
1017.588501 120.0
1017.751221 48.0
1018.579285 60.0
1019.653809 108.0
1020.620605 40.0
1024.004028 24.0
1024.718018 28.0
1029.636597 96.0
1030.153198 36.0
1030.603394 60.0
1031.626831 168.0
1034.659302 52.0
1037.860474 36.0
1038.599854 76.0
1042.280396 24.0
1044.648438 60.0
1045.668091 76.0
1046.709717 36.0
1047.266724 32.0
1047.649658 376.0
1048.19519 44.0
1048.662842 132.0
1049.666138 80.0
1050.177368 52.0
1055.630127 132.0
1056.466675 32.0
1056.651245 84.0
1057.528564 188.0
1058.622681 52.0
1059.733032 84.0
1059.971191 44.0
1061.834351 88.0
1062.837158 40.0
1065.727783 40.0
1066.976807 36.0
1067.268311 96.0
1067.643188 36.0
1067.943481 40.0
1068.646118 28.0
1068.976685 44.0
1070.436035 36.0
1072.230469 32.0
1072.460083 52.0
1072.982056 64.0
1073.66272 2528.0
1074.181641 36.0
1074.423218 28.0
1074.665649 1548.0
1075.050171 44.0
1075.489136 72.0
1075.676758 644.0
1075.928223 44.0
1076.074585 32.0
1076.657715 156.0
1077.057617 28.0
1077.41333 28.0
1077.695801 132.0
1078.396973 40.0
1078.696289 108.0
1078.920288 28.0
1079.297241 28.0
1079.72937 120.0
1087.669312 48.0
1088.653076 72.0
1089.614014 84.0
1090.63562 56.0
1091.688477 104.0
1099.622192 48.0
1100.92041 80.0
1101.67749 64.0
1102.669189 80.0
1103.64209 36.0
1105.685913 436.0
1106.696289 156.0
1107.11792 24.0
1107.701538 160.0
1108.661499 48.0
1108.74939 36.0
1109.855713 36.0
1112.554321 28.0
1113.95813 68.0
1118.677856 196.0
1119.658691 116.0
1120.41394 148.0
1120.745605 52.0
1128.70813 88.0
1130.636475 32.0
1132.692749 36.0
1142.650024 28.0
1153.471069 72.0
1158.654907 64.0
1159.682373 64.0
1166.388672 56.0
1175.708984 392.0
1176.71228 236.0
1177.731079 60.0
1178.787109 56.0
1216.398193 36.0
1235.324341 132.0
1299.060913 92.0
1329.728271 92.0
1365.931519 36.0
1371.331909 60.0
1430.764648 80.0
1457.970459 16.0
1508.369019 52.0
1682.01709 56.0
END IONS
