BEGIN IONS
PEPMASS=603.367
CHARGE=0
MSLEVEL=2
SOURCE_INSTRUMENT=LC-ESI-qTof
FILENAME=f.mice/SC_-Fe_+Fe_YEME_Langzeit_Anfang_2015/160113_CYA_14_w_V.mzXML;
SEQ=*..*
IONMODE=Positive
ORGANISM=GNPS-LIBRARY
NAME=Desferrioxamine D1 M+H
PI=Bandow
DATACOLLECTOR=Senges
SMILES=CC(=O)NCCCCCN(C(=O)CCC(=O)NCCCCCN(C(=O)CCC(=O)NCCCCCN(C(=O)C)O)O)O
INCHI=1S/C27H50N6O9/c1-22(34)28-16-6-3-10-20-32(41)26(38)14-13-25(37)30-18-8-5-11-21-33(42)27(39)15-12-24(36)29-17-7-4-9-19-31(40)23(2)35/h40-42H,3-21H2,1-2H3,(H,28,34)(H,29,36)(H,30,37)
INCHIAUX=
PUBMED=
SUBMITUSER=mice
TAGS=
LIBRARYQUALITY=3
SPECTRUMID=CCMSLIB00003739971
SCANS=4575
51.033569 21.0
69.111656 6.0
70.113319 39.0
74.01165 8.0
77.714973 7.0
84.098724 31.0
84.134758 120.0
85.114662 63.0
86.148849 129.0
98.110046 12.0
100.083038 33.0
100.091766 191.0
101.098846 41.0
102.146248 58.0
103.18132 8.0
111.106018 55.0
112.134552 14.0
113.102821 72.0
115.145515 25.0
116.093727 11.0
116.131363 50.0
120.140732 46.0
121.123672 10.0
122.125099 7.0
122.158867 22.0
128.101578 17.0
128.160858 16.0
130.110519 39.0
132.135086 43.0
135.15303 29.0
136.129242 15.0
136.149612 36.0
137.108948 29.0
137.170288 26.0
138.122955 8.0
138.148605 40.0
139.156128 38.0
140.131149 21.0
141.826141 12.0
142.112228 29.0
142.508026 33.0
143.144531 26.0
143.160202 42.0
143.175873 90.0
144.159622 115.0
144.185822 39.0
146.116089 56.0
146.147751 17.0
147.141617 29.0
148.122925 44.0
151.220581 17.0
152.172287 22.0
154.149689 87.0
154.751907 12.0
155.143158 45.0
155.154037 77.0
156.145294 14.0
159.149017 56.0
161.165543 18.0
161.193253 88.0
162.192474 8.0
163.10556 29.0
165.124466 15.0
165.163742 258.0
165.180573 45.0
166.152649 501.0
166.16954 33.0
166.304626 90.0
167.161469 208.0
168.161987 113.0
168.184631 14.0
169.131439 81.0
169.205261 21.0
170.12645 12.0
171.14151 15.0
172.136688 13.0
172.14241 13.0
172.182495 53.0
173.128983 26.0
173.151962 26.0
173.169205 63.0
176.180969 40.0
179.125198 35.0
180.160873 22.0
183.179398 486.0
183.220749 79.0
184.120056 6.0
184.131897 10.0
184.161514 249.0
184.185211 219.0
184.285965 95.0
184.380783 7.0
184.819702 9.0
184.855331 13.0
184.914688 7.0
185.164093 45.0
185.170029 45.0
185.181915 7.0
185.33046 14.0
186.211075 21.0
187.129623 13.0
187.177399 54.0
188.12825 39.0
188.158203 19.0
189.141541 10.0
189.159561 58.0
189.177567 15.0
190.693741 60.0
199.177673 46.0
199.196167 36.0
199.325577 7.0
200.139969 21.0
201.086014 13.0
201.092209 13.0
201.191269 2112.0
201.296555 45.0
201.327515 13.0
202.195663 1235.0
202.350861 8.0
202.916382 6.0
203.19632 302.0
203.968689 12.0
204.186966 32.0
204.623856 6.0
204.85498 23.0
205.148758 13.0
205.161285 25.0
207.097992 12.0
207.167099 47.0
208.167374 7.0
211.208023 13.0
211.760345 12.0
212.160767 10.0
213.179398 34.0
213.198517 15.0
214.194061 17.0
215.179123 12.0
215.211136 46.0
217.117401 29.0
217.188171 48.0
218.12851 21.0
218.780197 14.0
219.200104 176.0
219.730423 23.0
220.18364 13.0
220.203064 39.0
221.208328 34.0
223.173538 33.0
225.193283 90.0
226.177017 26.0
226.190155 103.0
227.136581 22.0
227.169479 8.0
227.189224 19.0
228.256439 19.0
229.14772 25.0
229.160934 36.0
229.220413 215.0
229.240234 14.0
230.186401 19.0
230.239395 16.0
233.163223 21.0
235.13385 11.0
235.180725 23.0
235.401703 11.0
238.196289 15.0
239.154007 40.0
240.188034 30.0
241.149734 23.0
241.197189 23.0
241.231094 33.0
242.147308 10.0
242.188065 20.0
243.201416 1427.0
243.242264 22.0
243.26268 15.0
243.269501 15.0
243.283112 26.0
243.358017 29.0
243.514664 10.0
244.128174 16.0
244.175934 33.0
244.203217 260.0
244.23732 11.0
244.257797 14.0
245.159225 13.0
245.186569 73.0
245.234421 9.0
246.165054 22.0
246.19931 47.0
246.569336 7.0
246.610458 12.0
247.17981 40.0
247.207275 47.0
247.365158 7.0
248.203522 20.0
248.258545 10.0
250.202057 38.0
251.148972 22.0
251.176651 16.0
251.245834 21.0
252.21553 26.0
254.188354 14.0
254.599167 10.0
256.154907 14.0
257.211029 18.0
257.288025 55.0
258.178101 9.0
258.18512 9.0
258.381561 10.0
260.174072 8.0
260.20929 35.0
261.182007 6.0
261.203186 56.0
261.238464 32.0
262.205994 65.0
263.161163 17.0
263.210754 47.0
263.302826 15.0
263.359497 7.0
265.190491 20.0
266.186707 64.0
266.265076 19.0
267.141968 10.0
267.213348 32.0
268.206177 61.0
268.234772 56.0
270.218933 56.0
270.240479 40.0
270.24765 40.0
270.29071 17.0
271.296448 14.0
272.224792 46.0
272.621094 12.0
273.219696 42.0
276.229797 11.0
277.188324 32.0
277.602783 24.0
278.192261 17.0
279.168823 15.0
279.234467 18.0
280.21283 8.0
280.263977 17.0
282.196716 10.0
283.202332 424.0
283.635925 12.0
284.033081 15.0
284.209686 309.0
284.2612 21.0
284.50415 14.0
285.137756 29.0
285.204102 62.0
285.226227 33.0
285.705658 8.0
286.045197 21.0
286.170715 41.0
286.207642 248.0
286.30365 14.0
287.198151 30.0
287.212952 24.0
288.15332 33.0
288.227417 30.0
289.132355 30.0
289.191742 40.0
289.236267 33.0
290.046112 17.0
290.187378 18.0
290.20224 34.0
292.124115 38.0
292.176361 91.0
293.184601 8.0
293.199554 23.0
294.157166 13.0
295.1763 73.0
295.228821 14.0
296.21228 22.0
296.234802 17.0
297.227448 52.0
297.257538 39.0
298.184052 27.0
298.229279 11.0
298.727051 55.0
299.164856 50.0
299.195068 53.0
299.217712 13.0
300.260712 15.0
301.169159 23.0
301.207031 405.0
301.275208 45.0
302.215546 346.0
302.253479 78.0
302.268677 49.0
302.299011 11.0
302.526794 32.0
303.202972 22.0
303.225769 32.0
303.248566 57.0
303.286591 34.0
304.176727 8.0
304.191956 33.0
304.252869 37.0
304.481354 33.0
304.51944 19.0
305.213074 37.0
306.159515 42.0
307.092163 12.0
308.202423 13.0
308.225403 16.0
309.222565 46.0
311.113892 10.0
312.154297 28.0
313.25824 19.0
314.263489 19.0
315.154114 15.0
316.185669 19.0
316.201202 20.0
317.211182 36.0
317.218964 36.0
317.662292 28.0
318.043671 15.0
318.152679 17.0
318.191589 112.0
318.207184 88.0
318.277283 10.0
318.900635 10.0
319.220337 6.0
319.228149 6.0
319.313934 65.0
320.227295 9.0
320.30542 31.0
320.33667 33.0
321.196716 17.0
321.298462 95.0
321.32193 19.0
321.979584 7.0
325.112701 7.0
325.207184 10.0
325.222931 19.0
325.246521 53.0
326.168335 14.0
326.184113 19.0
326.207764 11.0
326.278717 45.0
326.673126 29.0
327.186188 12.0
327.194092 12.0
327.209869 15.0
327.265167 7.0
328.205627 16.0
328.245178 8.0
328.253082 8.0
329.171204 12.0
330.217529 42.0
331.2258 37.0
332.243561 7.0
332.299255 21.0
332.753021 29.0
333.207092 31.0
333.246918 38.0
336.202087 20.0
336.226105 24.0
337.2435 19.0
338.254364 6.0
339.146179 26.0
339.306976 14.0
339.580444 7.0
339.588501 7.0
340.224335 31.0
340.30484 30.0
340.32901 30.0
340.385376 29.0
341.183228 12.0
341.215485 27.0
341.247742 29.0
341.304199 21.0
342.208069 34.0
342.2323 13.0
342.256531 78.0
342.321136 25.0
343.274872 10.0
343.363861 8.0
343.444763 15.0
343.525665 7.0
346.241608 64.0
346.420349 14.0
348.202057 29.0
349.261841 32.0
350.061859 17.0
350.257904 23.0
350.266083 23.0
353.213531 15.0
353.279175 25.0
353.525391 14.0
355.168915 7.0
355.300568 32.0
355.424011 21.0
356.18985 47.0
357.047211 18.0
357.212219 28.0
357.228729 40.0
357.245239 37.0
357.335999 19.0
357.624847 6.0
357.756958 10.0
358.161682 16.0
358.269104 16.0
358.359985 8.0
359.220001 60.0
359.352386 10.0
359.981598 8.0
360.221863 19.0
360.263275 11.0
360.33786 7.0
361.059143 8.0
361.100647 14.0
361.216797 45.0
361.241669 90.0
361.274872 70.0
361.316345 1913.0
362.022064 26.0
362.096802 7.0
362.196503 9.0
362.238037 26.0
362.304535 428.0
362.329437 395.0
362.371002 23.0
362.454102 12.0
362.470734 8.0
363.235748 15.0
363.260712 30.0
363.310638 151.0
363.934998 18.0
364.293213 47.0
364.318207 35.0
365.185303 29.0
365.285431 27.0
366.162018 49.0
366.245544 23.0
366.262268 38.0
366.278961 14.0
367.248779 35.0
367.282257 10.0
367.298981 16.0
367.357574 31.0
367.750885 35.0
368.236633 14.0
368.270142 18.0
368.370667 90.0
369.2258 28.0
369.284546 24.0
370.241486 34.0
370.754089 40.0
371.140869 16.0
371.233368 101.0
371.267029 16.0
372.21814 50.0
373.246368 52.0
373.313843 31.0
373.347595 25.0
373.701965 38.0
374.200012 29.0
374.284485 8.0
374.918182 8.0
375.205627 7.0
375.281738 17.0
375.307129 32.0
376.212585 46.0
376.24646 21.0
376.271851 7.0
376.381958 17.0
376.390411 17.0
377.153076 11.0
377.22937 34.0
377.254822 54.0
378.154114 23.0
378.171112 31.0
378.205048 86.0
378.247498 24.0
378.281464 28.0
379.250061 87.0
381.207947 27.0
381.361389 12.0
381.574493 19.0
381.924225 8.0
382.265564 94.0
382.752228 35.0
383.264832 8.0
383.290466 106.0
383.316132 77.0
384.205536 14.0
384.282562 113.0
384.299683 221.0
385.215912 23.0
385.267334 66.0
385.284454 63.0
386.279114 20.0
386.304871 35.0
387.197693 39.0
387.232056 41.0
388.108826 8.0
388.263611 12.0
388.280823 28.0
389.219055 21.0
389.356842 27.0
389.847992 29.0
389.934204 8.0
389.960052 13.0
390.253235 35.0
390.279114 32.0
390.762207 49.0
391.288788 69.0
391.642914 7.0
392.161469 12.0
392.213348 21.0
392.360321 18.0
393.268799 7.0
394.195709 70.0
394.273682 131.0
395.227783 30.0
396.226471 51.0
396.269928 22.0
396.313385 27.0
396.487213 8.0
397.853149 9.0
398.201538 30.0
398.297363 18.0
398.759216 66.0
398.837708 17.0
398.846405 17.0
399.256287 61.0
399.282471 36.0
399.76239 24.0
400.251312 16.0
400.329926 20.0
400.504639 12.0
400.618225 8.0
400.626953 8.0
400.941589 10.0
401.308838 1515.0
401.422485 28.0
401.562469 12.0
402.061249 16.0
402.210083 36.0
402.315155 2828.0
402.358948 22.0
402.385223 71.0
402.437775 31.0
402.481537 53.0
402.577911 25.0
402.621704 53.0
402.726776 15.0
402.788116 38.0
403.200012 64.0
403.235077 28.0
403.313995 1275.0
403.375366 11.0
403.498108 11.0
403.84021 7.0
404.305267 72.0
404.322845 68.0
404.507202 11.0
404.559875 8.0
405.183563 34.0
405.20993 8.0
405.30661 72.0
405.341736 26.0
405.359314 40.0
405.385681 25.0
406.300323 17.0
406.370728 15.0
406.493958 8.0
407.004578 8.0
407.26004 27.0
407.356964 35.0
407.374573 26.0
407.409821 21.0
407.621338 11.0
408.176788 8.0
408.220886 7.0
408.344391 13.0
408.37085 15.0
408.732635 7.0
409.156372 16.0
409.306488 15.0
409.368317 48.0
409.385986 29.0
409.394836 29.0
410.269775 38.0
410.340515 23.0
410.367065 13.0
410.402405 12.0
410.535065 35.0
411.15448 13.0
411.216461 14.0
411.260712 27.0
411.304993 7.0
411.366974 21.0
412.0047 12.0
412.02243 9.0
412.164215 42.0
412.190796 30.0
412.261719 22.0
412.332642 15.0
412.359222 28.0
412.642975 32.0
413.201813 37.0
413.290558 7.0
413.33493 24.0
413.361572 11.0
413.388184 19.0
414.21405 28.0
414.240723 21.0
414.258484 24.0
414.294037 19.0
414.32959 12.0
414.862915 6.0
415.245331 24.0
415.289825 8.0
415.298706 8.0
415.316498 9.0
415.325409 9.0
415.71698 24.0
415.752563 28.0
416.260101 79.0
416.33136 8.0
417.222595 31.0
417.267181 75.0
417.302856 14.0
418.293335 57.0
418.329041 11.0
418.92746 9.0
419.302856 82.0
419.320709 128.0
420.277771 34.0
420.32254 154.0
420.886597 6.0
421.298645 30.0
421.325531 63.0
422.275909 14.0
422.347687 6.0
422.670715 11.0
423.236359 14.0
423.272247 44.0
423.344116 50.0
423.380035 87.0
424.170898 21.0
424.242828 42.0
424.287811 10.0
424.350708 71.0
425.241516 19.0
425.259521 12.0
425.367554 147.0
425.817841 16.0
426.142212 7.0
426.178253 16.0
426.23233 22.0
426.241333 22.0
426.268372 33.0
426.286407 31.0
426.340485 33.0
426.376556 71.0
427.170166 12.0
427.26944 8.0
427.332611 23.0
427.386749 63.0
428.253571 11.0
428.262604 11.0
428.280701 26.0
428.289734 26.0
428.795776 25.0
429.193634 25.0
429.229828 15.0
429.247925 20.0
429.275055 31.0
429.374542 73.0
429.419769 9.0
430.216217 7.0
430.379242 11.0
430.786865 9.0
431.258179 7.0
431.330688 14.0
432.201508 15.0
432.22876 52.0
432.265045 42.0
433.264038 67.0
433.282196 73.0
433.773041 21.0
433.782135 21.0
434.26416 8.0
434.291443 55.0
434.673645 50.0
435.147034 7.0
435.201691 28.0
435.256317 8.0
436.213165 25.0
436.240509 23.0
437.335358 12.0
437.928955 8.0
437.93811 8.0
438.285339 30.0
438.797302 9.0
439.208893 32.0
439.245483 50.0
439.501709 11.0
439.703094 9.0
440.270813 9.0
440.289124 19.0
440.298309 19.0
441.205627 37.0
441.361542 38.0
441.444092 14.0
441.728485 10.0
442.205688 24.0
442.22406 18.0
442.251617 25.0
442.306702 75.0
442.370972 15.0
442.793427 96.0
443.27124 121.0
443.3172 1402.0
443.381531 171.0
443.556213 53.0
443.592987 6.0
443.795288 66.0
444.172424 31.0
444.246033 27.0
444.310455 451.0
444.328857 452.0
444.39328 29.0
444.466919 35.0
445.212708 25.0
445.258759 14.0
445.295624 116.0
445.341675 59.0
446.226532 38.0
446.28186 17.0
446.309509 64.0
446.346405 16.0
446.90918 13.0
447.241486 42.0
447.287659 15.0
447.370758 10.0
448.146698 7.0
448.183685 17.0
448.285339 42.0
448.322327 30.0
448.793854 15.0
448.978821 63.0
449.274902 15.0
450.478607 11.0
451.303619 43.0
454.145935 11.0
454.304108 27.0
455.309601 26.0
455.402771 29.0
455.589111 8.0
456.260254 25.0
456.288239 46.0
456.353516 77.0
457.295898 23.0
458.192535 31.0
458.257965 30.0
458.313995 80.0
459.333282 65.0
460.250641 61.0
460.278748 18.0
460.344299 18.0
460.897125 46.0
461.21579 24.0
461.318939 71.0
461.356445 11.0
461.544006 10.0
462.14444 26.0
462.285217 15.0
463.139771 7.0
464.371307 21.0
465.237183 34.0
465.274841 13.0
465.303101 11.0
465.33136 32.0
466.169861 8.0
466.311249 8.0
466.811035 19.0
467.207245 14.0
467.254425 18.0
467.311066 95.0
468.208008 23.0
468.784393 40.0
469.181488 18.0
469.190948 18.0
469.247681 9.0
470.278992 25.0
470.307404 30.0
471.264099 15.0
471.776001 49.0
472.231232 20.0
472.278687 25.0
472.297638 30.0
473.27536 16.0
473.303833 21.0
474.254028 23.0
474.311096 35.0
475.167145 20.0
476.281189 16.0
476.319305 34.0
477.301178 32.0
478.303101 56.0
479.287018 24.0
480.214508 20.0
480.329346 18.0
481.181244 32.0
482.321442 48.0
483.251892 10.0
483.280701 32.0
483.290283 32.0
483.328674 25.0
483.34787 42.0
484.279297 165.0
484.308136 194.0
485.30777 88.0
485.326996 150.0
485.490509 13.0
486.269958 27.0
486.318085 13.0
486.337341 16.0
486.655121 91.0
487.242737 70.0
487.348755 19.0
488.226166 22.0
488.264709 31.0
488.283997 26.0
488.303284 16.0
488.322601 11.0
488.660309 7.0
488.959534 11.0
489.297424 59.0
489.345703 37.0
489.770691 33.0
489.809357 14.0
490.273224 21.0
490.282898 21.0
490.302246 16.0
490.340912 11.0
490.853363 16.0
490.911407 26.0
491.288696 35.0
491.308044 30.0
491.666138 36.0
492.247101 23.0
493.807739 32.0
495.001678 38.0
495.759552 16.0
497.384155 26.0
498.338745 22.0
498.826111 48.0
499.29425 39.0
501.315521 225.0
501.354614 192.0
502.264069 11.0
502.322784 138.0
502.38147 20.0
502.410828 52.0
502.792542 49.0
503.331085 46.0
503.41922 6.0
503.429016 6.0
503.644501 69.0
503.791473 29.0
503.869873 12.0
504.252136 29.0
504.369751 29.0
504.948395 11.0
505.183838 14.0
505.242706 40.0
505.262329 31.0
505.281982 59.0
505.733459 30.0
506.293243 36.0
506.312866 8.0
506.430725 26.0
507.816925 14.0
507.905426 14.0
508.79129 49.0
508.820831 102.0
509.22464 19.0
509.244354 13.0
509.323181 165.0
509.815918 98.0
509.835632 99.0
510.318726 63.0
511.029053 56.0
511.285675 54.0
513.281555 6.0
513.380493 16.0
514.300781 10.0
514.429504 23.0
515.281372 27.0
515.311096 30.0
515.370544 13.0
515.796814 82.0
516.223267 37.0
516.243103 30.0
516.302612 23.0
517.175842 38.0
517.205627 23.0
517.294983 43.0
517.841187 38.0
518.338074 12.0
518.815247 42.0
519.372253 18.0
520.248169 13.0
520.317871 14.0
521.314087 23.0
521.354004 9.0
522.271423 13.0
522.31134 34.0
523.159668 8.0
523.369385 34.0
524.348633 25.0
524.848572 21.0
526.219604 27.0
526.299744 6.0
527.321777 45.0
527.77301 26.0
528.254517 11.0
528.324768 51.0
528.856689 15.0
529.358765 7.0
529.388916 30.0
530.283203 46.0
530.373718 18.0
530.40387 13.0
530.514465 25.0
531.248718 14.0
531.339294 50.0
533.293335 90.0
534.332214 29.0
534.604675 73.0
535.210449 45.0
535.321594 32.0
535.745911 13.0
536.241089 44.0
536.301758 42.0
536.797302 24.0
538.031921 22.0
538.335754 24.0
538.356018 24.0
538.639648 20.0
539.13623 12.0
539.278198 15.0
539.379578 15.0
539.399841 31.0
540.089478 17.0
540.221375 16.0
540.261963 47.0
540.302551 18.0
540.333008 21.0
540.799927 26.0
541.206055 28.0
541.287292 26.0
541.307617 24.0
541.348267 17.0
542.344116 25.0
542.761047 26.0
542.791504 62.0
542.842407 48.0
543.249329 19.0
543.351074 13.0
544.287659 16.0
545.296448 43.0
545.785889 40.0
547.255493 7.0
547.674255 22.0
547.847961 28.0
548.553223 26.0
548.675903 12.0
549.351074 16.0
549.791077 8.0
550.272278 40.0
552.322327 49.0
552.394104 47.0
552.804626 54.0
553.246094 13.0
553.400085 11.0
554.396729 8.0
554.674255 124.0
555.353088 21.0
555.83667 23.0
556.001343 28.0
556.258789 35.0
556.35144 90.0
556.382324 11.0
557.299133 42.0
558.28894 105.0
559.093811 30.0
559.289978 18.0
559.351929 48.0
559.372498 48.0
560.250549 20.0
560.281555 41.0
560.322876 48.0
560.395203 47.0
560.663879 10.0
561.253296 13.0
561.398071 21.0
561.429138 11.0
562.308655 62.0
562.339722 60.0
562.960999 118.0
563.313232 18.0
563.365051 52.0
564.05957 33.0
564.318726 15.0
564.58844 54.0
564.847778 24.0
565.262817 16.0
565.366638 13.0
565.771545 37.0
567.382202 20.0
568.287231 11.0
568.38092 14.0
568.401733 54.0
568.495422 35.0
568.838928 27.0
569.213806 53.0
569.255493 26.0
569.286743 20.0
569.317993 65.0
569.390869 35.0
569.849365 39.0
570.245422 53.0
570.266235 41.0
570.287109 44.0
570.652039 22.0
571.28833 11.0
571.507507 15.0
572.248718 17.0
572.290466 14.0
572.875488 41.0
573.847656 50.0
573.941772 16.0
574.035889 8.0
574.339294 16.0
574.370667 15.0
574.422974 12.0
574.747314 34.0
574.799683 14.0
575.291687 26.0
575.36499 28.0
576.3078 8.0
576.821411 18.0
577.335327 35.0
577.817932 43.0
578.311218 8.0
578.374207 12.0
579.361511 47.0
580.360229 36.0
581.349182 144.0
581.717651 20.0
582.296936 26.0
582.823792 38.0
583.298157 33.0
583.835938 19.0
584.004761 20.0
584.068054 19.0
584.110229 13.0
584.2052 28.0
584.279114 11.0
584.395203 158.0
584.437378 30.0
585.229187 112.0
585.271423 17.0
585.31366 80.0
585.345337 41.0
585.366455 57.0
585.398193 67.0
585.429871 86.0
585.450989 31.0
585.472107 14.0
585.799561 40.0
586.190613 13.0
586.243469 15.0
586.264587 21.0
586.306885 60.0
586.338562 17.0
586.3703 9.0
586.423157 8.0
586.497192 72.0
586.824951 79.0
587.237427 52.0
587.279785 57.0
587.311523 42.0
587.332642 34.0
587.375 45.0
587.427917 40.0
587.459656 22.0
587.893555 9.0
588.274658 27.0
588.306396 28.0
588.338196 26.0
588.369934 14.0
588.79364 37.0
588.857178 24.0
588.878357 49.0
589.153809 22.0
589.206787 16.0
589.270386 12.0
589.302124 25.0
589.333923 16.0
589.365723 15.0
589.429321 12.0
590.309326 27.0
590.341187 17.0
590.532104 28.0
590.903503 42.0
591.105164 14.0
591.338623 22.0
591.540344 8.0
591.604065 67.0
591.657166 14.0
592.358276 13.0
592.963989 11.0
593.30426 31.0
593.336121 25.0
594.357422 73.0
594.868347 57.0
595.241089 11.0
595.283691 32.0
595.294373 32.0
595.347595 78.0
595.368896 57.0
595.645935 19.0
595.805725 35.0
595.922913 13.0
595.944214 14.0
596.274658 25.0
596.317322 37.0
596.359985 97.0
596.391968 33.0
596.733154 24.0
596.829102 9.0
596.839783 9.0
596.967773 10.0
596.989075 7.0
597.223816 15.0
597.287781 12.0
597.330505 102.0
597.362488 29.0
597.394531 16.0
597.853394 21.0
598.344543 60.0
598.397888 39.0
598.461975 11.0
598.5047 8.0
598.761047 31.0
598.878601 8.0
598.985352 13.0
599.402161 19.0
599.466309 24.0
599.88324 34.0
600.417969 31.0
600.642639 7.0
600.931519 11.0
601.017151 14.0
601.381042 70.0
601.413147 107.0
601.445312 144.0
601.49884 26.0
601.552368 9.0
601.659424 6.0
601.905762 6.0
601.916504 6.0
602.045044 31.0
602.077148 14.0
602.119995 8.0
602.237793 79.0
602.259216 96.0
602.269958 96.0
602.302063 122.0
602.419922 13243.0
602.494934 150.0
602.537842 55.0
602.602112 79.0
602.64502 67.0
602.677124 65.0
602.720032 33.0
602.762878 22.0
602.805786 45.0
602.837952 61.0
602.902222 61.0
602.966553 43.0
602.998718 13.0
603.073792 24.0
603.116638 27.0
603.138123 7.0
603.234558 108.0
603.255981 103.0
603.427551 8272.0
603.491882 275.0
603.545532 108.0
603.567017 79.0
603.599182 159.0
603.64209 40.0
603.684998 87.0
603.727905 15.0
603.770813 61.0
603.813721 14.0
603.867371 90.0
603.996094 94.0
604.071228 7.0
604.146301 53.0
604.178528 23.0
604.24292 104.0
604.275024 125.0
604.328674 367.0
604.425293 1396.0
604.500427 94.0
604.543335 10.0
604.61853 7.0
604.682922 41.0
604.747314 27.0
604.790283 38.0
604.811768 45.0
604.843933 166.0
604.87616 98.0
604.919128 33.0
605.069458 37.0
605.209045 80.0
605.252014 219.0
605.337952 384.0
605.380859 407.0
605.43457 546.0
605.477539 334.0
605.649414 32.0
605.703186 17.0
605.799866 64.0
605.842834 31.0
605.885803 29.0
605.918091 31.0
605.96106 7.0
605.993286 40.0
606.218994 129.0
606.272766 175.0
606.29425 158.0
606.348022 426.0
606.390991 293.0
606.423218 118.0
606.444702 128.0
606.487732 164.0
606.541443 8.0
606.648987 13.0
606.788818 66.0
606.885559 23.0
606.907104 20.0
607.057678 10.0
607.079224 7.0
607.176025 20.0
607.219055 70.0
607.315857 196.0
607.36969 274.0
607.401917 245.0
607.445007 115.0
607.50946 31.0
607.574036 36.0
607.638611 23.0
607.724731 11.0
607.821594 20.0
607.886169 35.0
607.993835 7.0
608.090698 11.0
608.10144 11.0
608.316772 37.0
608.370667 43.0
608.478333 15.0
608.726013 10.0
608.866028 7.0
608.87677 7.0
608.930664 7.0
609.113831 13.0
609.167664 5.0
609.178467 5.0
609.512573 5.0
609.523315 5.0
609.99762 9.0
610.07312 7.0
610.288757 27.0
610.364258 7.0
610.687866 10.0
611.302979 8.0
612.047913 12.0
612.058716 12.0
612.199158 6.0
612.209961 6.0
612.3396 25.0
612.372009 13.0
612.458435 6.0
613.214905 7.0
613.279785 6.0
613.398682 7.0
613.420349 6.0
613.431152 6.0
613.539246 11.0
613.669067 6.0
613.971863 6.0
614.339722 10.0
614.599426 7.0
615.335571 12.0
615.346375 12.0
615.443848 26.0
616.104675 12.0
616.115479 12.0
616.332275 37.0
616.592407 6.0
617.167053 7.0
617.308044 7.0
617.416504 19.0
617.883057 31.0
618.284607 20.0
618.382324 7.0
618.805786 6.0
619.022949 7.0
619.403198 38.0
619.957458 8.0
619.968323 8.0
620.142212 7.0
620.84906 28.0
620.903442 56.0
621.872009 17.0
621.882874 17.0
622.775879 62.0
623.157227 7.0
623.996643 7.0
624.782043 14.0
625.382324 10.0
627.359924 19.0
627.414551 10.0
627.797363 40.0
628.957397 7.0
629.307739 7.0
629.362488 22.0
629.997864 6.0
630.052673 11.0
633.300415 24.0
633.388245 44.0
635.257446 14.0
636.358154 8.0
637.404785 12.0
639.368103 23.0
639.809753 25.0
639.887085 25.0
640.317871 7.0
640.328918 7.0
640.362 19.0
641.411865 34.0
642.108643 8.0
642.329895 14.0
642.484802 22.0
646.363525 36.0
646.385742 22.0
646.71875 9.0
647.318359 37.0
648.162842 10.0
650.053589 23.0
650.387512 10.0
651.389893 33.0
651.891418 26.0
652.415344 16.0
655.585999 103.0
660.345154 29.0
662.365967 7.0
663.118896 7.0
664.311096 40.0
665.279114 7.0
665.402954 16.0
666.890259 22.0
669.316284 16.0
669.338867 55.0
670.796631 69.0
671.282959 39.0
673.388306 55.0
675.372253 82.0
676.382385 37.0
677.370483 18.0
679.371643 16.0
680.11145 100.0
680.464478 61.0
680.920044 12.0
681.318787 7.0
681.387207 37.0
682.401794 36.0
683.360046 18.0
684.84436 38.0
685.461426 7.0
685.861572 29.0
686.296082 50.0
686.4104 35.0
686.444702 19.0
691.01593 66.0
691.865479 33.0
692.370789 13.0
692.393738 32.0
693.669434 14.0
694.911743 21.0
698.414551 7.0
699.360962 34.0
699.857483 54.0
700.180847 35.0
700.34259 28.0
700.434998 35.0
700.469666 25.0
701.486816 35.0
702.238586 16.0
704.542603 17.0
705.493103 33.0
705.78302 11.0
707.314758 58.0
707.872131 46.0
708.313538 12.0
708.476257 49.0
709.348022 11.0
710.336609 27.0
710.383179 31.0
710.441345 19.0
712.455811 11.0
715.336914 19.0
715.430237 90.0
717.428406 34.0
717.580383 17.0
718.41095 39.0
719.206787 16.0
720.401489 13.0
720.413208 13.0
720.471802 28.0
722.441772 28.0
723.427673 9.0
724.355591 35.0
725.460449 9.0
726.460266 17.0
728.426575 8.0
728.626953 8.0
728.638672 8.0
731.386902 17.0
732.355347 20.0
732.378967 7.0
732.390808 7.0
734.885742 28.0
736.389526 18.0
737.384888 10.0
738.132019 8.0
738.14386 8.0
738.392883 12.0
738.523438 16.0
739.104797 6.0
739.876526 9.0
739.888428 9.0
740.945557 13.0
741.325928 8.0
742.384155 41.0
742.681519 10.0
743.812195 53.0
748.415039 26.0
749.418579 19.0
750.040161 7.0
750.052124 7.0
750.362976 41.0
751.296021 48.0
751.427673 16.0
752.002136 113.0
752.44519 16.0
753.415527 28.0
754.878113 12.0
755.345886 9.0
758.444641 18.0
758.552856 59.0
758.612976 15.0
760.501831 39.0
761.32074 21.0
763.056213 11.0
763.900635 16.0
764.322998 7.0
764.443726 8.0
765.349243 14.0
765.929016 8.0
766.424438 31.0
767.22229 10.0
767.331177 11.0
767.379517 26.0
767.440002 15.0
768.395691 57.0
771.42395 42.0
771.448242 40.0
771.67865 11.0
771.896973 10.0
772.394287 19.0
772.454956 25.0
773.425903 27.0
775.406189 26.0
776.464111 13.0
778.484741 30.0
780.386047 12.0
780.422607 15.0
781.459595 9.0
781.484009 36.0
783.413391 11.0
783.474548 37.0
787.279358 12.0
787.475342 15.0
787.842896 22.0
788.884766 31.0
790.369141 23.0
792.395508 22.0
792.469238 39.0
793.391235 20.0
793.428101 30.0
794.485962 17.0
794.855164 31.0
795.187439 12.0
795.470642 29.0
796.899536 30.0
798.391418 26.0
799.255066 13.0
800.477417 8.0
803.456848 44.0
803.493958 11.0
805.512329 45.0
806.900574 19.0
807.421448 23.0
808.352112 33.0
808.389343 16.0
809.444763 17.0
809.494446 15.0
811.420715 22.0
811.893372 16.0
812.950989 56.0
813.934631 36.0
815.941101 115.0
816.290283 26.0
818.412048 8.0
820.386475 11.0
820.473999 12.0
820.886658 50.0
822.513489 11.0
822.776489 8.0
823.465332 14.0
823.916382 54.0
824.141907 17.0
825.383118 61.0
825.947632 50.0
826.424438 31.0
826.487183 26.0
826.826111 54.0
827.441284 20.0
830.382385 10.0
830.457825 23.0
834.412781 24.0
836.494873 16.0
837.378845 10.0
837.492554 22.0
838.313965 8.0
838.377197 23.0
838.4151 9.0
838.465637 7.0
839.527893 21.0
842.477661 20.0
843.402893 36.0
845.407227 36.0
845.546875 17.0
846.384888 17.0
848.341858 12.0
848.761536 84.0
850.453979 10.0
856.345825 9.0
856.818542 27.0
857.406494 16.0
857.495972 24.0
857.534302 24.0
857.815613 18.0
858.378235 16.0
858.621277 10.0
859.401794 24.0
859.427368 9.0
859.46582 41.0
859.632202 13.0
860.938232 52.0
862.399109 20.0
870.314392 10.0
870.455994 15.0
871.409424 28.0
872.401978 7.0
874.44043 7.0
874.453369 7.0
876.545898 19.0
877.580261 16.0
879.378784 6.0
880.453613 11.0
882.371826 10.0
882.553284 11.0
884.486816 14.0
885.460815 26.0
890.143494 35.0
890.417053 15.0
890.456177 8.0
894.459961 32.0
895.922852 18.0
897.504639 20.0
897.517639 20.0
898.354919 26.0
900.46283 60.0
901.104797 9.0
901.419312 20.0
902.441956 11.0
902.507568 38.0
904.515198 17.0
905.355713 19.0
906.538269 7.0
907.340271 15.0
908.44519 62.0
911.408142 26.0
912.225464 11.0
912.410034 18.0
915.458679 9.0
918.565369 12.0
919.994873 46.0
921.49176 7.0
922.326843 23.0
930.525208 30.0
932.523804 26.0
933.350525 59.0
933.497192 17.0
933.523865 21.0
936.447266 39.0
940.445923 24.0
942.535583 18.0
943.527649 17.0
944.345764 33.0
945.325317 46.0
945.499878 22.0
946.802368 18.0
947.406921 25.0
947.501038 35.0
950.311584 28.0
952.492981 13.0
952.883789 56.0
954.515015 24.0
961.446655 7.0
964.38623 21.0
965.43042 13.0
966.325928 22.0
968.552795 21.0
969.436035 37.0
970.428589 93.0
972.483154 31.0
975.644104 6.0
979.438599 15.0
980.44989 13.0
981.46167 21.0
982.432983 14.0
982.61084 7.0
983.404663 7.0
987.131897 7.0
988.490234 10.0
988.545166 11.0
988.586365 9.0
989.396362 15.0
989.451294 13.0
990.426453 10.0
992.488342 8.0
994.469849 7.0
996.439453 43.0
1000.481201 11.0
1003.452271 25.0
1016.479553 11.0
1017.537598 31.0
1017.96936 20.0
1018.4151 48.0
1020.519897 10.0
1020.617493 19.0
1023.436707 23.0
1023.520508 14.0
1025.476685 26.0
1029.100708 5.0
1029.114624 5.0
1029.60498 12.0
1029.646973 13.0
1030.529663 22.0
1031.636963 22.0
1032.450562 43.0
1035.45459 13.0
1035.496582 26.0
1035.51062 26.0
1036.311646 12.0
1036.62085 45.0
1040.419312 12.0
1042.151978 8.0
1042.546631 12.0
1043.392578 15.0
1043.434937 25.0
1044.859619 21.0
1049.422485 29.0
1049.507324 19.0
1053.740234 14.0
1057.953369 7.0
1058.578125 9.0
1063.512573 41.0
1064.495117 14.0
1064.594849 18.0
1070.528564 28.0
1072.514893 12.0
1074.345825 30.0
1074.660522 30.0
1077.510376 12.0
1079.158936 12.0
1081.052856 18.0
1088.342285 29.0
1088.615967 20.0
1089.509155 11.0
1092.551758 30.0
1092.580688 15.0
1093.504272 30.0
1094.442871 34.0
1096.52356 33.0
1097.853882 15.0
1104.445312 12.0
1106.37561 48.0
1106.506348 29.0
1106.796753 8.0
1107.406982 7.0
1115.586426 24.0
1116.461426 19.0
1119.395264 11.0
1127.486938 31.0
1128.425293 8.0
1128.542603 19.0
1130.538086 22.0
1131.903564 29.0
1144.540405 28.0
1151.447998 9.0
1161.989624 6.0
1162.004517 6.0
1162.525391 20.0
1162.986938 7.0
1171.65271 10.0
1173.551147 11.0
1189.381958 14.0
1223.467773 13.0
1223.574585 42.0
1234.057373 25.0
1238.017212 12.0
1241.644897 17.0
1244.523071 11.0
1250.552002 30.0
1252.250854 17.0
1274.455078 28.0
1277.542725 27.0
1292.581909 24.0
1299.937744 16.0
1305.263184 11.0
1313.667358 37.0
1324.242432 6.0
1324.258179 6.0
1359.422852 12.0
1381.09314 7.0
1387.509033 10.0
1391.691284 35.0
1413.452148 12.0
1422.592285 17.0
1517.450317 12.0
1596.772217 28.0
1632.680908 55.0
1733.574829 30.0
1747.124512 9.0
1911.543579 14.0
2057.35376 7.0
2060.344971 7.0
2207.025391 14.0
2305.894531 14.0
2542.915039 15.0
2549.832275 7.0
2556.91333 26.0
2650.153076 28.0
2884.341553 12.0
2929.603516 31.0
2986.014893 7.0
END IONS
