BEGIN IONS
PEPMASS=707.302
CHARGE=1
MSLEVEL=2
SOURCE_INSTRUMENT=LC-ESI-Orbitrap
FILENAME=Cpd_1_707.mgf
SEQ=*..*
IONMODE=Positive
ORGANISM=GNPS-LIBRARY
NAME=euphodendroidin E M+Na
PI=LITAUDON/TOUBOUL
DATACOLLECTOR=Esposito
SMILES=C[C@H]1C[C@](O)(C([C@@H](C)/C=C/C(C)(C)[C@H](OC(C)=O)[C@H](OC(C)=O)[C@@H](OC(C2=CC=CC=C2)=O)C([C@@H]3OC(C(C)C)=O)=C)=O)[C@]3([H])[C@H]1OC(C)=O
INCHI=
INCHIAUX=
PUBMED=N/A
SUBMITUSER=lfnothias
TAGS=
LIBRARYQUALITY=1
SPECTRUMID=CCMSLIB00000840535
SCANS=1
183.113037 28618.964844
193.571945 30783.097656
196.118469 31151.792969
196.432251 44566.246094
200.567993 48772.398438
228.395767 29661.023438
248.286484 31909.128906
249.163925 110166.140625
267.175293 224588.6875
277.159271 125878.796875
282.974792 34629.683594
285.185577 94088.171875
295.168671 341430.9375
307.303192 30988.476562
313.179169 122115.96875
317.153625 166468.03125
327.073761 36084.371094
327.194489 45380.484375
335.164246 202279.375
345.68103 38004.203125
355.188416 78424.65625
373.202301 58654.355469
377.172882 384685.15625
383.002106 29963.652344
385.152252 31395.730469
393.204834 101103.09375
395.180237 551039.0
405.204071 101135.3125
409.196777 42830.285156
437.19101 934258.5
439.187347 89001.640625
453.224304 42942.199219
455.206787 2697000.0
457.194946 241239.78125
465.226105 399647.71875
483.234406 749588.4375
487.460388 39067.550781
497.217896 325254.46875
499.209564 498628.4375
501.221741 43891.339844
513.220215 34534.222656
515.22052 69492.140625
517.223694 555437.0625
525.245117 1309513.25
537.245667 46772.976562
543.25238 135181.890625
557.268188 55231.269531
559.231812 1411945.5
561.246033 146516.25
564.080261 31463.394531
567.282959 39470.25
580.539673 35811.046875
581.979919 36126.789062
585.272339 4915094.0
587.256897 1047793.75
603.290466 57375.222656
605.266174 48001.265625
619.255371 1666385.125
646.623901 64049.527344
647.282959 20905392.0
651.120544 46084.148438
END IONS
