BEGIN IONS
PEPMASS=610.333
CHARGE=1
MSLEVEL=2
SOURCE_INSTRUMENT=LC-ESI-Orbitrap
FILENAME=f.ktahlan/KT-1/MUN/Methanol/SC/3 SC onTSB mrth-pos.mzXML;
SEQ=*..*
IONMODE=Positive
ORGANISM=GNPS-LIBRARY
NAME=Tunicamycin in source fragment -C8H15NO6 putative M+H
PI=Tahlan
DATACOLLECTOR=lfnothias
SMILES=O=C(NC1=COC(CC(O)C2C(O)C(O)C(N3C=CC(NC3=O)=O)O2)C(O)C1O)/C=C/CCCCCC(C)CC(C)CC
INCHI=
INCHIAUX=
PUBMED=
SUBMITUSER=lfnothias
TAGS=
LIBRARYQUALITY=3
SPECTRUMID=CCMSLIB00005435945
SCANS=4403
70.029045 13464.057617
70.061859 3199.556396
70.06543 58782.96875
71.013077 16294.287109
71.049431 11155.75293
71.085869 39383.429688
71.472855 2440.159912
72.044746 23189.460938
72.080833 6993.948242
73.028893 4520.626953
73.064865 2741.390625
74.060402 3812.580078
74.096664 2437.96875
79.054451 98560.3125
80.049652 21175.728516
81.029411 3393.166748
81.033699 38255.996094
81.070068 257119.65625
82.028717 2641.887207
82.065292 71114.210938
83.049301 87429.46875
83.085678 339992.25
84.044525 1151531.25
84.08123 4024.960449
85.028496 25318.068359
85.064972 12376.136719
85.10128 19111.027344
86.059975 2868.000244
86.096298 20515.876953
87.04451 2551.714111
87.080574 3942.1604
90.605614 2249.625
91.054161 18003.855469
92.049454 12064.962891
93.0336 8471.029297
93.069931 140007.640625
94.06514 12260.625977
95.012794 67977.3125
95.049072 14013.957031
95.085533 257123.734375
96.007858 8840.841797
96.044403 516496.53125
97.028458 65491.226562
97.06485 41870.601562
97.101219 209673.671875
98.023384 3316.25708
98.06002 14282.55957
99.043915 3559.188965
99.080498 17698.46875
100.07534 2175.390625
101.096024 2606.172363
102.091545 4147.802734
103.054253 12518.145508
105.069962 8630.905273
106.065277 16200.928711
107.04921 15754.037109
107.085541 100110.023438
108.044327 17217.576172
109.028473 10258.198242
109.052147 11828.253906
109.101212 290448.03125
110.060112 85791.515625
111.044113 118354.828125
111.05204 2850.930908
111.080963 23531.292969
111.116745 66312.0
112.039268 39475.996094
113.022278 11928.987305
113.034531 406102.90625
113.096054 13230.539062
116.070587 12225.460938
118.032166 10072.000977
118.065079 13089.691406
119.049339 3888.018066
120.044395 12447.928711
120.080734 24981.175781
121.028389 27940.572266
121.064919 11367.201172
121.101173 205900.90625
122.059929 27681.416016
123.044075 21219.203125
123.116814 163921.25
124.039368 12730.939453
124.075401 4138.587402
125.034988 2954.688232
125.096245 21014.267578
125.132401 18982.925781
126.054909 7920.305664
127.038605 2473.808105
127.111649 13053.167969
130.049942 4397.172852
130.06514 32462.505859
130.477081 2280.349609
131.048965 17809.361328
132.080307 2971.345459
133.028519 3756.835938
133.052002 2495.791992
134.060028 33655.238281
135.044083 13416.169922
135.11676 203808.640625
136.03949 13072.706055
136.075623 14454.996094
137.023224 9092.21582
137.13266 21175.306641
138.054947 213764.390625
139.038956 154618.34375
139.111664 13255.444336
140.033752 2308.927979
140.070541 14493.668945
141.02919 2246.51416
141.12677 2272.208496
143.85022 2743.827148
146.06015 15300.855469
147.044174 2978.730225
148.039322 37196.351562
148.075531 32027.644531
149.059845 18446.197266
149.132523 143203.375
150.05481 25715.105469
151.039032 7989.147461
151.063416 2199.369385
152.070572 22332.529297
153.055099 2686.571533
155.044876 21953.6875
156.065735 94569.820312
156.080292 10878.945312
157.049896 18481.027344
158.059891 23896.273438
159.043976 12373.038086
159.092072 4181.932129
160.039429 10010.444336
161.024475 2464.932617
162.054916 39604.3125
163.038895 33562.394531
163.061966 2715.589844
163.148178 23186.896484
164.07077 5119.580078
165.055099 2579.403809
165.102371 2470.663818
165.163788 8792.948242
166.086258 17127.490234
168.065323 3798.600586
170.080978 5315.210449
174.055573 4630.705078
175.06279 3116.487061
176.047455 2673.236084
176.070724 79562.195312
177.054535 24945.490234
178.049667 41367.441406
178.086029 2739.049805
179.044296 2766.200439
180.065186 20968.873047
182.079681 2574.263672
183.040176 2737.299072
183.091705 39516.640625
184.075531 46993.988281
186.055252 13227.397461
187.038895 10009.676758
188.070587 9287.897461
194.081009 31771.658203
198.07663 3203.391113
204.065613 209876.234375
205.049377 64291.703125
205.096237 2981.990967
205.195206 114739.898438
207.039551 2692.286865
215.138672 3864.880371
222.076248 191704.453125
223.059128 20021.078125
223.20578 68383.523438
227.080994 3250.467773
229.097122 126326.34375
229.119904 4356.456055
229.154846 9248.579102
233.055511 10935.294922
240.061447 3512.417725
240.086639 177988.140625
240.232239 234103.25
258.096863 12517.429688
264.232391 20842.394531
267.133789 8360.053711
268.599701 2387.47876
269.076447 20863.677734
269.461761 2257.654785
276.231689 4537.219238
288.230377 2606.577881
290.247284 51687.859375
292.22644 2802.009766
294.241547 3787.807129
306.242371 953248.3125
307.245514 5049.055664
314.247284 8630.854492
316.093292 9969.30957
316.226898 73872.75
316.261841 3175.935059
318.207672 3635.007812
318.242462 59741.707031
318.276367 4210.984863
332.258667 41214.808594
334.103119 17449.552734
334.238037 18528.830078
342.243835 11203.673828
352.114258 107295.289062
356.257904 22077.609375
360.253418 234392.546875
370.72879 3769.716309
372.250336 3007.433838
374.27002 12276.879883
378.264252 77236.96875
384.251404 7846.818359
386.267395 2788.71582
398.268433 11444.922852
400.248413 39268.773438
408.256012 3888.169922
416.282684 3080.355957
420.273834 7591.937012
426.263702 40162.113281
427.161652 4803.71875
444.274536 89194.898438
447.34906 21703.173828
448.34848 8611.823242
462.284973 400657.375
463.292633 5234.758789
480.295471 17484.310547
498.305634 13145.511719
520.280701 2783.321777
530.383423 2706.17041
538.290955 15626.143555
556.303162 33345.464844
574.226196 2684.987549
574.313538 70081.734375
575.312744 2989.297119
609.50946 14047.047852
610.337524 41671.207031
610.516663 8291.09375
END IONS
