BEGIN IONS
PEPMASS=801.445
CHARGE=1
MSLEVEL=2
SOURCE_INSTRUMENT=LC-ESI-Orbitrap
FILENAME=f.daniel/Corn_real_soil_2017/20170803_MZmine228_output_mgf/high-MW_MZmine_GNPS.mgf;
SEQ=*..*
IONMODE=Positive
ORGANISM=GNPS-LIBRARY
NAME=Beauvericin [+NH4+] M+NH4
PI=P Dorrestein
DATACOLLECTOR=Daniel Petras
SMILES=O=C1N(C)[C@H](C(=O)O[C@@H](C(=O)N([C@H](C(=O)O[C@@H](C(=O)N([C@H](C(=O)O[C@@H]1C(C)C)Cc2ccccc2)C)C(C)C)Cc3ccccc3)C)C(C)C)Cc4ccccc4
INCHI=
INCHIAUX=
PUBMED=
SUBMITUSER=daniel
TAGS=
LIBRARYQUALITY=3
SPECTRUMID=CCMSLIB00003142432
SCANS=719
81.069969 125366.5625
83.049156 644260.125
84.618286 146851.0625
89.59436 91615.070312
91.053909 1387196.625
91.058792 114307.015625
105.069756 143731.515625
114.0914 1100071.25
117.069893 406959.65625
118.51638 88377.578125
119.07312 598866.0625
121.969925 100157.703125
124.076012 88005.179688
132.08075 1387456.0
134.096359 101109136.0
134.466873 81055.390625
143.085556 1607740.75
158.096695 602312.8125
159.117249 98130.320312
160.075592 361026.1875
162.09108 155860.6875
174.091476 164361.671875
180.101974 2522132.75
184.072739 689065.75
200.143951 858549.9375
201.113541 94600.476562
216.138519 3374396.75
229.109421 917156.8125
234.148834 14180089.0
244.133087 98637784.0
262.143433 45837908.0
280.153412 1697236.75
343.936584 109012.960938
344.187408 210438.84375
362.196381 5425815.5
362.242859 189009.09375
395.231201 973122.375
396.284912 98146.929688
403.880981 108899.4375
423.226715 161217.140625
441.23938 1026797.5625
462.249359 147490.765625
495.285919 531066.875
523.280334 2441202.0
541.290344 535228.875
554.358643 119746.578125
559.304993 123194.664062
576.566345 119549.367188
580.434753 417481.34375
623.332031 1584107.375
651.830627 124729.726562
656.366516 561914.3125
690.474915 163685.875
708.485352 134008.921875
756.413025 114919.460938
784.416809 2504339.25
END IONS
