BEGIN IONS
PEPMASS=1375.28
CHARGE=1
MSLEVEL=2
SOURCE_INSTRUMENT=LC-ESI-qTof
FILENAME=f.TJLing/2017_OtherTestFiles/spectral_data_ms2_GNPS.mgf;
SEQ=*..*
IONMODE=Positive
ORGANISM=GNPS-LIBRARY
NAME=annotation of 1375.28 as triple egcg plus a proton M+H
PI=TieJun Ling
DATACOLLECTOR=TieJun Ling
SMILES=O=C(c1cc(O)c(O)c(O)c1)O[C@@H]2Cc3c(O)cc([OH2+])cc3O[C@@H]2c4cc(O)c(O)c(O)c4.O=C(c5cc(O)c(O)c(O)c5)O[C@@H]6Cc7c(O)cc(O)cc7O[C@@H]6c8cc(O)c(O)c(O)c8.O=C(c9cc(O)c(O)c(O)c9)O[C@@H]%10Cc%11c(O)cc(O)cc%11O[C@@H]%10c%12cc(O)c(O)c(O)c%12
INCHI=
INCHIAUX=
PUBMED=
SUBMITUSER=TJLing
TAGS=
LIBRARYQUALITY=3
SPECTRUMID=CCMSLIB00003142410
SCANS=905
139.03923 25328.0
140.041397 1492.0
151.03775 5268.0
152.04187 788.0
153.018341 1788.0
163.036011 420.0
181.045364 264.0
271.055267 372.0
289.073212 7784.0
290.078552 1196.0
291.068512 268.0
307.080414 1312.0
308.090454 272.0
333.066406 332.0
459.092834 23276.0
460.094788 4636.0
461.097565 1012.0
917.186523 7032.0
918.187805 2656.0
919.187683 1292.0
920.184143 276.0
1375.261108 944.0
1376.284668 660.0
1377.273804 428.0
END IONS
