BEGIN IONS
PEPMASS=1160.62
CHARGE=1
MSLEVEL=2
SOURCE_INSTRUMENT=LC-ESI-qTof
FILENAME=f.MSV000079204/ccms_peak/0518_s_BuOH.mzXML;
SEQ=*..*
IONMODE=Positive
ORGANISM=GNPS-LIBRARY
NAME=Stenothricin G M+H
PI=Dorrestein
DATACOLLECTOR=Nothias
SMILES=CC1OC(CN(C(C(NC(C(NC(C(NC(/C(NC(C(NC(C(NC(C1NC(C(NC(CC(CCCCCCCCC(C)CCCC)=O)=O)CS(O)(=O)=O)=O)=O)CO)=O)CN)=O)=C/C)=O)C(C)C)=O)CO)=O)CCCCN)=O)C)=O
INCHI=InChI=1S/C51H89N11O17S/c1-8-10-19-31(5)20-15-13-11-12-14-16-21-33(65)24-40(66)54-39(29-80(76,77)78)48(72)61-43-32(6)79-41(67)26-62(7)51(75)35(22-17-18-23-52)56-46(70)37(27-63)58-49(73)42(30(3)4)60-44(68)34(9-2)55-45(69)36(25-53)57-47(71)38(28-64)59-50(43)74/h9,30-32,35-39,42-43,63-64H,8,10-29,52-53H2,1-7H3,(H,54,66)(H,55,69)(H,56,70)(H,57,71)(H,58,73)(H,59,74)(H,60,68)(H,61,72)(H,76,77,78)/b34-9-
INCHIAUX=
PUBMED=
SUBMITUSER=lfnothias
TAGS=
LIBRARYQUALITY=3
SPECTRUMID=CCMSLIB00005436027
SCANS=2326
327.047607 19.205597
331.493256 20.343109
334.132111 15.977236
335.396759 9.632706
336.15152 15.259597
340.226715 110.497177
341.107605 20.908127
342.242615 45.290985
351.089752 35.717377
352.336121 3.855131
353.074463 6.198514
354.054138 11.089251
355.056061 15.233837
356.167023 15.935073
359.235596 12.767892
360.223114 77.527985
361.216522 27.380806
362.349762 11.309027
363.225922 96.55043
364.961273 7.562629
369.383331 23.355206
370.184875 41.16082
372.37616 17.016344
373.863708 17.165293
377.196564 13.009459
380.197845 27.055841
381.052429 119.036026
384.006104 2.937915
385.312683 4.508731
386.278961 9.27182
386.898468 26.712952
389.110016 16.651531
390.198242 22.229774
391.417664 22.443907
392.246277 18.51189
393.07843 24.949337
394.074463 3.614487
395.2211 23.478054
396.435364 39.150925
397.351349 10.463572
398.052032 64.390793
401.395905 13.682997
402.4245 8.441846
404.168335 186.849808
405.319031 51.991459
406.220642 21.861589
407.373932 35.049835
408.162933 9.645221
410.182983 60.477951
411.126312 90.210579
411.880463 12.840801
413.629395 18.013824
414.27655 26.188534
416.225708 15.727365
417.424164 5.686515
418.385345 13.205937
419.372131 3.425532
419.986511 5.927728
421.979736 152.937256
423.16748 32.454262
425.044189 31.537228
426.148956 22.486654
427.175415 36.01577
428.126984 104.315506
429.172729 36.791096
430.222076 21.737392
431.909027 8.022174
434.269165 8.064257
436.747772 38.626446
439.394714 38.994026
440.279968 15.769102
441.395142 16.832947
443.391357 46.816086
444.234253 22.796244
445.071625 16.829544
446.029083 3.428553
447.168915 25.573145
448.155823 5.815352
449.363708 43.92952
450.186584 41.830845
451.762939 42.927547
453.302582 30.931358
454.295044 7.062189
455.275177 16.370193
456.496124 7.82542
457.218079 29.269173
458.186035 26.439812
459.52652 5.112919
461.167969 34.865616
462.129089 23.466408
463.159454 32.825417
464.210175 9.06022
465.9039 16.294531
467.52887 21.956104
468.238586 16.626581
468.852112 55.229042
470.181763 177.350159
471.039734 20.499872
473.362396 24.344975
475.024994 22.318066
476.211853 26.549114
477.334595 10.682157
478.26123 9.280048
479.250977 187.199921
480.347351 40.008232
480.996216 63.011028
482.273865 10.331244
484.26532 81.406052
485.188782 46.126019
487.080505 236.290329
488.269653 51.633751
489.13913 36.679096
490.000763 25.906757
491.026062 79.770828
492.139221 26.352789
493.194275 184.611404
494.297882 129.126221
495.359741 18.232214
496.081421 14.267522
497.185181 139.835114
498.341553 35.695629
499.295044 43.984924
500.059998 9.620077
501.153381 52.88599
502.12915 6.513002
504.222473 29.080164
505.234131 42.968338
507.190002 63.789291
508.327026 134.06012
509.231689 27.985397
511.020477 1648.712036
512.058105 113.240631
513.385254 29.112154
514.333191 40.363785
515.063965 16.951803
515.964233 15.484749
518.139343 1.765053
518.997314 3.711033
520.566711 42.502846
521.944336 80.188194
523.157593 15.091863
524.244629 86.17012
525.361267 16.623222
526.409119 35.728664
527.236511 73.537567
528.258667 47.220028
529.224365 7.14466
530.313232 36.633194
531.547058 10.213135
532.482849 51.399651
533.169861 45.385017
533.995483 22.63488
535.977173 68.75174
539.263916 164.482269
540.416016 44.045078
542.087585 133.254639
543.250488 3.430386
544.284668 134.462524
545.34668 62.867752
546.416138 24.813648
547.11499 14.627232
548.331909 13.753236
549.24231 33.097656
550.419678 59.152748
551.269104 169.015121
552.272583 53.821548
553.842834 80.35321
555.484009 41.585388
556.377319 147.213409
557.067871 68.400024
558.225891 50.04744
560.21759 2.72514
561.18042 43.94593
562.39978 86.937111
563.314819 28.093832
566.081421 48.741673
567.290771 72.880341
568.325439 39.737713
569.460449 11.579359
571.178894 129.327606
572.189697 80.00589
573.139282 239.782349
574.105713 388.934235
575.313843 65.996376
576.229004 133.539642
577.232422 32.759766
578.11908 41.447289
580.086914 310.719116
580.96521 12.052673
583.04187 51.684826
584.33313 45.534107
585.359497 100.650627
586.170776 100.572632
587.261169 157.864136
588.23938 111.114014
589.628723 103.2771
590.278198 192.053696
591.26178 87.462112
592.36499 103.938263
593.296204 84.342545
594.24469 243.142075
595.158936 66.022079
596.244873 117.275436
597.292358 74.765137
598.359985 16.381567
599.377075 6.115388
603.061035 27.605326
604.083923 121.663185
605.247681 17.798971
606.393372 10.58469
607.41687 178.815887
608.37793 60.056198
609.378845 16.895275
611.337036 16.615849
613.168213 441.246887
614.344116 72.946869
615.35437 101.137482
616.626465 17.924788
617.56897 9.048809
620.254028 27.64909
621.140259 105.438744
622.291138 108.861572
623.44812 10.659042
624.243774 7.246864
625.228027 205.592941
626.130005 121.502441
627.333435 87.753273
628.237671 4.291277
629.332886 29.49317
631.190918 1572.540649
632.260132 150.163742
633.230957 24.60305
634.153564 27.473434
636.360107 22.684881
637.32373 61.823406
638.29834 23.974405
639.330994 154.56015
640.196899 54.356239
641.040405 3.438475
642.203491 184.204239
643.288574 218.792877
644.369629 53.166294
645.224976 10.05637
646.310974 35.743198
647.408081 58.477684
648.224487 106.405746
649.541748 51.880814
650.161316 456.505981
651.212341 114.79393
652.154785 13.01145
653.096069 9.22693
653.700562 3.074848
654.327759 73.307182
655.126831 49.786232
656.220154 203.440613
657.267456 75.107262
658.63916 23.050377
660.230896 644.241028
661.267944 451.580566
662.223755 72.443947
663.100037 126.170898
664.672729 5.456244
665.279724 189.578049
666.371582 9.76048
667.361877 37.354691
668.354248 38.466389
669.120361 13.513456
672.239136 175.079498
673.517151 142.050446
674.248291 674.579651
675.271118 379.113312
676.291626 437.386536
677.212219 131.00087
679.084412 816.963196
680.121094 181.509674
681.191406 83.660065
682.083618 29.222557
683.151733 179.625259
684.406982 58.088512
685.305725 31.686401
686.62854 6.819862
687.479858 17.816433
688.853455 25.958185
689.704529 29.857544
691.158264 155.857071
692.435669 157.465057
693.350586 422.078857
694.238892 159.979996
695.573792 103.166885
696.276855 327.240051
697.467224 51.782928
698.202637 79.764793
699.175293 11.22103
701.318726 23.863701
702.261841 182.174667
703.537109 106.419907
704.226135 384.480438
705.239868 60.465683
706.310425 169.199753
707.495667 161.761627
708.368652 121.295067
709.404541 25.21904
711.102173 30.133726
712.349365 81.293953
714.29541 2222.177246
715.272583 242.08934
716.274536 55.085239
717.367676 54.891186
718.211548 93.181923
719.280884 62.653301
720.234985 313.022827
721.315063 145.876465
722.255249 81.832428
723.339539 116.053162
724.662109 72.458878
725.361816 405.382477
726.235229 148.109131
727.302734 112.082397
728.305725 53.170502
729.30835 21.183651
730.539795 34.292995
731.349976 113.344193
732.408386 103.005302
733.292236 36.121758
734.424683 11.400865
735.38446 39.96051
736.56012 11.856245
737.17041 321.96814
738.209473 139.046082
739.347534 357.666534
740.297302 431.347687
741.349121 47.977726
743.32666 1508.809204
744.313538 205.382263
745.316284 673.113403
746.285095 183.050018
747.685059 15.72413
748.33844 138.80545
749.272705 95.11219
750.448181 18.42617
751.285095 5.23743
752.344482 1.44121
753.479126 15.025272
755.32489 425.638062
756.348267 271.866882
757.341797 1022.861389
758.254883 114.001175
759.276611 47.381836
760.330933 89.99968
761.364624 37.659386
763.189392 3335.365723
764.175781 345.428406
765.121338 16.202644
766.322266 256.425598
767.232056 62.076168
767.99585 38.126923
769.229431 34.823387
769.991455 13.469284
771.352173 59.854752
772.341675 42.021561
773.185791 101.115356
774.295044 236.85022
775.073486 47.814384
776.008911 102.505707
777.03125 22.382053
777.739624 44.500183
778.347168 36.172607
779.620605 48.772316
780.492432 150.98938
781.404663 28.397675
782.509949 34.776043
783.279663 65.672134
785.351501 29.231339
786.659119 18.562925
787.280457 43.868469
788.05481 45.83606
789.340942 38.916443
791.209534 221.816284
792.450073 35.334885
793.870483 6.95594
795.261475 412.770264
796.330811 51.473812
798.218628 5.786863
800.355957 24.630392
801.306396 35.361248
802.250366 44.040867
803.219604 1044.727417
804.273071 153.550476
805.323853 269.03595
806.35498 32.027145
808.203308 58.162834
809.328369 432.196655
810.373291 92.389389
811.258728 74.481789
812.268921 126.665215
813.174438 101.491547
814.385925 99.990875
815.268555 79.662682
816.473022 91.98497
817.385498 156.690613
818.319214 204.743286
819.27832 263.665131
820.188354 96.92186
821.281006 101.979507
822.27832 9.79084
823.443481 6.881485
824.367188 46.663738
826.305054 183.383713
827.243042 141.884933
828.349487 230.335571
829.377563 123.977112
830.235229 593.712158
831.267212 231.867188
832.30127 72.158539
833.256958 56.875488
833.880127 17.407095
835.398315 51.210548
836.202881 13.575682
837.107056 44.568832
838.272339 218.911865
840.181519 46.949963
840.805542 15.321019
842.099731 314.41153
843.170776 59.808556
844.398071 129.609634
845.311401 192.631119
846.32373 652.340454
847.284912 554.981506
848.145874 665.073425
849.202148 357.513275
850.225098 48.955185
851.334717 17.789764
854.086426 46.608009
855.208618 186.730469
856.325928 389.660797
858.236206 3749.461426
859.224243 1655.54126
860.266479 336.752441
861.220215 95.727501
862.501709 77.229362
863.355347 240.735611
865.154297 6650.037109
866.289307 809.157349
869.149658 8.223568
870.41687 74.326759
872.19043 2977.516602
873.27478 1605.650635
874.289795 379.276123
876.286499 2977.36499
877.256958 1578.522827
878.318359 269.223175
879.345825 171.346725
880.278931 26.918995
881.164062 46.797218
882.552368 18.590647
884.312988 84.351028
885.385986 15.972539
886.193726 41.824059
887.664429 68.533546
888.337158 169.069077
890.208618 4679.331055
891.230347 3835.644043
892.322876 245.955475
894.27832 15921.969727
895.361938 1483.233887
896.301025 46.287868
897.415527 34.170792
898.35144 99.542839
899.385742 48.235134
900.263794 67.951721
902.11438 1177.827637
903.206299 146.203644
904.403809 38.650555
906.34436 1241.443848
908.202271 23960.179688
909.168091 3284.333252
910.212036 102.998634
911.272217 37.275879
913.206665 100.204788
914.117065 32.211327
915.228638 147.931519
916.178955 156.993744
917.258057 674.536194
918.241821 81.364822
918.877319 19.069063
920.697998 21.96796
922.393799 76.36644
923.530518 17.22896
925.282104 135.577515
926.580811 79.317856
927.210693 343.717651
928.252075 89.876831
929.528442 42.88681
931.231812 188.902817
931.99231 44.069538
933.040649 39.470093
933.667969 14.388844
934.674683 29.095173
935.2771 156.789474
936.251831 27.816153
937.404175 11.963732
938.497681 22.690933
940.603638 18.058975
941.65564 38.708439
943.40271 348.400391
944.561768 352.335938
945.337891 897.40271
946.220459 250.825912
947.455811 6.417079
949.497803 39.703934
953.393677 48.643139
954.250366 23.036983
955.508789 82.050461
956.254639 76.318298
956.948975 40.976715
958.197632 27.366718
959.46228 69.653679
960.458496 118.465706
961.477661 39.047394
962.386353 26.693836
967.508789 19.219448
968.342651 4.049885
969.433228 29.11108
970.27771 92.066757
971.31897 152.698471
972.051636 97.412857
973.324097 235.362244
974.230591 35.483952
975.357422 19.522158
976.278442 30.363714
978.260376 605.914246
979.229248 119.121048
979.830078 3.47859
982.375366 22.63673
984.818481 4.259752
985.719116 57.430321
986.627075 18.013063
987.355103 79.5158
988.151855 35.648354
989.293335 531.286621
990.452271 81.123756
991.39502 76.628975
994.337158 35.469791
995.080688 29.069208
996.181274 84.664871
997.664551 32.851486
998.471436 3.756803
999.289307 7.634157
1000.438477 71.664093
1001.475342 6.480431
1002.529907 9.051855
1003.359985 30.028328
1005.751099 32.484585
1006.392944 7.950762
1007.336304 20.286644
1008.986084 13.273367
1010.462036 8.728032
1011.263672 8.056655
1012.341064 28.675989
1013.377075 34.063065
1014.384399 166.961121
1015.248779 85.150284
1016.140259 34.160057
1017.22644 28.874208
1018.205688 61.331032
1019.471558 37.541443
1020.435669 9.851145
1021.588257 9.731051
1023.558105 38.69141
1024.487671 20.470053
1025.216431 83.487839
1026.405762 78.342873
1027.77478 29.372513
1028.677612 50.216187
1030.513062 55.081932
1031.680542 101.136597
1032.683594 91.805283
1033.443115 84.883026
1034.349854 32.061783
1035.368896 75.888992
1036.277588 25.126326
1037.316895 19.621788
1038.541626 20.597721
1040.560791 17.754011
1042.333496 145.347321
1043.36731 77.651001
1044.349976 21.804991
1045.432861 13.83675
1047.96228 5.681093
1049.178345 40.246643
1050.336304 10.461132
1052.44043 51.784313
1053.224243 37.570831
1054.24707 22.622316
1055.354248 54.690968
1056.562866 43.286091
1057.899414 10.47772
1059.317261 49.519871
1060.397949 289.22113
1061.308228 483.307617
1061.91394 6.724771
1062.533813 122.518188
1064.603394 19.806227
1067.180176 9.55883
1068.543823 47.702503
1069.439209 58.170712
1071.250366 131.959091
1072.285645 68.461624
1073.231201 30.560448
1074.529175 28.51108
1076.459595 35.359627
1077.299927 87.670883
1078.353394 398.604492
1079.282471 54.404854
1080.207275 49.23629
1081.404907 159.64653
1082.283691 325.362396
1083.206787 43.112831
1084.25354 12.570655
1085.486084 33.592457
1086.498169 19.938066
1087.497192 67.96785
1089.378174 176.242081
1090.564697 46.037952
1092.57666 62.167545
1094.160034 61.072266
1095.335938 104.420189
1096.385498 97.921204
1097.364502 272.59613
1098.821045 904.168945
1099.456665 1370.505493
1100.298706 374.802246
1101.190063 54.806702
1101.860596 28.263468
1103.485474 206.875336
1104.381226 33.083313
1105.188354 38.582817
1106.30127 95.712845
1107.422729 152.389099
1108.444702 78.577209
1109.79541 63.274391
1111.278198 128.334381
1112.559692 260.145355
1113.448853 499.328827
1114.517822 546.642212
1115.412964 960.812744
1117.318604 8262.037109
1118.357666 1445.256836
1119.014893 5.159811
1121.613037 39.120117
1122.305542 189.831116
1123.418823 485.146759
1124.416016 4800.183105
1125.338745 4288.90625
1126.412109 432.565399
1127.044678 1.687268
1128.367432 25.335844
1129.414307 268.527893
1130.523071 446.966583
1131.328613 1685.454956
1132.333862 558.205627
1133.474243 48.420158
1134.650879 48.729485
1140.392822 764.707947
1141.777832 2188.258301
1142.458862 7029.420898
1143.366089 3872.537354
1144.370728 469.458435
1145.717407 8.982818
1146.430542 492.762329
1147.512695 59.818375
1170.354126 21.865091
1171.762573 10.071983
1172.691284 8.69932
1174.074097 53.699238
1174.829834 13.726385
1186.595825 11.433406
1187.233398 22.911983
1198.887451 31.019323
1202.18042 22.058592
1224.328979 8.315951
1232.890625 15.838599
1243.59436 40.629993
1250.340942 5.399409
1250.958618 8.775061
1256.873657 37.522198
1263.315674 62.684734
1266.688599 38.063492
1313.562988 8.428734
1319.679199 5.055272
1327.674438 3.518464
1332.483521 17.18601
1338.282837 10.056878
1354.022217 8.562662
1362.597046 10.75957
1368.372925 3.717162
1424.401367 16.23188
1435.992554 48.429302
1441.010498 9.68294
1484.005127 15.643072
1531.546753 25.207243
1555.39563 19.557096
1588.469604 10.063986
1591.671631 10.116888
1634.54834 25.614187
1656.44873 2.863731
1714.023926 5.736623
1729.373901 14.200485
1811.477661 2.861732
1912.668213 7.343413
END IONS
