BEGIN IONS
PEPMASS=845.44
CHARGE=1
MSLEVEL=2
SOURCE_INSTRUMENT=LC-ESI-Orbitrap
FILENAME=f.ktahlan/KT-1/MUN/Methanol/SC/2 SC on GSPG meth-pos.mzXML;
SEQ=*..*
IONMODE=Positive
ORGANISM=GNPS-LIBRARY
NAME=Tunicamycin B M+H
PI=Dorrestein
DATACOLLECTOR=lfnothias
SMILES=CC(C)CCCCCCCCCCC=CC(=O)NC1C(C(C(OC1OC2C(C(C(C(O2)CO)O)O)NC(=O)C)CC(C3C(C(C(O3)N4C=CC(=O)NC4=O)O)O)O)O)O
INCHI=
INCHIAUX=
PUBMED=
SUBMITUSER=lfnothias
TAGS=
LIBRARYQUALITY=3
SPECTRUMID=CCMSLIB00005435937
SCANS=4048
70.02919 3096.655273
70.065384 2694.943604
71.013184 6826.911133
71.049461 6713.882324
71.085884 14909.336914
72.044792 3749.738037
79.054474 21435.599609
79.714569 1560.40564
81.033737 16775.357422
81.070107 90866.601562
82.065369 22190.384766
83.049179 20962.408203
83.085709 79904.054688
84.044571 411076.9375
85.02874 4251.379395
85.100983 6143.133301
91.054405 3057.11499
93.069984 33128.15625
94.065247 3165.811523
95.012672 15426.607422
95.049408 3197.091797
95.085602 67967.96875
96.044464 189535.203125
97.028419 27027.833984
97.064919 6599.632812
97.101219 72578.640625
98.060181 40109.277344
98.900558 1551.509399
99.044022 7828.514648
100.039726 1928.065674
105.069908 2082.548096
106.065186 2370.266602
107.04937 4002.311768
107.085693 20006.328125
108.044327 9724.963867
109.02874 22063.644531
109.101318 45444.3125
110.060318 21226.4375
111.044228 27338.298828
111.080666 7062.625488
111.11692 18530.484375
112.039505 6700.425781
113.034584 106402.085938
118.065544 2121.555176
119.801941 1603.059692
120.044144 2063.143311
120.080528 2595.707275
121.028343 2872.054932
121.064423 3166.338379
121.10125 58700.714844
122.060242 7125.271973
123.044205 6930.322266
123.11676 39893.769531
124.039528 4119.819824
125.095963 2337.896973
126.055 124351.757812
127.038849 11816.291992
129.313538 1632.245605
130.065552 2109.670898
131.04985 4078.740479
132.045197 1867.573608
134.059982 9158.567383
135.043686 1895.602295
135.116806 49084.519531
136.039398 4144.137695
137.023361 1633.417603
137.132568 22850.425781
138.055008 693412.5
139.038895 37523.421875
140.070755 7579.29834
141.029312 2258.842529
141.127335 2068.570801
144.065567 131949.671875
148.03952 10755.422852
148.076294 7823.421387
149.05983 3500.968018
149.132477 28320.128906
149.288574 1639.466309
150.054764 3623.738281
152.070496 2559.703613
155.044708 6616.090332
156.065643 20697.240234
157.048996 2205.383545
158.060516 9447.667969
159.044922 2210.68457
159.887344 1663.552979
160.038651 2781.486328
160.075455 1765.476685
162.054764 3269.206787
163.038925 7671.937012
163.148758 17645.646484
164.071091 2771.303955
168.065674 135912.9375
176.070816 20886.802734
177.054321 7566.863281
178.050034 8716.197266
179.179581 1936.49707
180.065552 1960.912964
184.074051 3750.130859
186.076111 123030.710938
194.080231 3107.91626
204.065933 52380.035156
204.086807 220278.8125
205.0495 18068.384766
219.211243 30587.71875
222.055954 2399.901123
222.076324 53863.542969
223.059677 2821.007568
237.222092 15727.513672
240.08696 40634.425781
254.247971 64171.914062
269.078217 3085.642578
278.248016 3357.046875
287.086548 1908.92395
304.262421 13506.494141
320.258423 326655.71875
330.24231 19420.804688
332.258636 16088.703125
334.103271 6892.695312
346.273529 11225.50293
352.114136 52191.546875
370.274994 2762.800293
374.268829 79071.242188
388.284027 2060.357422
392.279205 34063.242188
414.264893 8376.048828
434.290894 2157.13501
440.279907 11262.37207
447.349731 2854.563477
458.291138 23642.398438
476.300629 206179.3125
494.310333 2923.678223
512.31781 15100.823242
552.308044 3411.354004
570.320801 12332.254883
588.328613 88333.960938
624.34967 133207.484375
766.611389 2687.418945
783.902405 1978.9375
END IONS
