BEGIN IONS
PEPMASS=486.168
CHARGE=0
MSLEVEL=2
SOURCE_INSTRUMENT=LC-ESI-qTof
FILENAME=f.kudzanai2003/Kudzi 2/M5.mzXML;
SEQ=*..*
IONMODE=Positive
ORGANISM=GNPS-LIBRARY
NAME=Pivampicillin M+Na
PI=Kudzanai Tapfuma
DATACOLLECTOR=
SMILES=CC1([C@@H](N2[C@H](S1)[C@@H](C2=O)NC(=O)[C@@H](c3ccccc3)N)C(=O)OCOC(=O)C(C)(C)C)C
INCHI=InChI=1S/C22H29N3O6S/c1-21(2,3)20(29)31-11-30-19(28)15-22(4,5)32-18-14(17(27)25(15)18)24-16(26)13(23)12-9-7-6-8-10-12/h6-10,13-15,18H,11,23H2,1-5H3,(H,24,26)/t13-,14-,15+,18-/m1/s1
INCHIAUX=
PUBMED=
SUBMITUSER=kudzanai2003
TAGS=
LIBRARYQUALITY=3
SPECTRUMID=CCMSLIB00005436022
SCANS=5978
67.036995 23.0
68.029442 33.0
70.046471 2191.0
71.218414 37.0
72.051613 23.0
81.045563 28.0
81.262428 39.0
82.043129 92.0
85.061188 31.0
92.038261 22.0
95.058105 68.0
96.057266 273.0
96.124809 20.0
105.567574 29.0
106.039513 44.0
107.058899 88.0
108.061386 51.0
109.077271 34.0
119.053253 33.0
120.054115 72.0
121.060486 59.0
122.064026 49.0
132.159805 27.0
134.063736 217.0
135.072937 217.0
136.080856 538.0
137.079498 90.0
138.095856 39.0
145.032486 37.0
147.067551 21.0
148.078583 67.0
149.090927 29.0
150.089035 25.0
158.997971 55.0
162.09317 91.0
163.098969 39.0
164.106918 215.0
165.063141 20.0
165.111008 21.0
174.08989 46.0
175.060776 21.0
175.103302 50.0
176.103836 378.0
177.067017 50.0
177.10405 66.0
178.101334 32.0
187.057404 23.0
187.099609 20.0
189.997421 28.0
191.012772 24.0
201.99501 22.0
204.023514 107.0
211.046677 67.0
212.029526 61.0
212.060486 68.0
213.021484 22.0
214.086136 31.0
215.18187 74.0
216.018585 98.0
218.066833 25.0
222.055328 26.0
223.04277 37.0
223.139755 23.0
224.482956 66.0
226.038559 54.0
228.016342 58.0
230.062042 78.0
230.510895 38.0
231.074585 55.0
238.329498 26.0
240.014801 21.0
241.047607 26.0
242.035492 73.0
242.477325 35.0
242.786194 74.0
244.038391 69.0
252.020065 32.0
252.115768 24.0
254.023819 82.0
254.053558 73.0
255.031891 57.0
256.041931 172.0
257.057404 30.0
258.024933 21.0
258.058594 55.0
259.056305 24.0
259.200409 43.0
260.036194 110.0
261.045105 26.0
262.051941 368.0
263.054291 97.0
264.092682 45.0
265.055542 25.0
266.021362 22.0
268.036194 20.0
268.078156 120.0
269.08905 37.0
270.044159 80.0
274.053497 23.0
276.06369 144.0
277.074677 30.0
279.095947 56.0
280.07135 24.0
282.050201 38.0
282.093842 33.0
283.058502 94.0
283.119934 44.0
284.065155 258.0
285.071228 32.0
286.048645 43.0
288.075958 47.0
292.070404 64.0
292.115814 33.0
294.095337 105.0
295.096985 38.0
295.865509 21.0
296.069122 527.0
296.189545 35.0
297.071899 109.0
298.083893 1198.0
298.222809 36.0
299.084137 175.0
300.067444 91.0
301.065399 64.0
302.07608 64.0
302.493927 21.0
302.917114 61.0
303.053497 59.0
304.093964 40.0
304.136536 23.0
305.078552 26.0
305.777954 49.0
306.118683 91.0
307.089203 49.0
308.10022 31.0
309.056183 47.0
309.117432 40.0
310.125366 45.0
312.061829 39.0
313.583618 28.0
314.082947 33.0
315.082336 22.0
317.082611 22.0
320.111328 60.0
323.107483 49.0
324.128632 346.0
325.131439 71.0
326.140961 21.0
327.09314 22.0
328.083221 22.0
334.110443 258.0
335.110077 37.0
336.087036 21.0
337.092468 69.0
338.107788 54.0
339.070465 25.0
339.111359 34.0
350.106476 22.0
351.117676 20.0
352.112946 150.0
352.948334 46.0
354.094696 20.0
356.116852 75.0
358.11853 21.0
363.106476 29.0
363.143921 30.0
365.114899 48.0
367.136719 139.0
367.268799 22.0
368.117096 132.0
369.129333 62.0
370.127869 921.0
371.129456 280.0
372.131195 25.0
372.38913 46.0
372.89502 116.0
374.242157 43.0
375.136963 28.0
375.490814 20.0
378.12207 20.0
384.109894 24.0
391.023499 21.0
393.115326 27.0
394.887726 74.0
405.138947 31.0
413.116699 50.0
413.726593 21.0
419.156006 29.0
419.648193 62.0
420.078033 46.0
421.170685 25.0
432.843109 65.0
434.354736 32.0
435.133148 35.0
437.159393 1547.0
437.289917 33.0
437.896637 86.0
438.161163 1192.0
438.246948 21.0
438.571594 54.0
438.641113 21.0
438.743011 59.0
438.894867 55.0
439.174774 6980.0
439.286377 50.0
439.41629 43.0
439.884094 24.0
439.925598 81.0
440.177643 1951.0
440.255829 43.0
441.04657 39.0
441.179535 449.0
441.659576 37.0
441.711823 66.0
442.980652 43.0
445.090118 28.0
446.719757 59.0
455.386047 50.0
456.844696 21.0
457.181641 47.0
459.478333 24.0
460.615509 73.0
462.89975 26.0
475.811768 23.0
482.106079 21.0
483.88562 22.0
484.147583 1446.0
485.007965 21.0
485.153656 741.0
485.852264 21.0
485.902435 32.0
485.968414 25.0
486.023804 31.0
486.165924 5657.0
486.298737 72.0
486.410828 26.0
486.718933 40.0
486.803925 73.0
487.169281 1514.0
487.270538 41.0
487.613739 84.0
488.173279 253.0
488.398651 68.0
488.987793 51.0
490.169464 22.0
490.479889 49.0
491.510071 67.0
500.390564 23.0
506.93927 78.0
508.448822 44.0
539.357605 22.0
545.53064 21.0
557.872192 28.0
604.06897 20.0
604.686768 39.0
621.926575 35.0
625.220459 24.0
633.74408 21.0
703.879395 25.0
741.188538 132.0
741.658142 30.0
757.308411 24.0
END IONS
