BEGIN IONS
PEPMASS=792.471
CHARGE=1
MSLEVEL=2
SOURCE_INSTRUMENT=LC-ESI-qTof
FILENAME=f.sauravverma17/Folia/Kumar_screening_5_14_BA7_01_5374.mzXML;
SEQ=*..*
IONMODE=Positive
ORGANISM=GNPS-LIBRARY
NAME=Dereplicator Identification - Schizopeptin_791 M+H
PI=Kumar Saurav
DATACOLLECTOR=Kumar Saurav
SMILES=CC[C@H](C)C(NC(=O)NC1CCCCNC(=O)[C@H](CC2=CC=CC=C2)NC(=O)[C@H](C)N(C)C(=O)[C@H](CCC2=CC=CC=C2)NC(=O)C(NC1=O)[C@@H](C)CC)C(O)=O
INCHI=
INCHIAUX=
PUBMED=
SUBMITUSER=sauravverma17
TAGS=
LIBRARYQUALITY=3
SPECTRUMID=CCMSLIB00005435842
SCANS=769
84.081451 35120.0
85.085434 2309.0
86.061554 1434.0
91.054474 545.0
114.055954 99998.0
115.058937 4146.0
117.070938 767.0
117.090363 358.0
120.081421 4688.0
121.086739 355.0
129.103058 8932.0
130.106705 589.0
132.102249 1051.0
134.097122 4822.0
135.098526 453.0
147.114563 733.0
154.161728 615.0
155.082458 1102.0
169.134628 1871.0
172.113327 438.0
173.093491 1339.0
174.12825 1046.0
182.118958 649.0
188.143906 357.0
197.130585 343.0
197.164673 718.0
199.145813 15939.0
199.182266 395.0
200.148575 1774.0
202.123917 373.0
202.160126 1120.0
203.156677 1700.0
204.158783 382.0
205.135025 12119.0
206.143524 913.0
214.19017 366.0
219.150528 2700.0
220.156418 363.0
224.175949 570.0
225.125214 3326.0
225.160156 385.0
226.130493 411.0
227.178726 2360.0
228.177246 447.0
229.172379 541.0
230.120331 1474.0
231.151276 114368.0
232.154068 16493.0
233.130478 91223.0
234.13385 10811.0
235.137909 559.0
236.143234 353.0
240.172195 3103.0
241.156006 435.0
242.15271 2195.0
242.186584 806.0
245.166702 2784.0
246.169724 476.0
247.146149 366531.0
248.149185 51061.0
249.152496 3011.0
250.157806 1408.0
251.158554 442.0
257.166595 398.0
258.148132 1941.0
258.183228 10687.0
259.186859 1675.0
261.161713 2642.0
265.156555 6523.0
266.163422 889.0
268.168182 4400.0
269.170898 639.0
270.184021 1182.0
274.157196 2567.0
275.177856 18123.0
276.181305 3285.0
277.178375 384.0
284.144287 605.0
286.178131 10166.0
287.178894 1544.0
287.212494 761.0
293.192963 621.0
294.184937 1878.0
296.162323 1232.0
299.210632 626.0
303.172607 365.0
304.165283 794.0
312.23233 3340.0
313.231232 630.0
314.175537 347.0
315.209503 18334.0
316.204865 99409.0
317.207642 18476.0
318.210388 1719.0
319.178162 487.0
320.163635 14513.0
321.16626 1793.0
325.228363 568.0
331.20401 461.0
333.231415 5607.0
334.17868 2761.0
334.232849 842.0
337.192474 620.0
338.214722 648.0
343.203278 6173.0
343.238739 6354.0
344.208008 1626.0
344.24704 1151.0
346.21582 2735.0
347.21701 657.0
349.193024 3200.0
353.221497 3649.0
354.220703 708.0
359.211121 6189.0
360.231171 261642.0
361.233856 55731.0
362.239594 4737.0
363.239929 1314.0
370.216248 981.0
371.232605 2923.0
371.266144 3495.0
372.230957 841.0
372.271027 765.0
373.262939 896.0
375.278809 620.0
376.209686 589.0
377.223755 498.0
378.241302 1018.0
379.237091 37978.0
380.240845 7944.0
381.249786 3812.0
382.255157 577.0
385.262085 1322.0
386.211334 2544.0
386.244781 1311.0
387.206238 5352.0
387.241638 10068.0
388.247803 3203.0
389.222015 11721.0
390.224274 1788.0
390.2565 1350.0
391.23053 370.0
394.215424 15925.0
395.218109 3248.0
397.229004 628.0
399.263092 22623.0
400.266663 4488.0
401.258514 11901.0
402.262024 3427.0
403.238678 2373.0
403.273743 9700.0
404.231506 862.0
404.278046 1983.0
405.21637 183139.0
405.245789 78075.0
406.21991 36743.0
406.252411 18058.0
407.224701 4330.0
408.229248 488.0
409.248383 2367.0
410.250824 790.0
411.24295 520.0
412.237671 654.0
414.252289 838.0
415.237549 23308.0
416.240356 5385.0
417.24881 1329.0
419.269379 2111.0
420.27002 575.0
421.283813 676.0
422.244202 13790.0
423.245697 3228.0
424.251038 586.0
428.294434 80620.0
429.253235 19083.0
429.29599 22026.0
430.257141 4680.0
430.299469 3802.0
431.26767 3430.0
432.265472 1583.0
433.24823 56285.0
434.252136 12168.0
435.250275 1293.0
439.236389 766.0
443.237244 1654.0
444.305756 787.0
445.314728 631.0
446.317688 6610.0
447.263916 13563.0
447.316467 2388.0
448.270477 3136.0
449.27536 1238.0
450.277771 784.0
455.274384 479.0
456.301331 1838.0
457.285095 3929.0
458.313904 929.0
459.297119 1265.0
460.295776 677.0
461.235168 393.0
462.27005 388.0
466.305237 378.0
469.246429 384.0
469.286682 357.0
472.295563 25284.0
473.312988 16782.0
474.31134 36514.0
475.313995 7811.0
476.322021 1159.0
477.290405 26924.0
478.293182 6556.0
479.30246 1646.0
480.308655 502.0
481.244965 602.0
484.315796 5761.0
485.317566 1026.0
486.312958 4962.0
487.313934 1166.0
488.329315 2677.0
489.334381 1017.0
490.306488 216189.0
491.309235 60031.0
492.310883 7990.0
493.317535 578.0
494.320648 810.0
495.302643 499.0
499.298035 11475.0
500.291565 125394.0
501.294312 33020.0
502.298035 5562.0
503.304474 1018.0
504.305847 480.0
505.321472 1542.0
506.329559 504.0
507.300751 84454.0
508.303589 24026.0
509.309967 3779.0
514.305664 16763.0
515.311523 4187.0
516.32196 3364.0
517.282898 2626.0
517.317871 1983.0
518.301514 351154.0
519.305176 95527.0
520.306824 14067.0
521.295959 1452.0
522.314209 3622.0
523.313293 1064.0
524.310486 815.0
528.321838 20214.0
529.325256 6879.0
530.327332 1038.0
531.295349 639.0
532.353638 11959.0
533.354614 4517.0
534.317688 404.0
534.357178 548.0
535.326416 1238.0
536.33374 345.0
540.322937 2605.0
541.323914 483.0
542.337769 3979.0
543.336304 1186.0
546.333374 32017.0
547.336304 9821.0
548.327759 14553.0
549.330383 4255.0
550.341553 10926.0
551.346436 2550.0
552.342773 505.0
556.321167 601.0
557.320129 403.0
558.312317 1188.0
559.318481 520.0
560.349976 39293.0
561.351257 11733.0
562.354126 1365.0
563.359131 808.0
566.300476 4824.0
567.302185 1435.0
568.351501 771.0
570.33429 1737.0
571.342773 409.0
572.348877 912.0
574.333496 426.0
574.377991 601.0
575.362976 3038.0
576.322876 25269.0
577.3255 8842.0
578.33667 3901.0
579.348328 925.0
582.334595 524.0
585.381531 9248.0
586.382141 2909.0
587.391235 573.0
588.346985 2176.0
589.349487 932.0
590.374878 18778.0
591.382812 8542.0
592.390808 1216.0
594.334045 8249.0
595.338013 2109.0
599.390015 613.0
600.361755 1701.0
601.363098 460.0
603.393982 22102.0
604.311646 2057.0
604.395508 6700.0
605.321594 1049.0
605.397949 1253.0
606.369202 2412.0
607.401001 20199.0
608.404419 7430.0
609.406311 1051.0
613.376709 34935.0
614.379578 12986.0
615.384338 2312.0
616.358276 2026.0
617.386597 15377.0
618.377869 14229.0
619.374023 4375.0
620.384766 2082.0
621.385681 793.0
627.391846 1655.0
628.393921 636.0
630.402283 6693.0
631.386597 585283.0
632.389526 202858.0
633.383362 142919.0
634.382874 46025.0
635.396606 648215.0
635.573792 604.0
636.400146 247382.0
637.403076 38759.0
638.407104 3715.0
641.36792 1058.0
643.364929 12745.0
644.36853 4750.0
645.401978 24019.0
646.405212 8785.0
647.406006 1289.0
651.390564 9705.0
652.395813 3296.0
653.406189 1634.0
654.412537 665.0
655.390259 2203.0
656.387756 1009.0
661.376465 504138.0
662.379517 205345.0
663.38269 37638.0
664.389038 3925.0
678.400757 429.0
679.387268 175134.0
680.390198 69592.0
681.392517 11432.0
682.397278 1251.0
689.407532 14096.0
690.410828 5947.0
691.417053 1900.0
692.422485 400.0
707.418762 28908.0
708.420593 12186.0
709.425842 2113.0
717.410095 1046.0
718.403625 414.0
718.467529 1038.0
719.465881 942.0
721.473633 2621.0
722.473999 1601.0
729.444702 614.0
730.463989 611.0
735.410217 1952.0
736.4104 799.0
746.466858 39128.0
747.464844 26015.0
748.476624 10862.0
749.487122 3485.0
750.482361 593.0
756.448792 593.0
757.450195 577.0
758.43335 371.0
764.477173 330827.0
765.47998 153392.0
766.484253 31104.0
767.489807 3159.0
774.46167 122650.0
775.465271 60569.0
776.469727 13173.0
777.469727 1782.0
792.269104 358.0
792.316772 457.0
792.471924 2238243.0
792.810608 690.0
792.96051 342.0
793.475098 1117984.0
793.741455 362.0
793.974304 339.0
794.477905 251273.0
795.328613 410.0
795.482361 19848.0
795.604797 406.0
796.482727 1820.0
END IONS
