BEGIN IONS
PEPMASS=672.342
CHARGE=1
MSLEVEL=2
SOURCE_INSTRUMENT=LC-ESI-qToF
FILENAME=P2_C6_conc_GE6_01_2424.mzXML
SEQ=*..*
IONMODE=Positive
ORGANISM=GNPS-LIBRARY
NAME=Cycloaspeptide H_130057 M+H
PI=Cichewicz
DATACOLLECTOR=Luzzatto
SMILES=CN1[C@@H](CC2=CC=C(OC)C=C2)C(N[C@@H](CC(C)C)C(N(C)[C@@H](CC3=CC=C(O)C=C3)C(NC4=C(C=CC=C4)C(N[C@@H](C)C1=O)=O)=O)=O)=O
INCHI=N/A
INCHIAUX=N/A
PUBMED=
SUBMITUSER=tal_lk
TAGS=
LIBRARYQUALITY=2
SPECTRUMID=CCMSLIB00000478491
SCANS=1653
91.054863 1300.0
92.054626 376.0
103.05352 252.0
105.069839 644.0
106.066078 284.0
107.047028 696.0
108.053444 784.0
109.06469 892.0
117.055367 792.0
118.064903 344.0
119.049004 2104.0
120.044594 12664.0
121.064476 3912.0
122.075638 268.0
123.080925 724.0
132.080856 2204.0
133.066254 408.0
133.087097 620.0
134.059357 2224.0
135.074524 4532.0
136.079697 1028.0
138.052368 252.0
145.073746 276.0
146.023483 1052.0
146.057571 652.0
147.045715 384.0
148.038437 2260.0
148.074051 516.0
149.040344 352.0
149.082687 3192.0
150.091995 166740.0
150.492111 1488.0
151.094269 20160.0
152.09787 1192.0
160.07756 300.0
161.061722 616.0
163.0867 18200.0
163.272263 272.0
163.80127 264.0
163.82869 268.0
164.108047 207252.0
164.526489 4288.0
165.053452 780.0
165.110107 39156.0
165.381561 300.0
166.111984 2268.0
166.444077 472.0
166.55748 284.0
173.070496 1380.0
176.063995 432.0
176.106018 764.0
178.085526 9856.0
179.087463 820.0
179.115982 400.0
186.089737 456.0
188.083023 596.0
190.07312 580.0
190.124863 480.0
191.08136 28396.0
192.101227 27396.0
192.241119 308.0
193.104599 4468.0
201.065613 1800.0
202.122299 508.0
203.097794 324.0
206.080811 2248.0
207.087128 572.0
209.127213 312.0
210.114975 272.0
211.121445 272.0
213.120392 376.0
218.119675 448.0
218.15239 380.0
219.115128 424.0
220.095291 11064.0
221.098648 1612.0
222.07962 384.0
228.136978 1332.0
229.084442 452.0
229.139679 272.0
230.152496 764.0
231.087555 372.0
231.149857 564.0
232.169067 276.0
233.126312 620.0
235.143143 12096.0
236.145676 1228.0
238.085159 1280.0
239.086716 304.0
243.10585 332.0
245.164688 256.0
246.110336 500.0
246.145493 368.0
252.096054 420.0
253.10228 424.0
259.145294 364.0
261.195282 460.0
263.138519 44500.0
263.174805 596.0
264.141296 8336.0
265.145111 756.0
266.080109 4376.0
267.085754 904.0
270.052887 392.0
274.143555 7944.0
275.148071 1004.0
277.190582 15560.0
278.192383 3332.0
279.11203 612.0
279.196198 452.0
281.130371 724.0
283.142426 544.0
285.146515 972.0
286.153412 3976.0
287.161926 640.0
288.18042 304.0
291.169189 1496.0
292.175781 272.0
296.140442 336.0
297.123016 21312.0
298.124969 4536.0
299.126984 472.0
305.184906 8460.0
306.188477 1280.0
307.109772 384.0
307.192627 336.0
309.120941 1004.0
310.128113 432.0
319.164154 444.0
322.155579 572.0
323.133972 772.0
324.142731 264.0
331.139038 320.0
337.115601 304.0
337.22229 284.0
338.138885 808.0
340.154816 408.0
364.159149 640.0
368.15918 15748.0
369.163788 3344.0
376.222748 3692.0
377.228119 904.0
378.223541 812.0
382.176208 42320.0
382.613922 280.0
383.179962 11212.0
384.180756 2416.0
392.195007 1432.0
393.199127 1216.0
399.208923 576.0
400.180054 300.0
410.172028 1704.0
410.207092 1540.0
411.168762 304.0
411.210114 520.0
424.222412 1556.0
425.227264 584.0
451.222137 2944.0
452.226227 464.0
464.242126 336.0
481.24231 704.0
482.264893 52572.0
483.267029 15128.0
484.27124 2080.0
485.274963 852.0
485.920959 252.0
491.21994 392.0
495.258453 10988.0
496.26236 3260.0
497.276031 652.0
500.200928 276.0
523.249268 268.0
559.25531 7056.0
560.258728 3164.0
561.266296 484.0
601.299316 2136.0
602.303711 596.0
603.299927 652.0
628.355225 400.0
644.338806 884.0
645.345032 936.0
646.35144 320.0
654.321289 596.0
655.319031 652.0
656.312256 348.0
669.547363 252.0
670.21637 260.0
670.424072 252.0
670.688782 476.0
671.057129 312.0
671.106873 380.0
671.217346 576.0
671.439392 260.0
671.55719 332.0
671.81427 308.0
672.0224 424.0
672.093506 416.0
672.166809 368.0
672.200012 316.0
672.342102 207072.0
672.601685 348.0
672.673828 400.0
672.817627 336.0
673.084961 456.0
673.193542 1892.0
673.343994 123500.0
673.907227 260.0
673.990051 316.0
674.061584 632.0
674.19812 260.0
674.34436 23344.0
674.575134 280.0
675.344055 2612.0
675.716187 296.0
676.354675 576.0
676.645691 260.0
676.683899 456.0
676.719788 532.0
676.827637 296.0
677.991211 356.0
678.34082 272.0
END IONS
