BEGIN IONS
PEPMASS=1629.07
CHARGE=1
MSLEVEL=2
SOURCE_INSTRUMENT=LC-ESI-qTof
FILENAME=f.dfloros/Final1000Strains/Round_2/mzXMLs/Samples/ISP2-s-EAM-P-01_C-7_P1-C-7_01_12765.mzXML;
SEQ=*..*
IONMODE=Positive
ORGANISM=GNPS-LIBRARY
NAME=Stendomycin I M+H
PI=p Dorrestein
DATACOLLECTOR=D Floros
SMILES=O=C(CCCCCCCCCCCCC)N1C(C(N(C)C(C(C)O)C(NCC(NC(C(C)C)C(NC(C(C)CC)C(NC(C)C(N/C(C(NC(C(C)OC(C2C3N(C)/C(NCC3)=N/C)=O)C(NC(C(C)C)C(NC(C(NC(C(O)C)C(NC(C(NC(C(C)CC)C(N2)=O)=O)CO)=O)=O)C(C)C)=O)=O)=O)=C\C)=O)=O)=O)=O)=O)=O)CCC1
INCHI=
INCHIAUX=
PUBMED=
SUBMITUSER=dfloros
TAGS=
LIBRARYQUALITY=3
SPECTRUMID=CCMSLIB00000579201
SCANS=780
201.135178 3096.0
308.261658 696.0
401.252258 1448.0
402.25531 344.0
423.324615 1608.0
502.300323 2800.0
503.3078 416.0
601.371704 1700.0
602.374023 476.0
682.424011 536.0
700.438232 1872.0
701.443176 860.0
726.418762 668.0
783.473572 2800.0
784.474854 1148.0
866.506226 3628.0
867.515625 1828.0
868.510986 448.0
937.539612 1816.0
938.5578 976.0
1050.631104 544.0
1206.722656 2076.0
1207.731079 632.0
1216.716797 372.0
1419.85437 344.0
1567.023682 496.0
1585.014771 3444.0
1586.023438 2536.0
1587.028076 1460.0
1588.019287 536.0
1589.028198 356.0
1599.016113 392.0
1611.026245 3084.0
1612.030396 2448.0
1613.032227 1360.0
1614.0177 696.0
1620.214233 560.0
1620.559814 448.0
1621.122314 668.0
1621.857666 448.0
1626.542847 400.0
1626.80603 360.0
1627.112305 628.0
1627.424316 868.0
1627.697876 792.0
1628.036621 1148.0
1628.215088 1248.0
1628.471191 1380.0
1628.714355 1336.0
1629.046387 691024.0
1629.33728 3112.0
1629.599731 2248.0
1630.049683 674076.0
1630.578735 2380.0
1631.046631 300888.0
1631.317139 1604.0
1631.507812 1704.0
1632.043335 111088.0
1633.042236 20992.0
1634.043701 4436.0
1635.036865 532.0
END IONS
