BEGIN IONS
PEPMASS=1163.56
CHARGE=1
MSLEVEL=2
SOURCE_INSTRUMENT=LC-ESI-qTof
FILENAME=f.evgenia_glukhov/Standards/2223H4-2-Wewakazole.mzXML;
SEQ=*..*
IONMODE=Positive
ORGANISM=GNPS-LIBRARY
NAME=Wewakazole M+Na
PI=W. Gerwick
DATACOLLECTOR=Daojing Zhang
SMILES=CC[C@H](C)[C@@H]1NC(=O)[C@@H]2CCCN2C(=O)[C@H](Cc2ccccc2)NC(=O)c2coc(n2)[C@H](Cc2ccccc2)NC(=O)c2nc(oc2C)[C@@H](NC(=O)CNC(=O)[C@@H]2CCCN2C(=O)[C@@H]2CCCN2C(=O)[C@H](C)NC(=O)c2coc1n2)C(C)C
INCHI=
INCHIAUX=
PUBMED=
SUBMITUSER=evgenia_glukhov
TAGS=
LIBRARYQUALITY=3
SPECTRUMID=CCMSLIB00000478600
SCANS=609
348.959778 3287.0
468.92688 2103.0
497.005249 1576.0
508.26593 5150.0
525.025513 758.0
542.908936 1697.0
571.115723 1299.0
596.171509 4602.0
610.85498 2549.0
624.977295 6174.0
630.120361 3203.0
638.884766 1884.0
645.994629 1853.0
663.140625 23842.0
668.158936 7845.0
696.109619 4404.0
702.258545 2289.0
721.699219 2591.0
765.27832 16455.0
782.158203 3069.0
791.130615 1918.0
793.093018 24842.0
817.366943 1051.0
819.195557 1049.0
835.970337 999.0
845.256348 2410.0
848.410156 1631.0
862.268188 15789.0
873.83374 2519.0
876.228271 2901.0
878.375732 2778.0
890.189575 35431.0
890.832764 2.0
902.279541 1233.0
919.132202 19595.0
929.310913 6657.0
947.072021 12220.0
947.842651 1367.0
955.661377 1646.0
957.248657 9103.0
959.591675 2716.0
973.35144 2142.0
978.446167 698.0
983.077637 1982.0
987.59375 1529.0
994.36377 10558.0
1000.726807 1333.0
1016.225952 11799.0
1026.358887 7881.0
1042.373047 12650.0
1044.13916 18266.0
1051.492188 1343.0
1054.365234 10687.0
1066.375488 821.0
1070.161621 42302.0
1070.769531 4733.0
1080.491211 912.0
1084.321777 4271.0
1095.290039 1103.0
1113.359375 279283.0
1114.23291 1.0
1123.397949 22741.0
END IONS
