BEGIN IONS
PEPMASS=723.295
CHARGE=1
MSLEVEL=2
SOURCE_INSTRUMENT=LC-ESI-Orbitrap
FILENAME=Cpd_2_723.mgf
SEQ=*..*
IONMODE=Positive
ORGANISM=GNPS-LIBRARY
NAME=euphodendroidin F M+Na
PI=LITAUDON/TOUBOUL
DATACOLLECTOR=Esposito
SMILES=C[C@@]1(O)C[C@](O)(C([C@@H](C)/C=C/C(C)(C)[C@H](OC(C)=O)[C@H](OC(C)=O)[C@@H](OC(C2=CC=CC=C2)=O)C([C@@H]3OC(C(C)C)=O)=C)=O)[C@]3([H])[C@H]1OC(C)=O
INCHI=
INCHIAUX=
PUBMED=N/A
SUBMITUSER=lfnothias
TAGS=
LIBRARYQUALITY=1
SPECTRUMID=CCMSLIB00000840536
SCANS=1
196.18074 11308.762695
200.57872 22568.121094
209.097137 11786.373047
222.211777 14406.447266
223.110657 29914.611328
223.148438 24190.599609
225.128922 15153.457031
227.107437 18495.632812
227.14624 13951.345703
231.515778 12483.226562
237.16214 31772.525391
247.149185 20815.824219
260.717377 14781.982422
265.1604 96656.765625
266.875214 16099.0
269.153137 29491.146484
275.144409 20042.960938
282.93161 11657.417969
283.169128 129518.328125
293.155579 124785.445312
305.152832 19200.791016
311.165955 207027.375
311.922272 14501.878906
315.135864 16264.447266
317.004303 13920.208984
322.023651 15075.830078
329.175873 97524.195312
333.147034 141052.40625
343.193207 48446.53125
345.61792 16465.298828
349.180115 28619.091797
351.155884 198810.96875
352.252472 12479.851562
353.173553 25278.0
365.172546 20975.759766
371.183716 55298.125
375.154999 20350.048828
380.376068 13405.302734
385.936005 12844.697266
389.199524 53734.296875
393.169464 372182.59375
399.465454 13386.763672
407.177551 14209.025391
409.196777 76434.703125
411.180634 633796.5625
421.202118 53101.25
425.195587 56694.71875
435.180817 26878.890625
439.208221 40438.804688
453.187836 640757.9375
453.224304 13919.056641
453.238892 13356.232422
455.184784 76436.4375
460.843933 15955.609375
469.21756 31640.333984
471.197815 2140783.5
473.190613 95669.726562
481.217773 336996.46875
484.31192 12607.177734
487.208344 45901.109375
487.346527 12881.417969
497.981232 14284.789062
499.22644 957141.75
506.176605 12494.814453
513.211426 264376.25
513.246521 36469.0
515.20282 331531.0625
531.217651 30828.451172
533.212585 342778.0625
541.239014 1363746.625
547.235657 49301.96875
557.218506 26902.574219
559.251831 142372.765625
564.140991 13387.289062
564.19165 17501.462891
573.262207 26633.236328
575.227661 908600.625
577.245117 99471.257812
593.23877 32356.857422
601.13501 17526.494141
601.157288 21232.830078
601.179565 19081.908203
601.257568 3952483.5
601.357849 17306.148438
601.491577 12854.527344
601.513916 14318.916016
602.261536 18521.921875
603.256836 898523.625
619.290344 60094.71875
621.263306 20422.326172
635.244995 1893172.125
637.270447 25056.742188
648.616638 13023.933594
662.879028 33156.835938
662.904846 53287.414062
663.085449 84424.210938
663.111267 84126.164062
663.137085 112775.523438
663.162842 96808.414062
663.18866 116951.46875
663.279053 15407985.0
663.369385 81397.75
663.395264 114934.4375
663.421082 94168.046875
663.446899 101833.039062
663.472717 68768.195312
663.498535 72211.242188
663.524353 70282.039062
663.782776 24652.972656
663.808655 43837.78125
664.287109 112172.6875
END IONS
