BEGIN IONS
PEPMASS=693.252
CHARGE=1
MSLEVEL=2
SOURCE_INSTRUMENT=LC-ESI-Hybrid FT
FILENAME=f.lfnothias/140221_LF_015_AcOEt_ASE-cpd-4.mzXML;
SEQ=*..*
IONMODE=Positive
ORGANISM=GNPS-LIBRARY
NAME=3,5,7,15-tetraacetoxy-8-benzoyloxy-2-hydroxy-9,14-dioxojatropha-6(17),11E-diene  M+Na
PI=Louis-Felix NOTHIAS-SCAGLIA
DATACOLLECTOR=Louis-Felix NOTHIAS-SCAGLIA
SMILES=C=C([C@@H]1OC(C)=O)[C@H](OC(C)=O)[C@@H](OC(C2=CC=CC=C2)=O)C(C(C)(C)/C=C/[C@@H](C)C([C@]3(OC(C)=O)[C@]1([H])[C@@H](OC(C)=O)[C@](C)(O)C3)=O)=O
INCHI=InChI=1S/C35H42O13/c1-18-15-16-33(7,8)30(41)28(47-32(42)24-13-11-10-12-14-24)27(45-21(4)37)19(2)26(44-20(3)36)25-31(46-22(5)38)34(9,43)17-35(25,29(18)40)48-23(6)39/h10-16,18,25-28,31,43H,2,17H2,1,3-9H3/b16-15+/t18-,25+,26?,27?,28-,31?,34-,35?/m1/s1
INCHIAUX=
PUBMED=24926807
SUBMITUSER=lfnothias
TAGS=
LIBRARYQUALITY=3
SPECTRUMID=CCMSLIB00000424720
SCANS=1
191.034805 1815.807495
191.036804 2530.296387
191.038788 2555.333008
191.040787 1978.96228
191.042786 947.900879
192.754349 1507.652954
192.756378 2044.906372
192.758392 2478.229492
192.760422 2504.958008
192.762436 1934.760864
193.234543 1219.463989
193.236572 2171.870117
193.238602 2638.445801
193.240631 2557.686035
193.242661 1962.588989
193.24469 1120.150513
194.051117 1812.562866
194.053162 2631.29834
194.055206 2697.319336
194.057251 2197.190918
194.059296 1320.265259
196.453049 918.823364
196.455139 2108.650391
196.457214 3288.631836
196.45929 3609.738281
196.46138 2674.113281
196.463455 1357.211304
200.598053 1758.528198
200.600189 3109.900391
200.602341 3261.101562
200.604492 2475.540527
200.606628 1614.406128
205.896606 1056.638062
205.898834 2169.866211
205.901077 2722.452637
205.903305 2339.001465
205.905533 1318.103394
223.108139 1975.895142
223.110657 3637.513672
223.113174 3770.677246
223.115692 2441.420898
223.11821 918.521484
223.696091 1663.591187
223.698608 2455.065918
223.701141 2582.413574
223.703674 2369.449707
223.706192 2115.617188
223.708725 1768.527466
225.121262 140.240112
225.123825 2804.61084
225.126373 4586.344727
225.128922 4126.921875
225.131485 1979.756958
231.058578 1408.862427
231.061234 2439.585449
231.063889 3015.728516
231.066544 2541.287598
231.069199 1141.172241
235.143707 1892.488647
235.146423 3932.091797
235.149155 4091.967773
235.151871 2228.33252
235.356384 1561.857788
235.359116 2349.197754
235.361847 2614.403809
235.364578 2165.26709
235.367294 1232.585815
239.503296 1423.738647
239.506104 2221.95166
239.508896 2621.029785
239.511703 2488.73877
239.514511 1783.722534
243.395935 963.639648
243.398804 2085.493652
243.401672 2879.380371
243.404541 2799.911133
243.40741 1964.177856
253.115814 246.43042
253.118851 2204.72168
253.121887 3203.393066
253.124939 2573.412598
253.127975 1002.96521
253.149292 370.421509
253.152328 3393.447266
253.15538 7630.113281
253.158417 9985.067383
253.161469 8468.512695
253.164505 4250.049316
253.167557 351.537964
256.950653 1356.960327
256.953766 2157.532227
256.956879 2420.490723
256.959991 2249.403809
256.963104 1897.639282
263.135956 2703.551758
263.139191 6458.669922
263.142426 8468.90918
263.14566 6899.741211
263.148865 2813.942871
271.126038 877.665405
271.129425 2272.02002
271.132812 3005.585938
271.136169 2830.595703
271.139557 2117.043457
271.142914 1274.158081
271.15979 1319.385132
271.163177 3002.190918
271.166534 4721.508789
271.169922 5034.265625
271.173279 3494.862793
271.176666 1277.702515
281.141937 2781.51709
281.145508 13514.966797
281.149048 28859.486328
281.152618 38425.953125
281.156189 33987.34375
281.15976 18895.107422
281.1633 4474.32666
291.125488 1009.557983
291.129242 2768.748047
291.132996 5110.827637
291.136749 6219.06543
291.140503 5065.686035
291.144257 2363.273926
291.14801 12.005371
296.804138 2083.265625
296.808014 2617.341309
296.81189 2693.368652
296.815735 2379.487305
296.819611 2014.249146
299.151947 996.941528
299.155853 6193.311035
299.15976 13892.791016
299.163666 18394.681641
299.167572 15819.683594
299.171509 8639.30957
299.175415 2527.134766
307.087524 1127.715942
307.091583 2725.836914
307.095673 3813.854004
307.099731 3707.563477
307.10379 2496.067383
307.10788 1046.368286
309.135132 1308.047729
309.139252 8122.94043
309.143372 18806.177734
309.147461 25541.224609
309.151581 22368.660156
309.15567 11833.954102
309.15979 2044.114136
311.074738 1533.012817
311.078888 2530.650391
311.083008 2971.01123
311.087158 2622.890625
311.091309 1927.790405
327.140839 642.306152
327.145294 2325.686523
327.14978 7372.802734
327.154236 14311.161133
327.158722 18008.734375
327.163177 15169.418945
327.167664 8385.004883
327.172119 3056.567383
327.176605 1337.464722
344.320282 1737.075317
344.325104 2196.605469
344.329926 2380.90332
344.334747 2206.763184
344.339569 1402.34729
345.608215 1780.654907
345.613068 3195.959961
345.61792 3717.047852
345.622772 3635.062988
345.627625 2966.323242
345.632477 2063.664551
360.399902 1786.094604
360.40506 2272.348633
360.410217 2491.816895
360.415405 2207.556152
360.420563 1492.156128
369.154694 1587.961304
369.160034 5383.59668
369.165405 9192.473633
369.170746 10074.158203
369.176117 7381.610352
369.181488 3489.782715
369.186829 1083.529419
382.176453 1979.047485
382.182098 2776.959473
382.187744 3112.911621
382.19339 3017.075195
382.199036 2371.875977
382.204681 1490.274292
385.106567 1283.172485
385.112274 4338.400879
385.117981 12381.805664
385.123688 20285.173828
385.129395 21889.761719
385.135132 15658.220703
385.140839 6419.003418
385.169403 1845.749634
385.17511 2927.179199
385.180817 3462.514648
385.186523 2784.334961
385.19223 1319.131226
397.865356 1355.714233
397.871338 2221.835449
397.87735 2697.963867
397.883331 2348.097168
397.889343 1243.136353
403.171478 2062.17334
403.177582 4026.682129
403.183716 6040.272949
403.189819 6495.253906
403.195953 4826.057617
403.202057 2380.123047
403.208191 893.532349
413.159943 735.007446
413.16626 2489.803711
413.172607 3913.97998
413.178955 3417.22168
413.185303 1347.333374
429.178925 2964.9375
429.185638 6232.063477
429.192383 7470.910156
429.199097 6095.250977
429.205811 3644.624023
429.212524 1900.256714
431.167938 1819.412476
431.174713 6259.539062
431.181458 10310.073242
431.188232 10819.299805
431.195007 7404.306641
431.201782 2932.74707
431.208527 390.940674
431.716492 2027.582153
431.723267 3335.567871
431.730042 3658.350586
431.736816 3279.809082
431.743622 2819.900391
431.750397 2113.507324
449.182831 1400.145874
449.190033 2239.92627
449.197235 2639.986816
449.204437 2220.522949
449.211609 1213.494995
451.15332 1267.657593
451.160583 2457.825684
451.167816 3204.739746
451.175049 2892.191895
451.182312 1665.206909
469.163818 429.437256
469.171478 4730.398926
469.179169 7407.663086
469.186859 6245.195801
469.194519 2330.853516
482.256531 1488.623901
482.264526 2319.307617
482.272522 2591.538086
482.280518 2303.177246
482.288544 1470.573608
487.362793 1218.06897
487.370911 2252.380371
487.379059 3001.773926
487.387177 2645.847656
487.395325 1419.829956
491.190369 2212.389648
491.198608 5747.001465
491.206818 7092.560059
491.215057 5506.053223
491.223297 2817.023438
491.231506 1158.996704
511.170349 363.093018
511.179077 4613.290527
511.187805 9478.929688
511.196564 11033.756836
511.205292 8054.326172
511.21402 3165.431152
511.222748 224.76001
513.158691 900.929443
513.16748 3245.767578
513.17627 7667.038086
513.185059 11195.737305
513.193848 10832.483398
513.202637 6721.279785
513.211426 1958.976196
529.178772 226.865356
529.187927 5241.532715
529.197144 10132.713867
529.20636 10814.8125
529.215515 6685.568848
529.224731 1462.368774
531.180664 980.043335
531.189941 2343.878906
531.199158 3126.586426
531.208435 2559.040039
531.217651 1262.589478
563.979004 1640.853638
563.989136 3788.189453
563.999268 5489.218262
564.009399 5246.728516
564.019531 3293.797363
564.029663 1088.183716
571.193298 1137.068481
571.203613 3443.74707
571.213928 4654.241211
571.224304 3716.473145
571.234619 1397.367554
573.17926 12922.313477
573.189575 46536.863281
573.199951 83397.3125
573.210327 95808.632812
573.220703 73503.226562
573.231079 35540.015625
573.241455 8359.405273
591.191223 1625.314087
591.202087 6569.183105
591.212952 11339.855469
591.223816 11812.673828
591.23468 7392.423828
591.245544 1725.518188
603.985352 1228.9823
603.996582 2366.402344
604.007751 2846.333008
604.018982 2253.954102
604.030212 943.677979
605.2099 2512.007812
605.22113 6392.660156
605.232422 8351.973633
605.243652 6531.192871
605.254883 2328.759766
633.18103 829.134277
633.193054 189126.203125
633.205139 737545.1875
633.217163 1453968.875
633.229187 1820691.0
633.241211 1522881.875
633.253296 814528.4375
633.26532 224041.671875
633.277344 1697.076782
651.195923 1370.08606
651.208435 14118.197266
651.221008 38938.875
651.233582 61026.867188
651.246155 62517.390625
651.258667 42089.300781
651.27124 16470.009766
651.283813 1780.407349
685.333801 2049.741699
685.347351 2488.644531
685.360901 2739.880371
685.374451 2689.9375
685.388 2281.65918
685.40155 1583.980591
692.466431 1233.303345
692.480164 2365.529785
692.493958 2844.408691
692.507751 2316.315918
692.521484 1153.613159
END IONS
