BEGIN IONS
PEPMASS=888.544
CHARGE=1
MSLEVEL=2
SOURCE_INSTRUMENT=LC-ESI-qToF
FILENAME=P1_C6_conc_GA6_01_2412.mzXML
SEQ=*..*
IONMODE=Positive
ORGANISM=GNPS-LIBRARY
NAME=W493A_130005 M+H
PI=Cichewicz
DATACOLLECTOR=Luzzatto
SMILES=OC1=CC=C(CC(C(NC(C(CC)C)C(OC(C(CCCCCCCCCC)C)CC(NC(C(NC(C(NC(C(NC2CCC(N)=O)=O)C)=O)C)=O)C(O)C)=O)=O)=O)NC2=O)C=C1
INCHI=N/A
INCHIAUX=N/A
PUBMED=N/A
SUBMITUSER=tal_lk
TAGS=
LIBRARYQUALITY=2
SPECTRUMID=CCMSLIB00000478102
SCANS=2468
101.070633 3272.0
101.092201 308.0
115.086105 744.0
127.085175 372.0
132.101776 4016.0
133.105453 432.0
136.076065 3840.0
137.078842 416.0
143.080734 5740.0
144.082367 520.0
145.088226 320.0
147.079437 400.0
155.081467 960.0
158.117447 440.0
160.108017 2296.0
162.094879 300.0
171.112 424.0
172.109665 624.0
173.089157 864.0
174.089661 340.0
181.09845 288.0
182.098679 436.0
183.075119 860.0
192.096191 604.0
197.09108 780.0
197.12532 252.0
198.126862 404.0
199.109528 696.0
200.102158 4816.0
201.102615 548.0
203.140381 984.0
204.136642 372.0
205.191116 300.0
207.116241 644.0
208.106522 404.0
218.109512 412.0
220.122421 256.0
223.205093 2884.0
226.117462 1916.0
228.097107 376.0
234.130096 260.0
235.108154 920.0
236.101791 344.0
240.229843 1836.0
241.228302 432.0
242.15004 364.0
243.141388 2104.0
244.127396 820.0
245.132187 352.0
246.122635 992.0
247.106354 4060.0
248.107162 740.0
249.159012 2108.0
250.14389 2636.0
251.143478 368.0
252.225693 464.0
254.113235 280.0
259.101318 360.0
260.159943 832.0
261.157043 772.0
264.13385 2932.0
265.131897 1144.0
268.12796 860.0
268.164215 408.0
271.140625 13020.0
272.14212 1428.0
274.118561 1428.0
274.182861 276.0
275.101624 1832.0
275.169403 388.0
276.107788 384.0
276.169617 264.0
277.152313 956.0
278.138672 924.0
278.247314 2328.0
279.251617 572.0
280.228027 1000.0
281.23056 528.0
287.146271 252.0
289.141663 304.0
290.151276 564.0
291.139526 444.0
292.126617 2688.0
293.12262 604.0
295.165741 10292.0
296.166138 3468.0
296.256256 6912.0
297.262634 1648.0
298.171173 276.0
298.229034 424.0
301.118011 264.0
302.115814 264.0
305.1763 432.0
306.150177 408.0
306.241302 18056.0
307.244995 4128.0
308.245239 440.0
309.150421 340.0
310.13559 404.0
314.173828 252.0
314.270599 952.0
315.176208 276.0
315.272583 484.0
318.142792 2016.0
319.14682 508.0
321.179047 700.0
321.294403 368.0
322.186493 320.0
323.165314 344.0
323.267334 484.0
324.252747 15312.0
325.256073 2824.0
326.261353 256.0
327.164886 1152.0
328.126678 732.0
331.205078 384.0
331.270569 364.0
333.173004 400.0
333.253632 720.0
335.177368 300.0
337.152283 408.0
339.19635 404.0
341.280273 324.0
342.265747 1900.0
343.264374 652.0
345.151062 420.0
346.139496 1044.0
347.145599 532.0
349.282806 5756.0
349.335297 344.0
350.286713 1304.0
351.186188 376.0
351.26178 1268.0
352.268311 356.0
354.175232 1096.0
355.165253 372.0
357.209167 332.0
358.139221 412.0
359.269989 336.0
360.188538 796.0
363.166992 2920.0
364.160034 468.0
366.208099 756.0
367.29364 1020.0
368.297058 652.0
370.19632 256.0
371.328918 368.0
372.189423 292.0
374.140503 296.0
376.282227 280.0
377.278625 20372.0
378.281586 3920.0
379.286835 724.0
384.229523 268.0
385.214142 400.0
387.203369 656.0
388.187134 1516.0
389.183228 3864.0
390.182312 668.0
391.163574 312.0
392.161377 252.0
394.303345 740.0
395.28949 13180.0
396.193237 624.0
396.291901 4560.0
397.181122 380.0
397.296783 492.0
402.236603 572.0
402.310822 360.0
403.240997 716.0
404.282654 384.0
405.212769 6392.0
406.199615 4736.0
407.206879 1272.0
413.213959 304.0
413.301422 1556.0
414.306915 624.0
416.187561 328.0
417.176392 896.0
418.184937 396.0
419.192444 280.0
420.317566 464.0
422.303162 768.0
423.218719 1244.0
424.241058 400.0
427.356049 436.0
430.306 532.0
431.229523 432.0
433.20636 304.0
434.201782 3552.0
435.198547 752.0
437.234833 548.0
437.334015 1076.0
438.330688 612.0
439.345825 468.0
440.30777 292.0
441.216766 400.0
445.208557 352.0
446.203278 288.0
448.316956 3988.0
449.235382 528.0
449.318634 1132.0
450.233307 360.0
450.323059 404.0
454.356567 260.0
455.350525 348.0
456.346619 344.0
459.222992 684.0
460.229919 500.0
464.249939 516.0
465.34198 1308.0
466.327423 8924.0
467.329742 2456.0
468.335815 360.0
472.214874 336.0
477.231506 2168.0
478.240173 1048.0
479.245667 356.0
483.355225 544.0
484.335846 3028.0
485.341827 1184.0
486.233063 272.0
486.348755 324.0
487.326019 528.0
490.231049 360.0
491.357819 308.0
493.266937 372.0
494.255829 1364.0
498.389648 472.0
501.372192 424.0
502.263672 568.0
503.247742 524.0
503.347046 320.0
504.246033 696.0
505.334747 460.0
506.327698 344.0
508.375458 620.0
520.277954 408.0
523.344971 268.0
526.392517 376.0
530.250793 300.0
532.354675 328.0
534.396729 272.0
535.243958 308.0
535.403015 504.0
541.360657 288.0
546.400757 464.0
547.277283 432.0
548.266724 1256.0
548.378723 1476.0
549.382385 964.0
550.273865 260.0
554.312195 672.0
555.377747 296.0
558.362244 360.0
559.23822 296.0
559.305237 320.0
559.360046 424.0
565.296692 4856.0
565.368835 364.0
566.295654 1172.0
566.374512 412.0
567.296509 496.0
568.378479 400.0
569.42218 408.0
570.422668 580.0
572.405273 256.0
573.395203 724.0
574.392212 372.0
575.389771 328.0
576.374756 2700.0
577.379761 1392.0
579.406799 416.0
580.416565 352.0
590.406067 480.0
594.387573 1356.0
595.381226 744.0
597.409607 316.0
598.343994 312.0
600.395752 988.0
601.405212 312.0
611.413513 656.0
612.392151 808.0
614.445801 1164.0
615.452087 564.0
619.409668 324.0
626.414124 324.0
645.449524 260.0
646.438782 408.0
647.393738 344.0
661.447754 524.0
662.455872 260.0
668.410828 284.0
669.383179 396.0
681.427307 340.0
685.414917 432.0
689.458923 500.0
694.418152 476.0
707.473511 372.0
708.475098 520.0
709.478577 344.0
711.439819 1288.0
712.43634 484.0
713.437561 396.0
715.472107 364.0
716.465332 420.0
717.461243 316.0
725.472351 652.0
726.482727 384.0
728.471313 284.0
729.433655 648.0
730.446106 308.0
732.486633 332.0
733.480286 456.0
739.456055 392.0
740.429199 320.0
741.429688 344.0
747.458252 388.0
754.483521 264.0
755.47998 492.0
757.449097 1076.0
758.454041 628.0
759.443176 288.0
775.452087 720.0
776.470093 552.0
777.519897 1432.0
778.507996 280.0
781.487671 380.0
782.47229 872.0
783.470398 640.0
784.490234 292.0
789.51825 384.0
799.490051 372.0
800.482788 296.0
801.489685 256.0
817.506042 296.0
818.524292 260.0
835.50061 480.0
842.53186 920.0
843.529968 520.0
844.527222 308.0
852.521179 352.0
853.508362 1060.0
854.507263 536.0
860.551025 1160.0
861.557739 272.0
870.529907 3740.0
871.521179 6296.0
872.52417 2620.0
873.52002 832.0
874.50293 272.0
874.575195 276.0
886.501465 392.0
887.250183 352.0
887.358582 344.0
888.5448 120184.0
888.772156 296.0
888.93634 364.0
889.24707 304.0
889.35083 352.0
889.546936 54912.0
889.70929 360.0
890.007996 252.0
890.072632 440.0
890.210693 348.0
890.285583 320.0
890.548462 15872.0
891.550476 2768.0
892.552979 512.0
893.680908 368.0
END IONS
