BEGIN IONS
PEPMASS=468.341
CHARGE=0
MSLEVEL=2
SOURCE_INSTRUMENT=LC-ESI-qTof
FILENAME=f.MSV000081063/peak/XenoPhoto_Screen/Xvie_1915.mzXML;
SEQ=*..*
IONMODE=Positive
ORGANISM=GNPS-LIBRARY
NAME=Xefoampeptide D M+H
PI=HW
DATACOLLECTOR=HW
SMILES=O=C1NC(C(C)(C)C)C(OC(CCCC)CC(N[C@H](CC(C)C)C(N[C@H]1CC(C)C)=O)=O)=O
INCHI=InChI=1S/C25H45N3O5/c1-9-10-11-17-14-20(29)26-18(12-15(2)3)22(30)27-19(13-16(4)5)23(31)28-21(24(32)33-17)25(6,7)8/h15-19,21H,9-14H2,1-8H3,(H,26,29)(H,27,30)(H,28,31)/t17?,18-,19+,21?/m1/s1
INCHIAUX=
PUBMED=
SUBMITUSER=sniperwolff
TAGS=Xefoampeptides[Molecular Family]
LIBRARYQUALITY=3
SPECTRUMID=CCMSLIB00001059628
SCANS=1394
95.084366 172.0
96.088165 19.0
97.064926 115.0
97.099335 435.0
98.026947 33.0
98.101143 48.0
99.09742 39.0
100.109329 118.0
101.057251 77.0
104.72699 11.0
105.068893 40.0
107.083839 116.0
107.968246 72.0
109.100853 62.0
109.448433 12.0
111.083878 49.0
111.119003 21.0
112.071793 56.0
112.109917 75.0
118.084076 134.0
119.086998 41.0
121.073372 31.0
121.098213 77.0
122.104782 44.0
124.015541 23.0
124.93512 15.0
125.094345 1710.0
125.955177 31.0
126.065926 18.0
126.099274 134.0
126.136482 30.0
126.193092 37.0
126.395905 17.0
126.483727 16.0
127.859909 21.0
128.165741 15.0
128.497559 9.0
128.777405 14.0
128.954559 48.0
129.09964 66.0
132.101044 95.0
134.087234 41.0
135.115219 84.0
139.110718 44.0
140.105759 52.0
140.142014 820.0
141.14563 76.0
142.121033 191.0
143.121857 22.0
144.078247 49.0
144.427399 17.0
144.579193 10.0
145.364426 11.0
146.238602 15.0
147.078308 30.0
150.126495 59.0
151.145676 57.0
151.839584 21.0
154.076813 12.0
154.124268 35.0
154.15802 1106.0
154.300369 12.0
154.429306 9.0
154.512665 14.0
155.161316 144.0
156.036758 33.0
157.037338 33.0
157.08284 296.0
157.128677 29.0
158.089386 64.0
159.093964 27.0
160.979141 13.0
163.144699 40.0
163.909027 36.0
164.928436 26.0
168.137222 84.0
168.156677 38.0
172.097076 25.0
173.02179 31.0
174.892487 46.0
175.888596 39.0
175.95575 42.0
177.165619 21.0
177.958725 25.0
179.110489 21.0
180.982208 39.0
183.158051 34.0
184.022507 32.0
184.078094 21.0
184.10144 31.0
185.078781 62.0
185.16362 889.0
185.196472 27.0
185.886368 44.0
186.149277 980.0
186.818787 12.0
186.8983 29.0
187.036942 11.0
187.152206 105.0
187.544525 11.0
187.80278 12.0
188.010468 20.0
188.12767 34.0
189.009308 36.0
189.438583 15.0
190.026978 18.0
191.178314 44.0
192.172073 34.0
193.133591 23.0
194.917435 17.0
196.147263 31.0
196.172531 21.0
197.164734 31.0
198.102615 17.0
198.903671 20.0
199.138931 10.0
199.179276 114.0
200.162109 43.0
202.453506 10.0
203.034805 20.0
203.105789 27.0
205.463181 17.0
208.944412 30.0
209.133621 31.0
209.163727 28.0
209.968781 10.0
209.988144 11.0
210.04837 14.0
210.113083 11.0
210.136276 10.0
210.184952 3766.0
210.249557 14.0
210.715118 13.0
210.95903 17.0
210.988297 13.0
211.046387 24.0
211.189041 618.0
211.219162 33.0
211.252533 9.0
211.853622 10.0
212.034225 12.0
212.196152 47.0
212.413757 17.0
212.763809 10.0
213.093262 20.0
213.160095 570.0
213.189102 27.0
213.214127 28.0
213.346222 17.0
213.823959 30.0
214.140961 17.0
214.162399 20.0
214.666809 32.0
214.869461 13.0
215.056946 32.0
215.248398 20.0
215.505753 15.0
216.045746 35.0
216.061218 65.0
216.618408 21.0
216.843185 10.0
217.091354 16.0
218.17981 10.0
222.355637 26.0
224.158539 17.0
224.233627 54.0
225.159195 42.0
225.487518 30.0
226.949982 33.0
227.01738 11.0
227.176102 63.0
228.017242 10.0
228.064362 11.0
228.120041 17.0
228.158951 50.0
228.195145 2313.0
228.276459 11.0
228.342667 14.0
228.718246 15.0
228.843338 29.0
229.096588 17.0
229.153595 23.0
229.199081 411.0
229.722534 22.0
230.201614 76.0
230.732681 15.0
230.961655 13.0
231.00502 9.0
231.030655 13.0
231.169983 1531.0
231.26828 10.0
231.315384 13.0
231.99881 25.0
232.172958 93.0
232.486755 37.0
232.729996 26.0
233.058441 26.0
233.094604 18.0
233.169876 15.0
233.190033 34.0
233.224319 26.0
233.38063 10.0
234.228775 19.0
234.893524 22.0
234.948013 15.0
235.53804 20.0
237.14386 31.0
237.883438 11.0
238.020096 11.0
238.137222 16.0
238.179321 2394.0
238.261627 12.0
238.286865 15.0
238.327896 11.0
238.399368 15.0
238.493958 31.0
238.525848 12.0
238.614899 13.0
239.117386 38.0
239.151276 9.0
239.184616 212.0
239.213074 12.0
239.364761 18.0
239.565933 11.0
239.590546 14.0
239.690216 22.0
239.779739 21.0
241.185471 29.0
241.318695 11.0
241.533554 16.0
242.175552 107.0
242.328079 22.0
242.536148 15.0
242.837601 27.0
243.056564 21.0
243.169586 34.0
243.214645 17.0
244.075043 25.0
245.022125 15.0
245.180313 43.0
245.589798 8.0
247.557861 18.0
248.113144 30.0
249.112534 30.0
250.737732 13.0
250.859985 24.0
250.922165 34.0
251.240433 26.0
252.547241 14.0
253.061249 18.0
253.130295 21.0
253.153503 21.0
253.180283 10.0
253.226852 1684.0
253.25769 34.0
253.366837 14.0
253.567352 12.0
253.779617 18.0
253.901154 15.0
253.9888 13.0
254.068954 21.0
254.231628 265.0
254.511124 18.0
254.712158 15.0
255.20517 70.0
255.892136 19.0
255.92099 15.0
255.953064 12.0
255.990921 11.0
256.033173 11.0
256.155487 11.0
256.190094 3436.0
256.239807 41.0
256.261444 14.0
256.506439 13.0
256.753021 36.0
256.878632 11.0
257.05481 23.0
257.192627 402.0
257.49295 26.0
257.516113 11.0
257.675446 23.0
257.721252 40.0
257.759674 23.0
257.984833 10.0
258.042755 13.0
258.144684 14.0
258.193695 47.0
258.269257 12.0
258.491699 16.0
258.60022 17.0
258.809052 13.0
259.201355 55.0
260.119537 36.0
260.211395 25.0
260.387482 23.0
260.630432 26.0
260.800537 19.0
261.109283 12.0
261.171326 28.0
262.134674 31.0
262.970581 25.0
263.10495 26.0
263.66803 11.0
264.087982 30.0
264.411102 15.0
265.362549 25.0
266.11972 12.0
271.055664 30.0
277.152466 28.0
278.210388 11.0
281.065094 11.0
281.221649 508.0
281.259979 40.0
281.595062 12.0
282.222076 113.0
283.22757 43.0
285.118011 30.0
285.833618 15.0
286.345032 15.0
293.392426 23.0
294.280334 212.0
295.283752 50.0
296.078278 41.0
298.835022 15.0
298.998871 11.0
299.050079 10.0
299.096893 11.0
299.231781 1048.0
299.319397 19.0
300.232819 82.0
301.13974 14.0
301.187378 26.0
301.241943 29.0
302.006775 10.0
302.109528 10.0
302.237854 25.0
302.270355 17.0
303.7966 14.0
304.221252 24.0
304.284027 21.0
310.967255 23.0
313.195923 20.0
317.121613 18.0
320.253998 19.0
321.392395 16.0
323.267395 161.0
324.269501 45.0
325.012177 16.0
325.273193 2557.0
325.355286 14.0
325.427704 17.0
325.519226 16.0
325.821045 19.0
325.867432 13.0
325.975372 12.0
326.081116 12.0
326.180115 24.0
326.200958 16.0
326.276184 789.0
326.311157 18.0
326.550537 10.0
326.866486 18.0
326.932251 17.0
327.041443 14.0
327.134216 22.0
327.168365 12.0
327.263306 1607.0
327.385162 29.0
327.511475 30.0
327.559204 10.0
327.619476 27.0
328.047302 16.0
328.15802 27.0
328.268585 365.0
328.544983 15.0
329.033539 12.0
329.258911 28.0
329.541931 16.0
329.893524 12.0
330.586761 33.0
330.888214 16.0
330.957214 16.0
331.308167 24.0
331.701355 13.0
332.103088 16.0
332.143555 10.0
332.195801 17.0
332.50705 14.0
332.536407 13.0
332.566833 14.0
334.234955 17.0
334.459229 11.0
334.91861 15.0
335.657806 20.0
336.254456 22.0
337.248596 27.0
337.723633 12.0
338.148407 18.0
338.347473 25.0
341.192474 16.0
342.562317 22.0
344.254028 19.0
348.01886 21.0
349.169891 23.0
349.282257 21.0
350.270844 29.0
351.137482 38.0
351.26474 328.0
351.298798 48.0
351.323029 11.0
352.270294 68.0
353.264648 73.0
353.535919 20.0
354.274078 35.0
355.08197 16.0
355.258728 761.0
356.258789 107.0
356.860687 15.0
356.885651 14.0
357.059845 9.0
357.642487 17.0
358.205048 17.0
359.259491 13.0
360.735809 20.0
361.188782 15.0
363.182892 32.0
367.109192 15.0
368.909271 12.0
369.204651 15.0
369.273407 1821.0
369.310791 58.0
369.36615 17.0
369.505829 13.0
370.280121 380.0
370.368896 16.0
371.279724 63.0
371.961823 13.0
372.332428 16.0
377.546661 20.0
378.121948 45.0
380.178894 36.0
381.144867 25.0
382.185211 29.0
382.862396 26.0
385.813354 18.0
387.131653 24.0
387.217255 33.0
390.125549 21.0
392.061432 30.0
395.329987 25.0
396.277161 41.0
396.348541 12.0
398.03833 42.0
399.188538 33.0
399.268707 11.0
400.174896 29.0
401.205627 20.0
408.101746 30.0
412.330658 22.0
421.15799 12.0
422.565308 19.0
423.313477 57.0
424.162811 33.0
424.318634 43.0
425.165649 37.0
425.336426 28.0
427.387695 19.0
427.531219 13.0
431.618622 30.0
431.768524 22.0
437.01535 9.0
438.334747 17.0
439.37561 49.0
439.761475 15.0
439.806976 24.0
439.841949 12.0
439.873566 11.0
439.90506 13.0
439.937164 11.0
439.980469 20.0
440.021179 9.0
440.058716 23.0
440.095947 10.0
440.154999 31.0
440.184845 12.0
440.218811 14.0
440.273529 35.0
440.347778 4482.0
440.402985 96.0
440.511749 18.0
440.63443 20.0
440.671173 11.0
440.757477 10.0
440.843079 10.0
441.08725 14.0
441.178955 19.0
441.220215 23.0
441.350403 789.0
441.508392 16.0
441.786469 11.0
441.900513 10.0
442.044403 32.0
442.354248 312.0
442.517578 18.0
442.959229 13.0
443.029663 12.0
443.273499 37.0
443.354004 40.0
443.404205 18.0
443.585571 19.0
443.844269 17.0
444.70578 17.0
444.756134 21.0
444.916107 15.0
445.392334 10.0
445.555878 23.0
445.860535 25.0
446.503784 34.0
446.559723 15.0
446.634094 10.0
446.735992 20.0
447.008148 16.0
447.368652 21.0
447.741333 15.0
447.979034 25.0
448.047882 13.0
449.5979 31.0
449.872467 18.0
450.119141 29.0
450.331604 28.0
450.705963 31.0
451.803162 13.0
452.407196 17.0
453.247131 11.0
454.658203 19.0
465.332886 25.0
466.036346 44.0
466.238007 23.0
467.272156 109.0
467.87561 14.0
468.049896 22.0
468.164978 14.0
468.193054 11.0
468.268433 78.0
468.343292 456.0
468.685516 20.0
468.835266 8.0
469.236542 20.0
469.343658 144.0
469.388123 9.0
470.024506 8.0
470.093414 11.0
470.206879 19.0
470.320496 33.0
470.35083 12.0
470.426941 20.0
470.556244 19.0
471.325928 30.0
471.357788 42.0
471.435455 16.0
472.080414 27.0
473.052582 29.0
473.372253 18.0
474.405396 12.0
475.304413 31.0
485.623962 13.0
493.144379 14.0
497.202301 23.0
512.695251 24.0
539.157532 42.0
569.137024 22.0
717.265442 36.0
762.066895 18.0
903.987 19.0
948.776306 11.0
1097.830078 10.0
1162.845459 10.0
END IONS
