BEGIN IONS
PEPMASS=441.32
CHARGE=1
MSLEVEL=2
SOURCE_INSTRUMENT=LC-ESI-qTof
FILENAME=f.amcaraballor/20150613_CocultureEndophytes_01_All_mzXML/A1_Blue_P2-A-2_01_23361.mzXML;
SEQ=*..*
IONMODE=Positive
ORGANISM=GNPS-LIBRARY
NAME=Leupeptin Pr-LL M+H
PI=Pupo MT
DATACOLLECTOR=amcaraballor
SMILES=CC(CC(NC(CC)=O)C(NC(C(N[C@H](C=O)CCC/N=C(N)\N)=O)CC(C)C)=O)C
INCHI=
INCHIAUX=
PUBMED=
SUBMITUSER=amcaraballor
TAGS=
LIBRARYQUALITY=3
SPECTRUMID=CCMSLIB00000840429
SCANS=280
139.08342 448.0
141.112686 5504.0
142.117462 7572.0
143.120819 804.0
150.12471 388.0
151.096542 580.0
152.141037 1888.0
153.144485 544.0
156.111221 1940.0
166.123291 984.0
167.153702 7520.0
168.15892 1048.0
169.129272 612.0
170.117538 10564.0
171.120163 1712.0
178.122009 3324.0
179.124466 696.0
192.147079 1016.0
193.133041 400.0
194.166122 496.0
195.149246 21224.0
196.152527 2556.0
199.181671 2596.0
208.144226 1008.0
209.174881 2116.0
210.169998 460.0
212.176529 19456.0
213.177063 2992.0
219.162338 444.0
220.14444 2368.0
221.142136 304.0
222.158478 1788.0
227.176208 852.0
237.170502 7936.0
238.159668 1984.0
254.198044 6884.0
255.183548 4828.0
256.183044 960.0
264.174347 460.0
265.188934 1148.0
283.201477 10548.0
284.204651 2076.0
290.221344 620.0
307.240295 460.0
308.235657 344.0
325.258881 468.0
350.248077 396.0
363.273834 2784.0
364.274017 988.0
367.276764 1120.0
368.272125 452.0
381.285767 69456.0
382.288391 13728.0
383.290192 2040.0
396.294312 584.0
405.295868 1712.0
406.28717 904.0
422.784332 308.0
423.091461 612.0
423.308075 277520.0
423.68396 396.0
424.026855 524.0
424.153595 448.0
424.309418 78188.0
425.312042 11028.0
426.323273 340.0
441.317902 111280.0
442.319855 29156.0
443.323914 3588.0
444.314362 324.0
END IONS
