BEGIN IONS
PEPMASS=1778.83
CHARGE=1
MSLEVEL=2
SOURCE_INSTRUMENT=LC-ESI-qTof
FILENAME=f.philipwi/0_WilliamsFreshwaterCyanosStandardsConvertedTo_mzXML_v2/PW-2_P1-A-2__Microviridin_M_1776amu_01_15524_Scan469-560.mzXML;
SEQ=*..*
IONMODE=Positive
ORGANISM=GNPS-LIBRARY
NAME=Microviridin M M+H
PI=Philip Williams
DATACOLLECTOR=Williams
SMILES=O=C(CCC(NC(C(NC(C(NC(C(NC(C(NC(C1CCCN12)=O)CO3)=O)CC(OC(C(NC(C(NC(C4CCCN4C(C5N(C(C(NC(C)=O)C)=O)CCC5)=O)=O)C)=O)C(NC(C(N6)=O)CC(C)C)=O)C)=O)=O)CC7=CNC8=C7C=CC=C8)=O)CCC3=O)=O)C(NC(C(O)=O)CC9=CC=C(O)C=C9)=O)NCCCCC6C(NC(CC%10=CNC%11=C%10C=CC=C%11)C2=O)=O
INCHI=
INCHIAUX=
PUBMED=
SUBMITUSER=philipwi
TAGS=
LIBRARYQUALITY=3
SPECTRUMID=CCMSLIB00000425007
SCANS=487
132.302246 136.0
165.108536 64.0
188.098923 92.0
195.116928 288.0
197.108551 96.0
199.919617 84.0
202.133865 76.0
209.153885 60.0
211.124191 332.0
211.993591 32.0
212.108078 108.0
214.096298 112.0
215.684814 40.0
217.175858 68.0
219.190796 88.0
222.126114 212.0
224.144745 128.0
227.439682 32.0
233.137131 80.0
235.019363 32.0
237.154526 92.0
239.309189 40.0
241.176544 52.0
246.932297 28.0
247.112625 120.0
249.171082 108.0
250.148071 44.0
250.652405 32.0
252.14241 240.0
252.391235 40.0
253.141174 128.0
254.136063 68.0
255.153259 108.0
256.131683 64.0
256.305145 36.0
259.139771 104.0
260.02298 36.0
262.165405 84.0
264.741669 28.0
265.17746 48.0
266.153778 652.0
267.070007 60.0
267.171265 184.0
267.591125 32.0
268.029266 28.0
270.162415 120.0
271.095703 44.0
279.173553 84.0
280.207642 92.0
282.292236 28.0
283.171143 168.0
284.879242 32.0
285.124695 84.0
293.103851 72.0
293.879211 32.0
294.182434 108.0
297.562347 32.0
300.122528 56.0
302.11969 68.0
304.207581 80.0
307.160431 80.0
308.162354 160.0
315.178192 112.0
317.161713 32.0
318.152039 120.0
319.181122 80.0
321.165222 104.0
323.20697 88.0
324.078522 124.0
328.777405 32.0
335.188538 56.0
336.169586 28.0
337.191742 108.0
339.144775 84.0
341.187408 80.0
341.767639 40.0
343.128143 108.0
343.324982 56.0
346.212982 112.0
347.174377 40.0
347.471375 36.0
348.089508 40.0
348.958252 36.0
349.191986 2496.0
349.708832 40.0
350.030762 32.0
350.191895 624.0
350.317047 48.0
352.252533 80.0
353.194427 164.0
354.22934 80.0
355.189789 96.0
355.273895 92.0
358.163361 68.0
360.810211 52.0
361.18399 92.0
362.155487 88.0
363.102295 64.0
365.218903 112.0
365.755127 32.0
366.223969 256.0
367.199646 160.0
368.270782 68.0
369.801483 28.0
370.193848 56.0
370.696869 124.0
372.195709 72.0
377.186493 76.0
378.184082 48.0
379.179108 112.0
381.120148 168.0
381.177521 96.0
382.193512 96.0
383.208832 80.0
387.212341 64.0
387.350342 96.0
391.230469 148.0
392.157654 72.0
395.23114 76.0
396.20755 112.0
399.128754 184.0
399.233124 84.0
399.526123 40.0
400.265472 56.0
404.142578 244.0
405.260315 64.0
407.220428 108.0
411.14035 84.0
411.230835 84.0
416.782074 92.0
417.229126 116.0
418.29303 64.0
418.499664 52.0
419.199615 56.0
421.257721 32.0
422.16095 116.0
422.252655 144.0
423.183167 92.0
424.180389 72.0
425.139313 100.0
426.217773 76.0
427.205353 56.0
428.180878 56.0
429.18396 60.0
431.185059 56.0
432.200165 56.0
433.168121 48.0
433.911407 40.0
434.177002 120.0
434.282349 292.0
434.642029 84.0
435.276825 156.0
436.238251 48.0
436.544525 36.0
437.237366 48.0
439.145538 80.0
440.198334 112.0
442.437805 32.0
445.177338 84.0
448.208649 52.0
449.194366 88.0
450.164246 96.0
450.194672 72.0
452.234131 84.0
454.177399 124.0
455.17215 48.0
458.182678 32.0
459.158234 96.0
459.630188 60.0
460.218018 68.0
461.162079 76.0
461.729706 44.0
462.269409 912.0
462.635345 52.0
463.121704 36.0
463.263763 236.0
464.068726 32.0
464.267334 52.0
465.277954 100.0
465.401703 32.0
466.291962 96.0
467.246277 72.0
468.186584 108.0
469.937042 40.0
472.1922 200.0
473.435089 48.0
474.300018 80.0
476.217773 88.0
477.242188 160.0
478.195129 48.0
479.292053 168.0
479.743683 32.0
480.278046 176.0
481.176575 64.0
481.272675 60.0
482.155182 100.0
483.60498 28.0
486.201813 180.0
487.224915 32.0
488.188354 148.0
491.755585 36.0
492.0242 44.0
493.042786 36.0
494.034088 56.0
494.317505 88.0
496.289459 64.0
497.19873 44.0
497.302124 128.0
500.19809 80.0
501.229401 64.0
504.302429 80.0
506.23056 92.0
507.175415 92.0
507.327454 68.0
508.30426 92.0
510.186493 52.0
515.05249 32.0
515.805054 120.0
516.210449 84.0
519.73584 68.0
520.07019 60.0
520.259155 64.0
521.219238 40.0
523.245605 76.0
524.26532 92.0
527.276306 100.0
528.169556 80.0
529.180908 64.0
530.251892 32.0
531.250549 28.0
532.353027 44.0
533.214783 120.0
534.296265 80.0
535.283936 48.0
536.287292 104.0
537.300476 100.0
537.454102 68.0
538.829346 52.0
539.214172 28.0
540.071411 36.0
540.250793 72.0
541.214294 148.0
543.203308 28.0
547.336182 120.0
550.178589 116.0
550.283264 64.0
551.315552 52.0
552.211243 148.0
552.333801 56.0
553.218079 68.0
555.229004 72.0
558.327515 44.0
559.327576 204.0
560.22699 92.0
560.332581 56.0
560.951416 28.0
561.223206 52.0
562.302734 80.0
563.263794 40.0
564.217285 48.0
568.176147 88.0
569.23468 336.0
570.244507 188.0
571.246033 120.0
575.322083 152.0
576.326721 64.0
577.007874 40.0
577.307434 76.0
577.543945 32.0
578.494141 32.0
578.724121 64.0
579.279175 88.0
579.890198 36.0
583.226013 96.0
584.828186 36.0
586.293579 76.0
586.463379 68.0
589.276306 32.0
590.222534 64.0
590.354004 76.0
591.36792 96.0
592.344177 80.0
594.227844 76.0
595.202271 28.0
595.373352 48.0
596.293518 88.0
596.976501 44.0
597.225952 460.0
597.397095 28.0
597.568481 44.0
598.220398 312.0
599.244812 96.0
600.001892 40.0
601.282959 96.0
602.315002 96.0
602.59668 44.0
607.111755 32.0
607.270752 96.0
608.070251 28.0
608.272644 64.0
608.384644 128.0
609.249695 68.0
610.335876 60.0
612.36908 60.0
613.789612 92.0
614.268921 340.0
615.260559 180.0
615.986755 28.0
616.287415 120.0
617.328308 32.0
618.314636 64.0
618.647583 32.0
619.250244 80.0
620.339966 72.0
621.250549 32.0
622.331421 212.0
622.808594 84.0
625.242432 64.0
626.329285 72.0
627.302856 88.0
628.374939 84.0
628.628662 36.0
628.868469 28.0
632.229919 52.0
635.329895 140.0
636.247009 52.0
637.314026 128.0
638.303101 52.0
639.334229 56.0
639.640503 108.0
640.817993 64.0
641.23761 44.0
642.351868 104.0
644.268616 80.0
645.304565 80.0
645.635742 64.0
646.008362 124.0
646.397217 72.0
646.948364 36.0
647.316711 28.0
647.775574 68.0
648.359741 80.0
649.236572 68.0
651.366028 76.0
651.805359 44.0
652.212341 68.0
653.270935 52.0
653.401245 36.0
653.678284 28.0
656.387146 160.0
657.362244 132.0
658.284119 76.0
662.820557 120.0
663.148804 96.0
663.263733 92.0
663.674255 44.0
664.281982 32.0
665.235229 64.0
666.27832 96.0
668.033203 136.0
669.284607 48.0
670.837036 28.0
671.282898 68.0
672.307251 52.0
672.654419 100.0
673.299316 32.0
673.67981 36.0
674.374939 76.0
674.490784 44.0
674.722595 36.0
675.375732 128.0
676.296509 60.0
676.478882 56.0
679.267151 72.0
679.865356 84.0
680.272217 188.0
680.372864 184.0
682.301758 88.0
682.560669 28.0
683.343628 56.0
685.234924 116.0
686.246155 80.0
687.315308 40.0
688.652893 28.0
689.272034 64.0
690.326782 76.0
691.316833 84.0
691.849304 212.0
693.339844 116.0
694.36908 76.0
695.259583 72.0
696.302124 52.0
696.672241 44.0
697.325745 72.0
698.265564 124.0
699.383728 64.0
700.400391 56.0
702.320129 40.0
703.312317 56.0
705.245728 76.0
705.685913 28.0
705.846985 100.0
706.349609 116.0
706.854797 144.0
707.329468 84.0
707.838135 92.0
708.260315 252.0
709.287415 52.0
709.874756 40.0
710.28241 60.0
711.319153 80.0
713.309692 40.0
713.61615 32.0
714.348572 84.0
714.884155 168.0
716.360413 108.0
719.297974 60.0
719.815369 140.0
720.348572 192.0
720.847168 100.0
722.429993 96.0
723.269836 64.0
723.406982 64.0
725.285583 44.0
726.265015 240.0
727.272095 100.0
728.355957 328.0
728.850159 300.0
729.344543 176.0
729.848083 80.0
730.332947 88.0
731.332458 96.0
732.056641 32.0
733.367126 72.0
734.404175 44.0
735.354614 84.0
736.876587 48.0
737.309265 40.0
738.323364 56.0
739.343079 104.0
740.329163 96.0
741.330383 104.0
742.345703 60.0
742.848206 164.0
743.400208 196.0
744.366577 184.0
745.397339 96.0
746.415466 128.0
747.260681 136.0
748.373962 76.0
749.318298 76.0
750.41803 48.0
751.868103 80.0
753.284607 40.0
755.297913 112.0
756.351501 300.0
757.015747 32.0
760.290283 160.0
761.383972 112.0
763.359131 100.0
764.351562 80.0
765.346619 296.0
766.350769 84.0
767.416748 64.0
768.335266 84.0
768.953796 196.0
770.424866 44.0
771.395142 56.0
774.339661 104.0
775.353882 144.0
776.412598 68.0
777.424683 80.0
777.959778 36.0
778.368774 44.0
779.276001 40.0
782.359558 100.0
783.356384 120.0
784.315796 88.0
785.383118 92.0
787.447388 88.0
788.467346 32.0
789.308838 40.0
789.452087 108.0
790.419617 84.0
791.309753 256.0
792.304321 80.0
793.349243 104.0
794.349304 56.0
794.510986 32.0
795.373718 96.0
796.344788 44.0
797.334473 104.0
800.018738 52.0
800.341919 204.0
800.781128 44.0
801.339539 88.0
803.310791 120.0
804.330627 136.0
805.30127 64.0
806.37793 28.0
808.334106 44.0
809.331177 40.0
809.45813 32.0
810.369629 92.0
810.510376 60.0
812.380737 40.0
814.408264 100.0
815.126526 36.0
815.399536 136.0
816.41925 36.0
817.409485 68.0
819.31781 40.0
820.303406 36.0
821.376221 56.0
822.391235 72.0
823.099182 40.0
824.379883 88.0
826.339417 88.0
827.292542 76.0
827.677612 52.0
828.406311 84.0
829.292236 100.0
832.425659 60.0
832.888367 360.0
833.401978 320.0
833.887878 112.0
834.384949 52.0
834.513855 64.0
834.882202 120.0
835.342712 76.0
836.374756 76.0
837.315247 48.0
838.422363 60.0
840.416992 32.0
841.40741 76.0
842.469482 156.0
843.374451 96.0
843.515625 76.0
844.394836 32.0
844.876526 88.0
845.390015 260.0
846.367737 116.0
847.027222 32.0
847.472534 56.0
847.602417 128.0
848.939148 84.0
849.359863 132.0
850.351318 52.0
851.411194 40.0
851.894897 32.0
853.21637 36.0
853.421204 92.0
854.240784 112.0
857.392395 64.0
858.643433 28.0
859.416016 196.0
859.895386 32.0
860.437561 84.0
861.392761 108.0
862.339844 100.0
863.356995 44.0
864.106384 48.0
864.438416 104.0
865.418579 84.0
866.330078 84.0
866.484253 64.0
867.414978 60.0
871.331726 112.0
872.201477 36.0
872.357727 108.0
873.350281 60.0
874.367859 44.0
875.480286 68.0
875.914185 32.0
877.394592 56.0
878.362122 116.0
879.388977 76.0
880.349182 72.0
881.412781 68.0
882.465393 20.0
883.408447 44.0
884.102173 44.0
886.410767 104.0
887.783081 68.0
888.384155 64.0
889.335144 188.0
890.355774 320.0
891.353455 140.0
893.414062 72.0
894.376526 88.0
895.463501 56.0
896.359924 132.0
897.362488 36.0
898.453796 60.0
899.521606 48.0
900.076111 148.0
900.42041 44.0
900.573425 36.0
901.465088 100.0
903.387695 28.0
903.993713 32.0
904.399414 76.0
905.388428 132.0
906.452698 96.0
909.35614 96.0
910.44812 76.0
910.913879 172.0
911.441956 72.0
912.492188 88.0
913.3396 72.0
914.49585 80.0
915.498535 64.0
916.424622 164.0
916.559692 64.0
917.400269 116.0
918.457703 40.0
919.412842 88.0
921.447876 48.0
922.411255 116.0
923.423584 32.0
924.411743 72.0
925.885315 88.0
927.416443 44.0
929.43042 76.0
930.346313 56.0
930.482422 140.0
931.090942 36.0
931.413574 56.0
933.445984 36.0
934.926758 68.0
936.467163 40.0
943.405029 80.0
944.3255 28.0
945.379639 148.0
945.90033 56.0
946.408264 212.0
947.388611 100.0
947.854797 40.0
948.168823 44.0
949.441162 56.0
950.425964 152.0
951.457825 68.0
952.433044 64.0
953.365906 52.0
954.40564 200.0
955.484802 32.0
957.495667 40.0
958.429932 80.0
959.430786 72.0
960.120911 36.0
960.415833 56.0
961.444763 196.0
962.077332 28.0
962.469604 48.0
963.446289 56.0
964.456421 64.0
965.397278 68.0
966.482788 36.0
966.907837 32.0
967.621521 84.0
969.863525 60.0
970.419434 52.0
971.770264 36.0
972.409485 96.0
973.430847 164.0
974.423218 56.0
975.250854 44.0
975.454956 96.0
976.415771 40.0
976.923767 36.0
977.40979 60.0
978.465393 276.0
979.484131 104.0
981.49176 44.0
982.190857 28.0
982.466492 100.0
983.489807 64.0
985.489929 80.0
986.030334 44.0
986.422241 76.0
987.499573 120.0
987.692444 32.0
987.872742 28.0
988.07312 36.0
988.473877 32.0
989.355896 64.0
990.499146 72.0
991.341919 32.0
992.396851 88.0
992.546509 56.0
993.47052 140.0
994.461121 364.0
995.444153 284.0
996.42627 52.0
997.553406 28.0
999.56781 96.0
1000.474915 32.0
1001.456055 60.0
1002.431641 52.0
1002.59314 96.0
1004.491333 52.0
1005.488342 84.0
1006.007202 40.0
1006.391357 68.0
1006.532898 136.0
1007.438599 88.0
1008.455078 128.0
1009.507996 32.0
1011.486572 88.0
1012.483887 44.0
1013.527649 60.0
1014.42804 64.0
1014.699646 28.0
1015.493896 120.0
1016.437134 60.0
1017.492004 76.0
1018.503052 76.0
1018.805542 32.0
1019.445923 60.0
1019.965637 40.0
1021.533813 56.0
1021.880188 100.0
1022.437927 320.0
1022.776978 56.0
1023.440918 368.0
1023.653809 32.0
1024.449707 184.0
1025.491577 56.0
1026.500122 104.0
1027.450806 36.0
1028.472656 36.0
1028.983887 48.0
1029.554199 112.0
1030.483032 56.0
1031.459595 92.0
1032.496216 96.0
1033.477905 88.0
1034.553223 44.0
1035.33252 40.0
1038.506836 56.0
1039.454346 100.0
1040.507812 144.0
1041.43335 96.0
1042.462158 144.0
1043.442505 64.0
1044.445679 132.0
1044.60376 32.0
1044.747925 32.0
1045.500122 48.0
1046.45874 24.0
1047.484985 32.0
1048.538696 52.0
1049.426147 40.0
1050.454346 168.0
1051.475708 36.0
1052.240601 40.0
1052.426758 72.0
1054.412964 36.0
1056.028076 32.0
1056.441772 84.0
1057.421631 32.0
1058.489502 116.0
1059.469604 48.0
1060.461914 84.0
1061.502686 64.0
1062.525635 68.0
1063.465698 68.0
1064.621582 64.0
1068.548706 108.0
1069.512817 40.0
1070.482178 84.0
1071.496338 88.0
1072.226807 36.0
1072.477295 120.0
1073.479614 56.0
1074.52417 76.0
1075.499146 160.0
1076.504761 64.0
1076.67041 84.0
1077.535156 64.0
1079.293579 36.0
1080.413208 108.0
1084.535522 36.0
1085.081421 36.0
1085.501343 68.0
1086.456177 100.0
1086.740845 52.0
1088.464722 40.0
1089.453369 44.0
1090.484619 64.0
1091.515015 68.0
1092.464233 52.0
1092.906738 32.0
1093.47583 76.0
1097.505615 64.0
1099.555054 52.0
1100.548706 96.0
1101.140869 48.0
1102.452759 68.0
1103.501221 120.0
1104.497437 144.0
1105.587524 40.0
1105.799438 124.0
1106.530884 40.0
1107.220215 36.0
1107.535889 128.0
1108.55957 64.0
1109.53772 92.0
1111.487793 36.0
1112.104126 32.0
1112.305298 96.0
1112.450439 96.0
1113.566406 72.0
1114.422485 64.0
1116.572754 80.0
1117.531494 32.0
1119.535522 96.0
1120.047485 44.0
1121.57019 68.0
1123.526733 136.0
1124.524292 44.0
1126.520996 48.0
1130.551025 64.0
1131.498169 112.0
1132.541138 104.0
1133.463745 40.0
1134.519897 80.0
1135.513062 180.0
1137.491821 44.0
1137.932007 68.0
1139.54541 36.0
1140.545044 100.0
1141.528442 236.0
1142.21521 28.0
1142.514038 60.0
1143.034058 40.0
1143.314209 32.0
1144.620117 112.0
1145.578613 36.0
1145.988525 40.0
1146.819458 64.0
1147.487793 44.0
1148.363525 88.0
1150.594971 64.0
1151.497925 56.0
1152.514771 48.0
1153.510498 28.0
1154.518921 56.0
1155.550537 224.0
1156.023193 32.0
1156.539062 100.0
1157.020386 32.0
1157.519165 40.0
1157.844604 40.0
1158.491943 160.0
1159.522095 140.0
1160.405518 96.0
1160.568359 56.0
1160.926636 44.0
1161.491455 52.0
1163.664917 40.0
1163.860718 76.0
1165.840454 56.0
1167.429932 48.0
1168.562744 56.0
1169.508789 128.0
1170.59021 28.0
1171.578857 76.0
1171.74646 44.0
1172.549805 216.0
1173.5625 152.0
1173.885742 28.0
1174.560547 132.0
1175.540771 168.0
1176.540771 104.0
1176.726807 64.0
1177.568604 132.0
1178.214233 72.0
1179.558838 136.0
1180.534668 56.0
1182.556519 64.0
1183.603027 100.0
1184.612061 64.0
1185.510864 100.0
1186.509766 128.0
1187.478149 88.0
1188.566772 76.0
1189.580078 60.0
1190.345337 44.0
1190.584473 172.0
1191.533203 36.0
1192.573975 104.0
1193.602539 68.0
1195.342896 28.0
1195.539917 148.0
1196.552002 44.0
1197.587402 120.0
1198.518677 28.0
1199.556152 28.0
1199.953613 28.0
1200.54834 200.0
1201.57312 92.0
1202.604858 40.0
1202.825928 40.0
1203.506836 1088.0
1204.507568 700.0
1205.059814 32.0
1205.517578 324.0
1206.23291 36.0
1206.532593 148.0
1207.567627 40.0
1209.24585 72.0
1210.598389 56.0
1212.563354 64.0
1213.602783 128.0
1214.641479 128.0
1215.460571 32.0
1215.74939 48.0
1217.594971 64.0
1218.586182 116.0
1219.085693 36.0
1219.543091 180.0
1220.621948 52.0
1222.649414 36.0
1223.563477 32.0
1224.641846 80.0
1225.584106 84.0
1226.515381 104.0
1227.915405 104.0
1228.540894 44.0
1229.56897 40.0
1231.477661 100.0
1232.431763 64.0
1233.483765 52.0
1234.577148 60.0
1236.624023 44.0
1237.539307 72.0
1237.853271 32.0
1238.543213 128.0
1239.547119 68.0
1241.585571 96.0
1242.644775 64.0
1243.286743 40.0
1243.617188 68.0
1244.523193 32.0
1245.70874 80.0
1246.705566 32.0
1246.930542 28.0
1247.658569 96.0
1248.484253 56.0
1249.024902 68.0
1251.534546 92.0
1251.865112 68.0
1252.674683 80.0
1253.399292 40.0
1253.594116 56.0
1254.550537 32.0
1255.575928 64.0
1255.747437 40.0
1256.658203 64.0
1257.532593 80.0
1258.579224 96.0
1258.843994 96.0
1259.60022 80.0
1259.794189 40.0
1261.570923 132.0
1261.967163 80.0
1263.620728 116.0
1264.051392 28.0
1265.661011 36.0
1267.543945 48.0
1268.584717 124.0
1269.660767 184.0
1270.628784 160.0
1271.645508 40.0
1272.60144 56.0
1273.633545 72.0
1275.567993 64.0
1277.640625 36.0
1281.174683 96.0
1281.607422 60.0
1283.251831 104.0
1284.620728 120.0
1285.307861 40.0
1285.759155 92.0
1286.621704 84.0
1287.627075 68.0
1288.578003 112.0
1289.59314 44.0
1290.717285 44.0
1291.691895 72.0
1292.379272 32.0
1292.654297 72.0
1293.640015 72.0
1294.006836 68.0
1294.626099 64.0
1297.081421 40.0
1297.629028 184.0
1297.93103 64.0
1298.58667 84.0
1299.630127 104.0
1299.837769 108.0
1300.550415 72.0
1301.516113 36.0
1302.413086 52.0
1308.614746 92.0
1308.954712 40.0
1309.646729 52.0
1312.632812 44.0
1313.498291 48.0
1313.756226 92.0
1315.744019 72.0
1316.609985 288.0
1317.614502 148.0
1318.596436 244.0
1318.797974 28.0
1319.572998 68.0
1321.623657 48.0
1322.58606 84.0
1324.684448 36.0
1325.659058 28.0
1326.657227 44.0
1327.330566 36.0
1327.680786 52.0
1328.561768 80.0
1329.537842 56.0
1330.610107 116.0
1331.630493 56.0
1331.793335 76.0
1332.535034 32.0
1333.678345 48.0
1335.588013 44.0
1336.577393 52.0
1337.695068 48.0
1338.081787 64.0
1338.618164 56.0
1339.616455 80.0
1339.65625 64.0
1340.728027 56.0
1341.558472 40.0
1341.768555 44.0
1342.621338 116.0
1343.660645 56.0
1344.642212 40.0
1345.639282 80.0
1346.676636 32.0
1347.729492 80.0
1349.589966 100.0
1350.609375 68.0
1351.596069 168.0
1352.624878 104.0
1353.676025 144.0
1354.660156 104.0
1355.666504 60.0
1356.645508 108.0
1358.662109 244.0
1359.660767 84.0
1360.661865 128.0
1361.612183 56.0
1362.324707 100.0
1362.630615 36.0
1362.912964 44.0
1363.64978 212.0
1363.972168 100.0
1366.704468 72.0
1367.634155 64.0
1368.661133 44.0
1368.967773 40.0
1370.637329 144.0
1371.619141 112.0
1372.687622 136.0
1373.637573 64.0
1374.635986 52.0
1376.66748 68.0
1380.66748 112.0
1381.606812 412.0
1382.651001 192.0
1383.599976 140.0
1384.649658 80.0
1384.863037 100.0
1385.656616 72.0
1385.859619 72.0
1386.429199 28.0
1386.654175 176.0
1387.672119 52.0
1387.877441 48.0
1388.668701 64.0
1390.276978 40.0
1390.681152 40.0
1391.679688 96.0
1392.631104 40.0
1393.627075 116.0
1394.653809 52.0
1395.010986 44.0
1395.891968 48.0
1396.625977 64.0
1397.678833 68.0
1399.163818 80.0
1399.626221 112.0
1400.629883 292.0
1400.921753 44.0
1401.675049 56.0
1402.648193 36.0
1403.75354 64.0
1404.622437 40.0
1405.701416 64.0
1406.080078 84.0
1406.70166 184.0
1407.586426 32.0
1409.141357 44.0
1409.651001 160.0
1410.663452 144.0
1411.70166 140.0
1412.589233 40.0
1412.780884 84.0
1413.979126 52.0
1414.530518 48.0
1414.746338 32.0
1417.768921 36.0
1419.06543 52.0
1422.669678 44.0
1423.799927 104.0
1425.748901 32.0
1427.217529 32.0
1427.707642 192.0
1428.724609 156.0
1429.692139 96.0
1430.677856 100.0
1431.917358 36.0
1432.810059 48.0
1433.652832 220.0
1434.775146 84.0
1435.368896 108.0
1435.755371 44.0
1436.045166 120.0
1436.69751 116.0
1437.712524 76.0
1438.689209 164.0
1439.686279 148.0
1439.858032 112.0
1440.130493 36.0
1440.674927 164.0
1440.953125 56.0
1441.703369 100.0
1443.715454 80.0
1444.585083 40.0
1445.990601 32.0
1447.324097 48.0
1450.711792 152.0
1451.72644 224.0
1452.681396 108.0
1453.660645 76.0
1454.414185 28.0
1454.693115 108.0
1454.973267 72.0
1455.706055 1264.0
1455.994751 84.0
1456.703003 704.0
1457.711914 164.0
1458.711304 164.0
1459.767334 88.0
1460.473755 32.0
1460.732788 120.0
1461.661987 68.0
1462.6427 84.0
1463.422852 92.0
1463.699341 60.0
1464.715576 60.0
1466.680176 44.0
1466.863281 40.0
1468.597168 40.0
1469.647827 56.0
1470.698853 32.0
1471.69519 32.0
1471.921387 68.0
1472.692871 156.0
1473.707275 32.0
1474.720093 52.0
1475.322754 40.0
1475.690063 36.0
1475.885986 28.0
1476.277832 32.0
1478.677734 324.0
1479.463501 68.0
1479.693604 428.0
1480.665283 64.0
1481.728638 92.0
1482.039185 28.0
1482.671753 88.0
1483.020874 36.0
1483.70813 640.0
1484.101318 28.0
1484.322266 88.0
1484.703003 728.0
1485.034546 56.0
1485.712646 380.0
1486.703491 172.0
1487.706055 76.0
1488.328125 32.0
1488.973755 32.0
1489.164429 64.0
1490.394531 40.0
1490.69812 60.0
1492.856567 52.0
1493.644775 48.0
1495.369751 40.0
1496.72583 44.0
1498.631958 60.0
1499.637329 56.0
1501.729004 40.0
1502.734863 108.0
1503.725586 48.0
1505.567749 60.0
1505.815063 56.0
1507.621338 44.0
1507.819336 28.0
1513.81543 36.0
1514.16272 52.0
1515.70105 28.0
1517.687012 44.0
1519.17749 148.0
1519.773804 44.0
1521.737671 44.0
1523.35437 88.0
1523.723755 204.0
1524.662598 56.0
1526.615356 72.0
1527.711426 80.0
1528.135132 64.0
1535.694824 72.0
1536.721313 48.0
1537.893921 32.0
1538.744019 44.0
1539.751343 240.0
1540.732544 88.0
1541.738647 160.0
1549.713013 36.0
1550.737183 52.0
1551.742432 104.0
1552.652344 152.0
1553.777832 88.0
1554.085205 40.0
1554.78894 68.0
1560.122192 64.0
1562.76709 56.0
1563.747192 36.0
1565.212402 64.0
1567.756836 168.0
1568.214966 52.0
1568.755493 188.0
1569.780029 344.0
1570.75354 44.0
1570.928589 48.0
1571.747803 32.0
1573.776978 28.0
1574.835693 36.0
1575.544067 44.0
1575.746582 56.0
1576.758911 64.0
1578.74646 36.0
1580.836792 44.0
1585.300659 60.0
1586.849243 44.0
1588.195312 48.0
1590.762207 64.0
1591.765381 168.0
1592.729248 152.0
1593.728027 72.0
1594.094482 68.0
1596.750732 224.0
1597.769775 232.0
1598.759644 48.0
1600.761108 48.0
1602.172729 36.0
1602.759644 48.0
1603.875366 140.0
1604.776367 48.0
1605.287109 44.0
1606.768799 44.0
1607.663208 36.0
1608.251099 44.0
1608.77002 68.0
1609.815308 96.0
1611.755249 52.0
1615.083862 40.0
1618.730103 36.0
1619.467529 48.0
1619.773438 60.0
1620.791382 300.0
1621.802734 120.0
1622.802734 44.0
1625.707153 44.0
1626.42688 144.0
1629.822144 36.0
1630.336792 168.0
1630.836548 68.0
1636.788696 236.0
1637.422729 28.0
1637.796509 244.0
1638.557861 36.0
1638.815674 252.0
1639.853516 116.0
1640.338745 48.0
1642.921509 44.0
1646.759888 232.0
1647.782593 112.0
1648.740234 56.0
1651.46521 52.0
1652.723022 36.0
1655.191528 48.0
1656.71936 40.0
1657.059326 48.0
1657.42627 28.0
1658.097412 48.0
1658.740723 36.0
1659.317627 44.0
1659.525391 28.0
1659.87915 60.0
1660.5802 52.0
1661.369629 32.0
1662.435059 52.0
1662.828613 28.0
1663.40979 40.0
1663.815063 80.0
1664.219482 56.0
1664.774658 4604.0
1665.17395 64.0
1665.78772 5892.0
1666.789673 3164.0
1667.489868 40.0
1667.790039 1208.0
1668.204712 20.0
1668.80542 376.0
1669.109985 64.0
1669.43396 52.0
1669.78186 164.0
1670.003296 56.0
1670.260986 32.0
1670.83252 40.0
1671.763916 64.0
1672.560791 40.0
1672.951904 28.0
1678.170532 28.0
1678.849609 28.0
1679.71167 64.0
1680.521606 64.0
1681.90686 52.0
1682.403564 32.0
1682.74353 28.0
1683.423462 48.0
1687.898804 36.0
1688.344116 36.0
1688.789429 28.0
1692.799805 56.0
1693.219482 44.0
1696.079712 52.0
1696.871582 52.0
1697.760376 28.0
1698.522095 32.0
1699.15271 48.0
1719.89502 36.0
1721.746094 96.0
1728.550537 80.0
1731.860229 56.0
1733.827148 72.0
1733.867554 68.0
1734.891479 64.0
1735.831665 112.0
1738.662842 40.0
1749.84375 176.0
1750.845703 44.0
1751.84082 148.0
1752.846069 76.0
1753.846436 32.0
1759.216431 44.0
1759.884888 104.0
1760.473267 32.0
1760.802734 72.0
1761.827515 60.0
1770.43689 44.0
1777.821655 792.0
1778.244751 36.0
1778.843262 652.0
1779.32605 36.0
1779.835449 576.0
1780.267212 36.0
1780.833008 216.0
1781.854492 176.0
1782.473389 36.0
1782.769531 56.0
1783.846191 56.0
1786.997681 32.0
1790.016968 40.0
1792.795898 84.0
1793.28186 32.0
1799.795166 56.0
1800.084106 112.0
1800.807617 56.0
1801.226929 32.0
1806.289551 28.0
1822.309204 72.0
1882.777588 48.0
1978.533447 40.0
1982.164429 36.0
END IONS
