BEGIN IONS
PEPMASS=507.227
CHARGE=1
MSLEVEL=2
SOURCE_INSTRUMENT=LC-ESI-qTof
FILENAME=P1_C1_conc_GA1_01_2407.mzXML
SEQ=*..*
IONMODE=Positive
ORGANISM=GNPS-LIBRARY
NAME=Asperphenamate_120258 M+H
PI=Cichewicz
DATACOLLECTOR=Luzzatto
SMILES=O=C(N[C@@H](CC1=CC=CC=C1)C(OC[C@H](CC2=CC=CC=C2)NC(C3=CC=CC=C3)=O)=O)C4=CC=CC=C4
INCHI=N/A
INCHIAUX=N/A
PUBMED=N/A
SUBMITUSER=tal_lk
TAGS=
LIBRARYQUALITY=2
SPECTRUMID=CCMSLIB00000478094
SCANS=2228
91.054375 812.0
104.049271 584.0
105.034126 62972.0
106.037422 5612.0
115.055214 2684.0
116.060104 256.0
117.069962 28464.0
118.074852 1820.0
119.075638 400.0
122.05983 12048.0
123.063164 604.0
134.096329 3208.0
135.099899 804.0
146.059753 336.0
224.105972 40484.0
225.109985 5408.0
226.113327 860.0
237.861267 260.0
238.123001 286376.0
238.293457 252.0
238.488602 308.0
238.627075 992.0
238.766464 252.0
238.794449 332.0
238.970993 260.0
239.125397 49256.0
240.128006 3480.0
240.88121 288.0
252.102081 31900.0
253.103912 6208.0
254.10759 600.0
255.587891 352.0
256.132965 105216.0
256.544525 384.0
256.72998 316.0
257.135925 20212.0
257.241669 272.0
258.136932 1940.0
507.225647 2440.0
508.22644 732.0
509.230286 268.0
END IONS
