BEGIN IONS
PEPMASS=688.315
CHARGE=1
MSLEVEL=2
SOURCE_INSTRUMENT=LC-ESI-qTof
FILENAME=f.jess_cleary/siderophore_standards/Ferrichrome.mzXML;
SEQ=*..*
IONMODE=Positive
ORGANISM=GNPS-LIBRARY
NAME=desferrichrome M+H
PI=Sanchez
DATACOLLECTOR=Cleary
SMILES=CC(=O)N(CCCC1C(=O)NC(C(=O)NC(C(=O)NCC(=O)NCC(=O)NCC(=O)N1)CCCN(C(=O)C)O)CCCN(C(=O)C)O)O
INCHI=1S/C27H45N9O12/c1-16(37)34(46)10-4-7-19-25(43)30-14-23(41)28-13-22(40)29-15-24(42)31-20(8-5-11-35(47)17(2)38)26(44)33-21(27(45)32-19)9-6-12-36(48)18(3)39/h19-21,46-48H,4-15H2,1-3H3,(H,28,41)(H,29,40)(H,30,43)(H,31,42)(H,32,45)(H,33,44)/t19-,20-,21-/m0/s1
INCHIAUX=
PUBMED=169636
SUBMITUSER=jess_cleary
TAGS=
LIBRARYQUALITY=3
SPECTRUMID=CCMSLIB00005435970
SCANS=220
45.288116 88.0
45.345974 122.0
46.151546 80.0
47.408386 16.0
47.436943 16.0
48.854542 16.0
50.18449 16.0
50.401653 16.0
50.585217 104.0
50.748734 16.0
51.198563 62.0
52.114407 16.0
52.453461 16.0
53.091244 18.0
53.766861 16.0
54.579247 74.0
54.730114 16.0
55.113071 16.0
55.269478 16.0
55.341827 16.0
56.634258 16.0
58.043697 76.0
58.13966 16.0
59.438343 16.0
59.628998 48.0
60.042534 66.0
62.760445 16.0
63.606285 56.0
64.13118 16.0
64.831184 24.0
65.319359 16.0
66.476822 16.0
67.042244 50.0
68.048126 1332.0
68.068176 26.0
69.03167 490.0
69.055199 640.0
69.116295 16.0
70.037399 116.0
70.063377 5508.0
70.080391 74.0
70.100754 46.0
70.150505 70.0
70.624023 28.0
70.663048 98.0
70.685181 22.0
70.760857 18.0
70.8293 16.0
71.046188 114.0
71.058937 98.0
71.067703 226.0
71.695801 28.0
71.813614 56.0
72.042412 2836.0
72.463448 18.0
72.546967 16.0
72.679344 24.0
73.045433 164.0
73.150223 56.0
74.170357 32.0
74.320969 16.0
74.772644 16.0
75.053535 3376.0
76.054794 172.0
76.823502 42.0
77.058296 76.0
77.878036 52.0
77.986755 16.0
78.007889 16.0
78.026146 32.0
78.117798 16.0
78.465149 82.0
80.047165 366.0
80.210777 66.0
80.731659 16.0
81.041306 60.0
81.054726 64.0
81.5448 16.0
82.063538 654.0
82.33017 16.0
83.056793 16.0
83.070229 52.0
84.044518 130.0
84.074638 42.0
84.121613 52.0
85.035721 20.0
85.074409 1816.0
85.435577 16.0
85.650864 34.0
85.949371 16.0
85.970078 16.0
86.006226 20.0
86.038116 64.0
86.058128 91736.0
86.084381 294.0
86.10183 50.0
86.117165 22.0
86.166214 18.0
86.188293 18.0
86.206848 18.0
86.221443 68.0
86.252113 26.0
86.296463 24.0
86.421402 30.0
86.452019 20.0
86.467918 32.0
86.511986 26.0
86.539215 34.0
86.569153 56.0
86.582687 20.0
86.596062 28.0
86.60714 18.0
86.638481 46.0
86.666519 18.0
86.712914 40.0
86.732864 42.0
86.744904 34.0
86.75824 50.0
86.782997 52.0
86.801117 26.0
86.812431 38.0
86.823975 16.0
86.849243 16.0
86.871536 16.0
86.893608 22.0
86.910904 24.0
86.955521 26.0
87.009018 20.0
87.060997 3634.0
87.076805 18.0
87.090546 92.0
87.135048 24.0
87.172081 16.0
87.19442 16.0
87.234634 16.0
87.408104 46.0
87.428284 32.0
87.453598 20.0
87.497696 28.0
87.594009 16.0
87.618675 20.0
87.65522 16.0
87.675323 28.0
87.738861 16.0
87.816422 50.0
87.873367 18.0
88.063065 272.0
88.09803 102.0
88.225075 16.0
88.448524 36.0
88.735153 92.0
88.853691 22.0
88.971252 16.0
89.234055 18.0
89.586075 98.0
89.791557 34.0
90.035149 16.0
90.292603 22.0
90.457726 22.0
90.577744 18.0
91.312378 16.0
92.048141 300.0
92.063599 54.0
92.563187 42.0
93.051102 94.0
93.09922 40.0
94.023811 30.0
94.455795 28.0
95.057037 202.0
96.043129 372.0
96.06443 30.0
97.0495 64.0
97.073898 962.0
97.308868 16.0
97.379677 16.0
97.666336 16.0
98.058044 702.0
98.080925 70.0
98.125237 70.0
99.052841 268.0
99.089584 340.0
99.215714 40.0
99.354912 92.0
99.592384 16.0
99.818527 16.0
99.926155 20.0
100.037178 1676.0
100.057106 44.0
100.076553 134.0
100.09758 16.0
100.123108 26.0
100.17099 16.0
100.228462 16.0
100.357841 18.0
101.022011 16.0
101.047241 84.0
101.06945 502.0
101.12944 20.0
101.328239 28.0
101.779228 32.0
101.847649 18.0
101.926537 16.0
102.052536 78.0
102.076492 58.0
102.166595 16.0
102.463676 80.0
102.476349 16.0
102.605553 16.0
103.084061 300.0
103.761444 18.0
104.763741 48.0
105.756157 22.0
105.920364 18.0
107.058357 54.0
107.597115 16.0
108.065926 34.0
108.826508 16.0
108.923027 16.0
109.056236 16.0
109.074562 402.0
109.344292 82.0
109.64814 32.0
110.058479 194.0
110.079536 186.0
111.053688 226.0
111.088997 198.0
111.439056 20.0
112.0373 104.0
112.047066 96.0
112.073128 1512.0
112.385742 16.0
112.419563 16.0
112.598015 40.0
112.705605 56.0
112.797829 20.0
112.908981 34.0
112.974915 16.0
113.029305 26.0
113.068741 20058.0
113.093285 64.0
113.104843 88.0
113.141106 18.0
113.157127 20.0
113.214066 18.0
113.354958 16.0
113.434021 22.0
113.614769 26.0
113.781769 18.0
113.821564 18.0
113.888512 68.0
113.959106 32.0
114.020729 28.0
114.05291 10338.0
114.071045 1078.0
114.100388 228.0
114.13382 104.0
114.160477 18.0
114.294174 36.0
114.429787 20.0
114.456276 16.0
114.486992 16.0
114.615021 16.0
114.751656 16.0
114.845642 16.0
114.909264 38.0
114.93454 16.0
114.973595 32.0
114.988495 52.0
115.048088 6592.0
115.084549 1280.0
115.245186 20.0
115.385452 24.0
115.456718 48.0
116.052498 388.0
116.068245 2822.0
116.098885 68.0
116.259201 26.0
116.918739 24.0
117.071999 224.0
117.176384 84.0
117.407364 30.0
117.750626 16.0
118.058022 16.0
118.197678 72.0
118.242653 16.0
118.430901 16.0
119.803055 66.0
120.04216 90.0
120.080765 82.0
120.161568 16.0
121.227112 52.0
122.068222 76.0
123.050949 52.0
123.093834 50.0
123.630424 16.0
124.073074 62.0
124.08567 100.0
124.099098 66.0
124.676254 30.0
124.758186 20.0
125.033295 68.0
125.069038 1390.0
125.1035 76.0
125.260162 16.0
125.741058 74.0
126.052353 122.0
126.073921 138.0
126.098755 94.0
126.399803 18.0
126.615112 50.0
126.914001 20.0
126.950119 24.0
127.02198 46.0
127.047768 1638.0
127.084297 24564.0
127.156952 52.0
127.391685 44.0
127.553207 48.0
127.577873 20.0
127.593239 18.0
127.60585 16.0
127.664993 62.0
127.686699 42.0
127.725601 24.0
127.771492 36.0
127.796745 28.0
127.811493 46.0
127.832954 16.0
127.853043 22.0
127.872322 32.0
127.904327 32.0
127.938469 16.0
127.972748 68.0
127.988083 46.0
128.009247 56.0
128.023407 72.0
128.035324 52.0
128.068192 115506.0
128.146652 40.0
128.172195 20.0
128.189667 58.0
128.215134 34.0
128.231613 36.0
128.261841 32.0
128.288147 20.0
128.350952 30.0
128.383942 46.0
128.43129 22.0
128.444214 24.0
128.46048 26.0
128.495605 20.0
128.539627 46.0
128.555283 20.0
128.58638 30.0
128.6418 26.0
128.654755 36.0
128.697983 32.0
128.712646 20.0
128.766357 44.0
128.801758 38.0
128.819351 30.0
128.835953 20.0
128.874908 38.0
128.90535 26.0
128.960663 26.0
128.99025 44.0
129.070511 7528.0
129.097244 296.0
129.147644 60.0
129.178101 20.0
129.201736 88.0
129.232346 28.0
129.282211 34.0
129.360962 54.0
129.394806 28.0
129.423859 40.0
129.437393 34.0
129.474518 24.0
129.491898 16.0
129.527847 50.0
129.573578 18.0
129.595932 40.0
129.626755 62.0
129.714401 38.0
129.741623 18.0
129.888 38.0
129.957199 22.0
130.046295 322.0
130.074127 454.0
130.098282 158.0
130.148239 24.0
130.25119 48.0
130.332657 16.0
130.570282 64.0
130.642365 16.0
130.706787 24.0
130.724472 32.0
130.771744 24.0
130.805573 16.0
130.833374 34.0
130.885025 32.0
130.997177 20.0
131.038559 20.0
131.053116 88.0
131.078995 84908.0
131.130142 96.0
131.158783 66.0
131.234894 24.0
131.263824 16.0
131.329025 38.0
131.355331 26.0
131.404739 34.0
131.417358 34.0
131.460495 28.0
131.598434 18.0
131.621658 50.0
131.653793 24.0
131.676575 38.0
131.691971 38.0
131.741364 38.0
131.783295 20.0
131.845551 16.0
131.864594 20.0
131.884293 78.0
131.919617 46.0
131.943542 28.0
131.985107 20.0
132.000351 24.0
132.028259 46.0
132.078781 4240.0
132.125046 26.0
132.144028 44.0
132.182739 24.0
132.202621 64.0
132.245178 22.0
132.270767 16.0
132.285431 18.0
132.314789 20.0
132.361572 24.0
132.40007 20.0
132.47995 18.0
132.503967 28.0
132.530945 36.0
132.552017 24.0
132.583786 22.0
132.651718 30.0
132.710938 50.0
132.892273 26.0
133.000824 40.0
133.018051 36.0
133.081604 498.0
133.123566 30.0
133.200623 28.0
133.438934 24.0
133.61319 16.0
133.668869 32.0
133.829163 32.0
134.069702 38.0
134.213943 16.0
134.353287 42.0
134.570969 24.0
134.658096 34.0
134.818817 16.0
135.014267 42.0
135.051147 116.0
135.071991 52.0
135.088226 270.0
135.329498 16.0
135.348053 16.0
135.837891 86.0
136.034027 54.0
136.05545 78.0
136.082947 260.0
136.284836 16.0
136.634216 24.0
136.661209 16.0
137.032547 214.0
137.067322 454.0
137.09285 138.0
137.105743 106.0
137.133331 16.0
138.05368 538.0
138.07016 118.0
138.095993 68.0
138.300415 22.0
138.430984 68.0
139.05159 112.0
139.084045 184.0
139.114227 58.0
139.412979 18.0
139.55513 16.0
139.638046 16.0
139.909576 16.0
140.010544 32.0
140.052017 38.0
140.0728 72.0
140.568741 16.0
141.003998 22.0
141.024277 96.0
141.064896 122.0
141.098373 102.0
141.779648 16.0
141.967575 28.0
142.050629 106.0
142.05838 104.0
142.096588 446.0
142.654572 16.0
142.738144 46.0
143.042831 186.0
143.078903 3934.0
143.129303 16.0
143.265228 50.0
143.394653 82.0
143.439484 20.0
143.512741 80.0
143.789337 26.0
144.045868 26.0
144.074783 1266.0
144.110657 98.0
144.134979 64.0
144.684784 20.0
144.859604 44.0
144.911362 40.0
144.932373 26.0
144.960205 22.0
145.006165 78.0
145.019745 38.0
145.042404 54.0
145.094604 60080.0
145.142624 106.0
145.1651 50.0
145.204346 24.0
145.22821 18.0
145.263702 26.0
145.291641 18.0
145.351685 36.0
145.413223 22.0
145.429901 32.0
145.482986 32.0
145.597549 32.0
145.647308 18.0
145.705261 24.0
145.720673 16.0
145.768799 18.0
145.799622 16.0
145.820343 44.0
145.840607 26.0
145.865097 16.0
145.885361 28.0
145.92395 60.0
145.973175 54.0
145.993256 32.0
146.020599 64.0
146.037643 24.0
146.097565 4176.0
146.137207 90.0
146.197784 28.0
146.227066 36.0
146.299225 36.0
146.320374 24.0
146.404739 18.0
146.484085 24.0
146.530167 16.0
146.597992 16.0
146.693192 38.0
146.741898 18.0
146.767975 18.0
146.787186 42.0
146.860733 16.0
146.877274 20.0
147.018127 26.0
147.096725 180.0
147.130432 20.0
147.171219 20.0
147.222351 54.0
147.371445 16.0
147.812149 22.0
148.071991 82.0
148.107803 136.0
148.330536 20.0
148.479294 38.0
149.066483 52.0
149.084457 84.0
149.276047 38.0
150.065704 52.0
150.095154 44.0
150.26355 20.0
150.509064 16.0
150.550491 44.0
150.648026 16.0
151.084976 196.0
151.139465 50.0
151.226059 16.0
151.270187 20.0
151.420013 30.0
152.07872 1146.0
152.11644 248.0
153.063797 1984.0
153.102097 150.0
153.176987 38.0
153.491974 16.0
154.059052 406.0
154.092422 194.0
154.316254 24.0
155.011536 128.0
155.042038 56.0
155.078644 5196.0
155.107666 34.0
155.142365 20.0
155.378845 16.0
155.564743 20.0
155.578674 24.0
155.653671 62.0
155.869354 20.0
155.914108 16.0
156.030823 24.0
156.063522 566.0
156.083298 516.0
156.108749 198.0
156.238892 16.0
156.318634 16.0
156.549042 16.0
156.901443 18.0
157.057831 14354.0
157.093918 1286.0
157.123276 18.0
157.141281 16.0
157.164474 82.0
157.201553 30.0
157.409073 38.0
157.428314 16.0
157.652649 26.0
157.758957 30.0
158.063538 934.0
158.07811 1288.0
158.295929 18.0
158.563995 16.0
158.818207 18.0
158.840775 54.0
159.074753 472.0
159.098785 96.0
159.316589 38.0
159.527252 54.0
159.616104 16.0
159.980011 20.0
160.065842 56.0
160.082092 72.0
160.10585 200.0
160.483719 16.0
160.67775 16.0
160.702347 68.0
161.105972 154.0
161.473251 16.0
161.876236 70.0
162.06575 86.0
162.098969 292.0
162.887222 28.0
163.082794 394.0
164.078644 642.0
164.116943 332.0
164.271973 16.0
164.537827 16.0
165.061386 338.0
165.096512 94.0
165.119583 120.0
165.330505 16.0
165.590103 28.0
166.104782 74.0
167.015213 24.0
167.045013 48.0
167.078735 122.0
167.113556 122.0
167.813156 80.0
168.077301 118.0
168.108688 156.0
168.776062 26.0
169.058014 282.0
169.095581 568.0
169.118454 36.0
170.049667 18.0
170.087982 2526.0
170.123169 82.0
170.147934 38.0
170.190094 24.0
171.074066 4386.0
171.245178 34.0
171.500305 20.0
171.708221 38.0
171.739594 20.0
171.809341 42.0
171.848282 28.0
172.019882 38.0
172.06868 10766.0
172.104263 930.0
172.16095 20.0
172.233154 30.0
172.372284 154.0
172.633072 68.0
172.739014 16.0
172.854507 26.0
172.882172 36.0
172.904663 28.0
173.031647 26.0
173.088928 52926.0
173.169708 56.0
173.186813 48.0
173.205795 18.0
173.261368 24.0
173.311874 34.0
173.341568 24.0
173.38414 18.0
173.449753 36.0
173.472412 18.0
173.514282 24.0
173.588745 24.0
173.690079 42.0
173.705704 34.0
173.741165 56.0
173.772934 22.0
173.809631 22.0
173.826553 102.0
173.847534 54.0
173.870255 52.0
173.887634 26.0
173.948532 18.0
173.966476 20.0
173.996918 22.0
174.03508 22.0
174.091278 3394.0
174.120651 192.0
174.144226 24.0
174.162399 22.0
174.194275 28.0
174.214447 38.0
174.259369 44.0
174.285782 72.0
174.304947 62.0
174.381363 22.0
174.421097 16.0
174.490509 22.0
174.516953 16.0
174.558456 42.0
174.578064 18.0
174.601471 20.0
174.652924 20.0
174.795181 16.0
174.843445 28.0
175.002991 22.0
175.020874 16.0
175.095398 394.0
175.193939 18.0
175.429504 22.0
175.54454 48.0
175.753815 18.0
175.928406 20.0
176.080383 128.0
176.115646 56.0
176.639801 16.0
177.06456 44.0
177.095901 74.0
177.13942 34.0
177.438782 16.0
177.770355 16.0
178.0681 58.0
178.093643 310.0
178.11348 70.0
178.236374 16.0
178.660355 18.0
178.893738 28.0
179.074768 160.0
179.123856 306.0
179.270569 16.0
179.398773 48.0
179.789856 16.0
180.066681 60.0
180.108627 486.0
180.711426 26.0
181.0681 88.0
181.092026 266.0
181.12793 88.0
182.054794 48.0
182.087936 416.0
182.123596 134.0
182.813538 16.0
183.05838 48.0
183.084869 126.0
183.105911 92.0
183.204071 16.0
183.342255 18.0
183.486969 16.0
183.867249 64.0
184.079544 102.0
184.106369 702.0
184.142883 30.0
184.198441 16.0
184.691284 18.0
185.088486 2444.0
185.228073 16.0
185.29982 40.0
186.002594 20.0
186.084061 3856.0
186.118484 130.0
186.317154 16.0
186.424255 48.0
186.532745 16.0
186.551453 26.0
186.943619 26.0
187.00618 26.0
187.033707 32.0
187.103973 7470.0
187.162796 16.0
187.180252 18.0
187.230438 16.0
187.601624 24.0
187.786957 64.0
187.826447 84.0
187.91008 66.0
187.931549 36.0
187.958069 38.0
188.025665 36.0
188.099411 46612.0
188.152786 52.0
188.17691 58.0
188.202087 158.0
188.221512 18.0
188.252716 30.0
188.272873 18.0
188.336731 32.0
188.388336 40.0
188.446808 76.0
188.508911 106.0
188.545471 32.0
188.633804 38.0
188.734039 30.0
188.768997 20.0
188.796265 20.0
188.852921 40.0
188.885895 66.0
188.906052 24.0
188.923386 24.0
188.994553 24.0
189.031174 38.0
189.096466 9838.0
189.13504 78.0
189.163864 108.0
189.211777 24.0
189.242447 24.0
189.262238 18.0
189.306763 38.0
189.384033 20.0
189.4151 34.0
189.45993 46.0
189.496246 30.0
189.553619 24.0
189.573853 26.0
189.594513 30.0
189.713333 38.0
189.782562 24.0
189.804474 22.0
189.912384 22.0
189.942978 34.0
190.001297 16.0
190.115265 14126.0
190.15741 16.0
190.188202 20.0
190.221207 16.0
190.243561 24.0
190.3004 18.0
190.339996 16.0
190.379608 18.0
190.484192 28.0
190.527496 40.0
190.647659 40.0
190.666351 28.0
190.759415 18.0
190.961441 32.0
191.099503 2266.0
191.117203 976.0
191.214783 48.0
191.267502 18.0
191.309662 38.0
191.395233 68.0
191.522034 46.0
191.544266 24.0
191.575439 22.0
191.722153 20.0
191.751907 18.0
191.858963 36.0
191.920959 16.0
192.071686 198.0
192.108124 766.0
192.133301 280.0
192.170715 20.0
192.280243 18.0
192.824509 26.0
192.892242 32.0
193.058243 58.0
193.095062 728.0
193.330994 16.0
194.058731 56.0
194.090591 316.0
194.129868 86.0
194.987 38.0
195.073334 304.0
195.109451 194.0
196.022629 22.0
196.068802 414.0
196.107269 246.0
196.171036 16.0
196.201065 20.0
196.970322 30.0
196.989548 36.0
197.08783 304.0
197.111847 72.0
197.511398 16.0
197.83429 16.0
197.861221 16.0
198.083984 706.0
198.121872 328.0
198.152969 24.0
198.934692 40.0
198.985886 30.0
199.076035 234.0
199.122513 162.0
199.171143 104.0
199.236267 22.0
199.43428 106.0
199.632263 82.0
199.815582 16.0
199.893845 38.0
200.062683 304.0
200.099976 2014.0
200.286102 22.0
200.318649 16.0
200.427017 16.0
200.752289 18.0
201.084091 256.0
201.098007 372.0
201.132278 62.0
201.396362 86.0
201.849777 18.0
201.980026 20.0
202.1147 4688.0
202.224472 74.0
202.664078 52.0
202.769547 20.0
203.0923 124.0
203.119217 516.0
203.218552 30.0
203.279633 36.0
204.084808 58.0
204.114456 36.0
204.370544 24.0
204.452637 18.0
204.881668 74.0
205.011993 94.0
205.080154 78.0
205.116409 38.0
205.139526 48.0
206.091019 82.0
206.129227 146.0
206.190582 24.0
206.524429 112.0
206.578705 52.0
206.775101 20.0
207.09256 72.0
207.122177 284.0
207.634827 16.0
207.91098 46.0
208.064362 66.0
208.104492 1124.0
208.483978 52.0
208.782166 22.0
209.099823 460.0
209.131104 154.0
209.192734 26.0
210.030807 28.0
210.082718 1856.0
210.12059 378.0
210.165909 20.0
210.183258 18.0
210.416763 28.0
210.508255 16.0
211.100433 690.0
211.207367 40.0
211.416336 16.0
211.495178 16.0
211.615814 16.0
212.099777 4406.0
212.170685 18.0
212.584412 16.0
212.810028 16.0
212.912415 16.0
212.986816 34.0
213.086472 1400.0
213.784348 78.0
213.876968 16.0
213.915405 22.0
213.991562 68.0
214.022705 18.0
214.078369 28454.0
214.11554 554.0
214.138657 132.0
214.164993 66.0
214.198868 24.0
214.215515 26.0
214.305695 46.0
214.357834 32.0
214.418457 16.0
214.633041 48.0
214.669769 22.0
214.724503 16.0
214.75853 20.0
214.777908 34.0
214.800919 36.0
214.891403 34.0
214.916061 46.0
214.937225 44.0
214.977692 26.0
215.019073 16.0
215.098373 11578.0
215.141174 126.0
215.165268 18.0
215.199585 20.0
215.229904 16.0
215.27742 24.0
215.295135 16.0
215.339706 26.0
215.379272 24.0
215.401566 22.0
215.46228 26.0
215.482391 34.0
215.522186 16.0
215.597916 60.0
215.640488 34.0
215.685959 34.0
215.756317 34.0
215.814972 30.0
215.983948 30.0
216.099854 1174.0
216.141251 58.0
216.220856 38.0
216.294281 24.0
216.333084 30.0
216.403473 16.0
216.444092 36.0
216.478333 46.0
216.715637 16.0
216.970413 26.0
217.035507 28.0
217.087753 334.0
217.1064 120.0
217.125366 286.0
217.244232 16.0
217.3806 16.0
217.425278 18.0
217.668747 18.0
217.942978 16.0
217.970093 28.0
218.110016 716.0
218.731247 30.0
219.086838 190.0
219.119858 176.0
219.658096 16.0
220.04007 20.0
220.067612 72.0
220.102615 130.0
220.137726 44.0
220.547775 16.0
220.566727 16.0
220.751526 16.0
221.102875 74.0
221.19725 16.0
221.303452 22.0
221.442551 32.0
222.11795 494.0
223.02504 72.0
223.086609 60.0
223.12027 74.0
223.151154 136.0
223.480286 16.0
223.702072 16.0
224.09816 394.0
224.134262 514.0
224.2211 22.0
224.313171 16.0
224.346619 16.0
224.511475 16.0
224.695831 24.0
225.066574 38.0
225.10704 48.0
225.131226 706.0
225.276855 18.0
225.652985 80.0
225.695847 44.0
225.741501 20.0
225.941681 22.0
226.01236 20.0
226.069839 80.0
226.114914 7572.0
226.194931 26.0
226.239883 32.0
226.330109 20.0
226.532974 16.0
226.74646 24.0
226.83313 18.0
226.850067 22.0
227.034943 24.0
227.066544 74.0
227.110931 2334.0
227.171661 82.0
227.492981 22.0
228.069199 90.0
228.093582 1400.0
228.128128 554.0
228.19075 44.0
228.317459 26.0
228.360931 32.0
228.407928 26.0
228.62381 16.0
228.754501 34.0
228.870819 24.0
228.980545 40.0
229.007523 22.0
229.080139 108.0
229.115311 668.0
229.371628 34.0
229.480713 16.0
229.655685 26.0
229.815338 24.0
229.864563 46.0
229.906677 32.0
229.937576 18.0
229.982468 58.0
230.022232 16.0
230.067581 40.0
230.109528 43150.0
230.174484 30.0
230.196457 88.0
230.218079 22.0
230.263031 22.0
230.294235 40.0
230.334274 28.0
230.377945 26.0
230.446686 28.0
230.555984 18.0
230.580246 22.0
230.607819 52.0
230.627457 26.0
230.748474 16.0
230.782211 30.0
230.824799 32.0
230.908524 20.0
230.978409 56.0
231.041718 16.0
231.061447 32.0
231.108139 6172.0
231.163513 40.0
231.235229 52.0
231.273224 18.0
231.304825 24.0
231.361053 30.0
231.394485 28.0
231.453888 18.0
231.49704 62.0
231.566772 88.0
231.613419 44.0
231.63475 30.0
231.694305 16.0
231.714508 36.0
231.76828 18.0
231.848434 22.0
231.931198 54.0
232.024597 16.0
232.122955 2188.0
232.15889 28.0
232.186279 36.0
232.301804 32.0
232.368729 38.0
232.429199 18.0
232.472794 36.0
232.496902 48.0
232.534378 34.0
232.74913 20.0
232.880798 34.0
232.940887 48.0
233.036331 18.0
233.084671 84.0
233.127365 482.0
233.161743 20.0
233.226273 24.0
233.249557 20.0
233.313965 16.0
233.355499 24.0
233.404114 20.0
233.48941 16.0
233.557648 16.0
233.660034 16.0
233.703918 16.0
233.95015 26.0
234.078964 168.0
234.120255 238.0
234.273788 28.0
234.393021 22.0
234.432098 22.0
234.873734 34.0
235.059082 40.0
235.106323 340.0
235.241226 22.0
236.102768 84.0
236.120392 142.0
236.187698 16.0
236.295563 16.0
236.337921 44.0
237.091537 40.0
237.13176 100.0
237.837875 36.0
238.124603 186.0
239.071609 40.0
239.110779 654.0
239.146179 232.0
239.876221 18.0
240.002213 36.0
240.093994 344.0
240.131439 1270.0
240.474365 18.0
240.756027 34.0
240.815979 50.0
241.126358 582.0
241.15918 346.0
242.000641 24.0
242.109985 2454.0
242.142075 554.0
242.216095 66.0
242.621338 32.0
242.852081 16.0
243.110107 528.0
243.137405 424.0
243.414124 16.0
243.738953 20.0
243.993057 24.0
244.086868 54.0
244.124573 1900.0
244.197327 32.0
244.225433 32.0
244.290802 18.0
244.351883 16.0
244.502609 44.0
244.611496 62.0
244.73497 34.0
244.809586 18.0
244.893188 22.0
244.981796 18.0
245.048965 36.0
245.082794 36.0
245.119858 24452.0
245.177307 66.0
245.230499 132.0
245.253418 62.0
245.287491 22.0
245.472641 18.0
245.573792 18.0
245.593994 56.0
245.649139 44.0
245.730072 26.0
245.790817 40.0
245.961105 82.0
246.047699 26.0
246.076416 16.0
246.123398 2742.0
246.190079 24.0
246.287735 20.0
246.334824 56.0
246.389252 16.0
246.478195 20.0
246.495743 18.0
246.557022 16.0
246.579391 34.0
246.615814 26.0
246.645508 30.0
246.748489 20.0
246.777283 38.0
246.82254 16.0
246.860138 16.0
246.93541 64.0
246.970398 16.0
247.134964 3394.0
247.205978 64.0
247.248627 46.0
247.274963 18.0
247.34903 16.0
247.503387 36.0
247.588806 24.0
247.665176 18.0
247.813293 24.0
247.881088 16.0
248.061157 48.0
248.134415 358.0
248.381042 16.0
248.719284 26.0
248.971436 52.0
249.070816 40.0
249.097931 294.0
249.132095 170.0
249.454361 24.0
249.485519 26.0
250.113922 418.0
250.384552 18.0
250.602982 18.0
251.108017 444.0
251.150772 162.0
251.717651 16.0
251.843872 34.0
252.093674 406.0
252.130234 190.0
252.234131 20.0
252.728592 32.0
252.806915 18.0
252.961624 16.0
253.045349 16.0
253.114822 2776.0
253.169418 34.0
253.434998 22.0
253.489532 34.0
253.578415 16.0
253.697571 26.0
253.875656 16.0
254.02179 18.0
254.074463 94.0
254.112976 642.0
254.151367 114.0
254.23735 80.0
254.44635 22.0
254.615692 18.0
255.104141 972.0
255.144028 220.0
255.174988 40.0
255.193466 94.0
255.449921 18.0
255.612961 26.0
255.633499 30.0
256.136902 666.0
256.346832 32.0
257.117798 2128.0
257.187469 20.0
257.215759 34.0
257.717224 66.0
258.106812 766.0
258.165222 54.0
258.237213 24.0
258.446075 18.0
259.104034 138.0
259.136261 1996.0
259.400818 16.0
259.466339 18.0
259.610229 22.0
259.80835 28.0
260.091431 46.0
260.14093 296.0
260.271301 36.0
260.333435 34.0
260.805176 18.0
261.066772 22.0
261.128204 78.0
261.152191 232.0
261.943665 22.0
262.139618 64.0
262.177917 68.0
262.421844 26.0
263.100922 74.0
263.154633 40.0
263.256622 16.0
263.670837 16.0
264.105988 30.0
264.130524 72.0
265.124237 390.0
265.484558 56.0
266.116333 462.0
267.103851 5420.0
267.140717 1520.0
267.723785 16.0
268.017578 24.0
268.036987 52.0
268.124207 4600.0
268.209412 16.0
268.428864 28.0
268.504333 18.0
268.551697 24.0
268.677155 16.0
268.699371 16.0
268.853577 20.0
268.955872 28.0
268.985718 18.0
269.084442 58.0
269.120209 3942.0
269.151184 356.0
269.221588 28.0
269.650543 16.0
269.679352 16.0
269.777588 28.0
269.818176 16.0
269.846436 40.0
269.887543 22.0
269.973053 34.0
269.995178 24.0
270.019958 18.0
270.105743 854.0
270.138977 1732.0
270.195343 40.0
270.223755 16.0
270.357513 78.0
270.886139 46.0
270.936737 32.0
271.054932 18.0
271.107666 176.0
271.134125 588.0
271.384125 34.0
271.540619 22.0
272.057526 16.0
272.08313 38.0
272.119446 5700.0
272.193665 48.0
272.307281 24.0
272.673981 36.0
272.828857 18.0
272.976715 26.0
273.07785 20.0
273.116241 1942.0
273.263702 16.0
273.414215 28.0
273.565735 22.0
273.687714 64.0
273.895599 28.0
274.106659 64.0
274.14801 514.0
274.183228 18.0
274.226868 16.0
274.250336 40.0
274.559753 18.0
274.969208 46.0
275.029053 18.0
275.143799 110.0
275.591187 82.0
275.788666 18.0
276.106323 84.0
276.147369 86.0
276.839722 100.0
277.126038 46.0
277.887726 18.0
278.045959 16.0
278.109711 106.0
278.156219 116.0
278.737946 32.0
279.100586 134.0
279.139282 184.0
279.794586 22.0
280.136841 132.0
281.122742 392.0
281.157135 122.0
281.262512 18.0
282.102844 64.0
282.139221 558.0
282.166656 40.0
282.565399 20.0
283.009857 64.0
283.096832 244.0
283.13501 754.0
283.172852 122.0
283.253937 32.0
283.981415 34.0
284.023132 20.0
284.048492 28.0
284.129639 4848.0
284.217468 28.0
284.263672 72.0
284.330811 22.0
284.379242 16.0
284.403442 16.0
284.823395 56.0
284.89563 28.0
285.037323 24.0
285.067169 26.0
285.150909 14994.0
285.219788 54.0
285.248291 34.0
285.276764 30.0
285.314636 20.0
285.360443 24.0
285.408936 20.0
285.44574 34.0
285.493683 30.0
285.628571 16.0
285.690552 16.0
285.741791 16.0
285.82019 26.0
285.845581 16.0
285.876617 32.0
285.996643 36.0
286.027771 24.0
286.072113 38.0
286.135986 10146.0
286.231781 90.0
286.258484 114.0
286.300507 30.0
286.331726 40.0
286.374512 46.0
286.541534 54.0
286.615784 24.0
286.644897 30.0
286.694733 26.0
286.730011 24.0
286.792236 46.0
286.84552 16.0
286.903748 24.0
286.933411 36.0
286.981567 70.0
287.022766 26.0
287.080811 70.0
287.130219 52112.0
287.218536 126.0
287.291748 42.0
287.33606 44.0
287.390106 34.0
287.412811 36.0
287.441528 18.0
287.492737 34.0
287.553223 24.0
287.586639 34.0
287.623993 16.0
287.656464 16.0
287.710571 82.0
287.733643 18.0
287.755249 28.0
287.781128 34.0
287.868896 22.0
287.902679 18.0
287.97876 22.0
288.009644 34.0
288.036743 34.0
288.08017 22.0
288.133026 5812.0
288.200378 142.0
288.228699 30.0
288.250519 28.0
288.299591 26.0
288.319946 36.0
288.349213 20.0
288.375336 32.0
288.426636 18.0
288.490204 48.0
288.551514 16.0
288.582825 30.0
288.61084 24.0
288.629669 22.0
288.697479 16.0
288.729828 26.0
288.768005 24.0
288.864502 74.0
288.961487 20.0
289.086487 16.0
289.138031 1064.0
289.183807 48.0
289.227509 16.0
289.271515 58.0
289.374023 18.0
289.452148 32.0
289.471283 26.0
289.524597 16.0
289.553101 18.0
289.588501 24.0
289.629089 16.0
289.675232 16.0
289.778534 20.0
289.818756 30.0
289.842346 48.0
289.888214 28.0
289.937195 20.0
289.971436 22.0
290.025513 16.0
290.048553 22.0
290.138519 48.0
290.167267 40.0
290.192596 16.0
291.109283 60.0
291.140106 48.0
291.158539 44.0
291.229523 36.0
291.321228 18.0
291.511963 26.0
291.796448 16.0
292.041687 24.0
292.122772 524.0
292.254242 46.0
292.308838 16.0
293.070129 16.0
293.12619 120.0
293.154114 72.0
293.340393 28.0
293.434601 22.0
294.112061 234.0
294.137268 108.0
294.16272 34.0
294.247986 32.0
294.984741 40.0
295.133423 448.0
296.138519 170.0
296.212982 18.0
296.586426 16.0
296.895355 20.0
297.115082 578.0
297.150665 528.0
297.224152 18.0
297.33548 28.0
297.919861 50.0
297.995697 22.0
298.116028 148.0
298.14679 1288.0
298.217438 20.0
298.459869 16.0
298.598175 34.0
298.658752 24.0
299.054016 18.0
299.130829 1560.0
299.166229 6186.0
299.210114 96.0
299.243896 52.0
299.276337 62.0
299.300537 38.0
299.378113 20.0
299.420898 18.0
299.582672 28.0
299.676208 16.0
300.167053 944.0
300.331207 30.0
300.372375 16.0
300.489227 54.0
300.586426 22.0
300.781616 18.0
300.807983 18.0
300.949158 20.0
300.991486 34.0
301.024567 40.0
301.152039 204.0
301.270142 28.0
301.309814 38.0
301.524841 18.0
301.711639 32.0
301.81311 34.0
301.916779 16.0
301.973602 22.0
301.998016 26.0
302.033081 58.0
302.074768 16.0
302.140259 30064.0
302.217804 32.0
302.259033 50.0
302.334564 82.0
302.36142 32.0
302.611389 24.0
302.646179 26.0
302.696777 44.0
302.768036 30.0
302.856842 26.0
302.932159 36.0
303.009857 42.0
303.073822 42.0
303.160889 30060.0
303.225372 90.0
303.27243 64.0
303.304596 122.0
303.342651 58.0
303.379059 66.0
303.444366 46.0
303.509033 26.0
303.572754 38.0
303.674866 18.0
303.702789 20.0
303.730774 26.0
303.772552 36.0
303.817719 32.0
303.840332 20.0
303.863007 36.0
303.939514 34.0
304.013184 62.0
304.052002 62.0
304.079468 18.0
304.160522 6610.0
304.225189 118.0
304.304779 16.0
304.330139 18.0
304.356445 26.0
304.390137 34.0
304.473236 38.0
304.547302 38.0
304.594635 42.0
304.617859 18.0
304.703979 26.0
304.783295 36.0
304.834869 20.0
304.87738 28.0
304.896088 36.0
304.925537 16.0
304.963226 18.0
305.006165 22.0
305.039734 34.0
305.073151 16.0
305.163635 978.0
305.241577 42.0
305.272369 24.0
305.350311 18.0
305.410675 36.0
305.486847 22.0
305.561981 64.0
305.60318 52.0
305.766449 22.0
305.835297 22.0
305.96637 26.0
305.993225 36.0
306.065674 16.0
306.096924 84.0
306.138824 138.0
306.163544 86.0
306.192505 60.0
306.302399 40.0
306.36554 20.0
306.411774 16.0
306.439697 16.0
306.576691 38.0
307.020447 64.0
307.139923 228.0
307.229065 22.0
307.328278 30.0
307.381287 18.0
307.648407 18.0
308.131287 472.0
308.195618 52.0
308.384857 24.0
308.413971 16.0
308.6521 16.0
308.758606 18.0
309.113708 1590.0
309.1474 986.0
309.199646 34.0
309.45105 22.0
309.561066 26.0
309.94519 20.0
310.039185 18.0
310.132019 806.0
310.873718 20.0
311.036041 34.0
311.134949 550.0
312.12439 1142.0
312.286224 56.0
312.435333 34.0
312.948425 16.0
313.0625 24.0
313.145538 1002.0
313.215179 20.0
314.017181 18.0
314.132111 386.0
314.191956 56.0
314.790405 18.0
314.879822 36.0
314.926819 20.0
314.97467 16.0
315.124573 1198.0
315.160156 1818.0
315.235016 96.0
316.156921 7864.0
316.215912 62.0
316.265137 26.0
316.297943 22.0
316.346161 22.0
316.459167 50.0
316.749115 16.0
316.835419 36.0
317.0849 22.0
317.174469 5292.0
317.230347 186.0
317.262726 78.0
317.383698 66.0
317.405426 38.0
317.455231 42.0
317.53302 16.0
317.568726 20.0
317.700104 38.0
317.946289 32.0
318.047638 16.0
318.076782 34.0
318.109894 104.0
318.177277 964.0
318.252472 20.0
318.325287 18.0
318.581116 20.0
318.631012 22.0
318.898682 22.0
318.950745 40.0
319.070068 46.0
319.134155 54.0
319.16861 250.0
319.196381 152.0
319.286133 16.0
319.508484 18.0
319.685242 48.0
320.07605 16.0
320.13266 34.0
320.173431 76.0
320.558441 16.0
320.671204 22.0
320.985504 18.0
321.144623 88.0
322.171692 86.0
322.669312 16.0
323.164124 64.0
323.399628 34.0
323.563782 16.0
324.123901 72.0
324.161285 198.0
324.555695 22.0
324.859558 36.0
324.95697 24.0
325.088562 110.0
325.146149 1104.0
325.419708 56.0
325.460052 16.0
325.592407 20.0
325.839966 50.0
325.940887 22.0
326.006195 34.0
326.13974 10586.0
326.31427 80.0
326.341553 26.0
326.437225 34.0
326.506561 22.0
326.561646 28.0
326.59436 48.0
326.846924 16.0
326.929108 68.0
327.060425 18.0
327.159332 5440.0
327.229156 124.0
327.281036 22.0
327.32666 26.0
327.350494 32.0
327.533295 26.0
327.728424 16.0
327.910339 16.0
327.960968 18.0
328.001556 28.0
328.031647 16.0
328.054321 72.0
328.145874 3644.0
328.214417 116.0
328.245117 18.0
328.270203 24.0
328.339294 22.0
328.359528 26.0
328.386658 40.0
328.619598 22.0
328.651489 24.0
328.729858 28.0
328.792419 50.0
328.855438 20.0
328.939301 24.0
329.039124 16.0
329.070953 26.0
329.141022 5824.0
329.242432 68.0
329.273376 24.0
329.309662 18.0
329.428223 58.0
329.560425 26.0
329.835114 18.0
329.914856 28.0
329.972656 24.0
330.004669 16.0
330.141998 1208.0
330.285217 42.0
330.369843 18.0
330.394318 54.0
330.456818 18.0
330.497681 48.0
330.706726 34.0
330.772736 18.0
330.840851 60.0
330.886047 18.0
331.148804 476.0
331.261749 18.0
331.301025 20.0
331.431396 18.0
331.49411 34.0
331.570892 38.0
331.630615 18.0
331.654999 32.0
331.69809 28.0
331.722626 64.0
331.813324 62.0
332.07077 18.0
332.145569 132.0
332.188202 100.0
332.221924 16.0
332.276306 42.0
332.716736 30.0
333.158813 22.0
333.284363 68.0
333.345001 16.0
333.406158 16.0
334.14682 42.0
334.252563 28.0
334.297882 16.0
334.630981 84.0
334.665283 52.0
335.135254 50.0
335.173645 42.0
335.397614 66.0
335.988434 16.0
336.122986 102.0
336.16275 100.0
336.84848 16.0
337.146179 138.0
338.141754 98.0
338.221008 44.0
339.132324 40.0
339.166412 364.0
339.876129 16.0
339.934937 38.0
340.156006 318.0
340.201965 36.0
340.710358 28.0
341.136047 376.0
341.175232 302.0
341.226715 36.0
341.338257 70.0
341.361389 22.0
341.622467 62.0
342.066071 24.0
342.171417 1204.0
342.284851 40.0
342.346283 24.0
342.489532 18.0
342.524628 18.0
342.958679 22.0
343.040924 74.0
343.165405 2270.0
343.214508 116.0
343.298798 76.0
343.41214 24.0
343.568878 16.0
343.614716 20.0
343.639648 30.0
343.688049 34.0
343.735931 18.0
343.772949 22.0
343.875458 28.0
343.898865 44.0
343.929565 18.0
343.95343 110.0
343.988312 70.0
344.02417 70.0
344.056824 16.0
344.086334 20.0
344.150482 82362.0
344.25882 108.0
344.305939 122.0
344.333893 96.0
344.399872 34.0
344.447571 38.0
344.479218 48.0
344.515656 34.0
344.568298 30.0
344.62146 38.0
344.723969 46.0
344.749725 76.0
344.812683 32.0
344.851624 26.0
344.888458 26.0
344.919647 60.0
344.982117 48.0
345.019745 56.0
345.058197 80.0
345.078339 30.0
345.169922 46332.0
345.284668 88.0
345.320465 86.0
345.348419 120.0
345.398132 70.0
345.430481 76.0
345.467865 70.0
345.502045 16.0
345.54895 60.0
345.615479 44.0
345.650543 32.0
345.704559 42.0
345.748138 16.0
345.776306 18.0
345.814117 24.0
345.834747 46.0
345.879578 52.0
345.898407 52.0
345.940247 46.0
345.972076 16.0
345.994965 26.0
346.015991 32.0
346.053741 54.0
346.08783 74.0
346.112 78.0
346.172668 8460.0
346.233398 132.0
346.258057 96.0
346.304413 32.0
346.354858 64.0
346.385376 44.0
346.413239 18.0
346.421783 26.0
346.488007 40.0
346.588776 30.0
346.626343 54.0
346.660675 48.0
346.696686 48.0
346.718658 46.0
346.740845 16.0
346.808319 52.0
346.849213 66.0
346.874359 26.0
346.922028 24.0
346.948975 34.0
347.066467 40.0
347.096863 28.0
347.175171 1012.0
347.235687 54.0
347.267365 40.0
347.298859 34.0
347.34433 94.0
347.370514 28.0
347.397736 36.0
347.436523 40.0
347.486877 32.0
347.580292 50.0
347.631042 24.0
347.711182 20.0
347.783722 58.0
347.805054 18.0
347.847931 18.0
347.912598 28.0
347.958252 20.0
348.056458 54.0
348.13562 54.0
348.169769 160.0
348.279266 36.0
348.33606 34.0
348.502563 28.0
348.575684 18.0
348.647156 18.0
349.101776 36.0
349.143799 432.0
349.233704 62.0
349.260895 18.0
349.346802 36.0
349.494843 18.0
349.542511 26.0
349.943512 54.0
350.137238 112.0
350.167542 108.0
350.225952 24.0
351.128265 252.0
351.168732 36.0
351.216095 26.0
351.597015 24.0
351.706329 18.0
351.897766 16.0
352.00885 26.0
352.149261 298.0
352.173859 44.0
352.52478 24.0
352.954254 30.0
353.04599 18.0
353.150238 176.0
353.19928 54.0
353.264038 54.0
353.323334 16.0
353.629211 16.0
353.663696 24.0
354.134125 1780.0
354.201721 36.0
354.234711 38.0
354.498199 26.0
354.978638 20.0
355.004181 32.0
355.157349 522.0
355.295502 26.0
355.983246 22.0
356.161316 70.0
356.192719 156.0
356.311096 16.0
356.913391 24.0
357.170471 1938.0
357.278259 28.0
357.801941 32.0
357.929718 26.0
358.10022 30.0
358.164948 1108.0
358.213043 28.0
358.330963 20.0
358.441223 16.0
358.626953 18.0
359.029907 36.0
359.18338 558.0
359.8815 16.0
360.181396 2904.0
360.467194 16.0
360.651459 26.0
360.724396 30.0
360.842773 16.0
360.895233 40.0
360.979645 24.0
361.100586 42.0
361.177307 13970.0
361.261841 50.0
361.309509 20.0
361.345886 18.0
361.386169 78.0
361.465637 18.0
361.487457 50.0
361.525146 28.0
361.594543 26.0
361.723358 20.0
361.946564 26.0
362.183746 2388.0
362.371368 16.0
362.457977 20.0
362.615875 20.0
362.701996 16.0
362.749512 20.0
362.784393 18.0
362.815155 34.0
362.884949 56.0
362.925354 22.0
362.984894 16.0
363.180786 684.0
363.635681 70.0
363.738892 18.0
363.959625 20.0
364.156738 418.0
364.280518 18.0
364.338348 16.0
364.992584 20.0
365.183136 140.0
365.423065 24.0
365.51593 24.0
366.118988 40.0
366.169312 464.0
366.198242 216.0
366.226044 66.0
366.533569 16.0
367.0383 52.0
367.15799 550.0
367.263702 16.0
367.424133 26.0
367.866089 18.0
368.149597 1346.0
368.423035 16.0
368.876251 18.0
369.020233 16.0
369.057343 62.0
369.158417 276.0
369.2258 62.0
369.611786 22.0
369.689972 18.0
369.923157 20.0
370.093201 24.0
370.160797 234.0
370.209625 38.0
370.473206 40.0
370.639648 70.0
371.013031 38.0
371.109619 18.0
371.16391 682.0
371.555267 16.0
371.615143 20.0
371.684723 22.0
371.750854 82.0
371.866425 36.0
372.144745 1020.0
372.180023 782.0
372.267395 20.0
372.487976 26.0
372.522858 18.0
372.745972 16.0
372.841461 16.0
372.929291 20.0
373.166351 746.0
373.238495 62.0
374.012634 16.0
374.163788 150.0
374.197418 606.0
374.237091 54.0
374.277252 96.0
374.362976 28.0
374.401489 28.0
374.663025 34.0
375.174286 72.0
375.200165 246.0
375.228821 66.0
376.150208 38.0
376.192871 72.0
376.385254 16.0
376.61734 16.0
377.197449 60.0
377.650513 34.0
378.178162 122.0
378.849304 28.0
379.169098 366.0
380.183563 142.0
380.232269 52.0
380.682831 30.0
381.146606 46.0
381.183105 388.0
382.165894 784.0
382.206635 120.0
382.39328 38.0
383.036011 16.0
383.166626 124.0
383.199799 120.0
383.232635 70.0
383.327576 28.0
384.180542 1964.0
384.348145 16.0
384.586609 40.0
384.679657 26.0
385.068176 52.0
385.17157 1560.0
385.349792 24.0
385.483795 34.0
385.5961 30.0
385.743958 18.0
385.846558 16.0
385.969543 18.0
386.090424 22.0
386.160706 6838.0
386.257721 52.0
386.290955 96.0
386.453796 32.0
386.492981 20.0
386.525909 38.0
386.599304 46.0
387.004547 58.0
387.052063 30.0
387.115112 58.0
387.177307 1796.0
387.241119 120.0
387.28186 30.0
387.446777 20.0
387.619446 16.0
387.668304 30.0
387.73877 20.0
387.781189 34.0
388.004303 18.0
388.06546 16.0
388.17981 524.0
388.258728 20.0
388.389465 48.0
388.477966 36.0
388.510345 20.0
388.54541 40.0
388.577759 16.0
388.631226 20.0
388.940979 20.0
388.977142 18.0
389.177612 128.0
389.208282 198.0
389.29187 40.0
389.642822 18.0
389.78125 32.0
390.145294 44.0
390.184875 100.0
390.216034 68.0
390.473999 24.0
391.147827 62.0
391.330444 18.0
391.374603 18.0
391.430145 24.0
392.151611 92.0
392.183624 56.0
393.183167 394.0
393.279694 22.0
393.347382 24.0
393.773102 18.0
394.185883 92.0
394.227966 90.0
394.631805 36.0
395.163849 62.0
395.188995 74.0
395.222839 58.0
396.143646 190.0
396.181549 480.0
397.174988 904.0
397.204956 284.0
397.465088 30.0
397.544708 42.0
398.197021 302.0
398.420135 16.0
398.560211 18.0
398.827728 16.0
398.985168 22.0
399.119049 20.0
399.191833 1326.0
399.345673 50.0
399.682556 28.0
399.761505 24.0
399.968811 16.0
400.051758 16.0
400.11557 16.0
400.192963 422.0
400.254059 32.0
400.365784 22.0
400.549561 16.0
400.79538 18.0
401.107666 42.0
401.161926 58.0
401.201019 244.0
401.385376 52.0
401.586212 20.0
401.700378 40.0
401.736267 42.0
401.828827 24.0
401.920624 26.0
401.952087 20.0
402.04837 18.0
402.091095 18.0
402.191254 22736.0
402.307617 34.0
402.33786 58.0
402.381165 28.0
402.414307 66.0
402.438385 52.0
402.509277 32.0
402.53595 18.0
402.694946 46.0
402.793488 24.0
402.828705 16.0
402.852417 26.0
402.926575 22.0
402.969421 26.0
403.064178 20.0
403.191376 6754.0
403.31604 118.0
403.369537 20.0
403.456573 44.0
403.517212 16.0
403.545776 26.0
403.593781 42.0
403.627045 44.0
403.714294 16.0
403.783173 22.0
403.809235 34.0
403.860107 20.0
403.891113 54.0
403.927429 26.0
403.969086 16.0
404.081299 16.0
404.120636 60.0
404.192963 1506.0
404.280121 84.0
404.374695 32.0
404.531921 34.0
404.567688 24.0
404.679535 20.0
404.708435 30.0
404.793518 20.0
404.867157 18.0
404.931335 16.0
405.01059 38.0
405.079529 36.0
405.197876 422.0
405.250641 18.0
405.557434 16.0
405.666626 34.0
405.70871 18.0
406.013641 16.0
406.08493 48.0
406.164948 858.0
406.264008 66.0
406.34964 18.0
406.380096 16.0
406.475098 50.0
406.70874 20.0
407.179138 258.0
407.222778 68.0
407.354858 16.0
407.422455 16.0
407.510803 26.0
408.18512 76.0
408.225983 112.0
408.773895 20.0
408.846619 16.0
408.872437 16.0
409.165466 118.0
409.199615 64.0
409.717468 54.0
410.17392 54.0
410.202942 158.0
411.190674 584.0
411.236542 18.0
412.186371 350.0
412.210785 308.0
413.206299 680.0
413.254425 66.0
413.305878 18.0
413.626923 16.0
414.191986 2032.0
414.266174 16.0
414.293762 18.0
414.317474 72.0
414.344421 42.0
414.402222 34.0
414.814972 18.0
415.191925 550.0
415.224243 136.0
415.327759 70.0
415.421387 26.0
415.528076 26.0
415.749268 28.0
415.830292 22.0
415.949921 60.0
415.994965 46.0
416.043762 28.0
416.208252 152.0
416.308929 20.0
416.362427 54.0
416.447266 16.0
416.67984 24.0
416.721283 36.0
417.127533 36.0
417.202484 3270.0
417.2836 44.0
418.204437 556.0
418.261749 36.0
418.417145 20.0
418.542328 34.0
418.82193 24.0
418.865356 26.0
419.055115 20.0
419.213562 1080.0
419.300018 38.0
419.406006 22.0
420.20282 272.0
421.172882 688.0
421.304382 16.0
421.352783 40.0
421.514557 44.0
421.7612 16.0
421.887604 38.0
422.084045 22.0
422.154785 130.0
422.189392 478.0
422.399963 20.0
422.81424 30.0
422.897461 30.0
422.990295 20.0
423.193787 580.0
423.251984 66.0
423.880798 40.0
423.973358 18.0
424.104736 20.0
424.178284 598.0
424.238861 50.0
424.281219 40.0
424.605133 32.0
424.768463 20.0
425.206818 376.0
425.29834 52.0
425.561035 16.0
425.757965 46.0
425.998718 16.0
426.060028 32.0
426.090912 16.0
426.19397 236.0
426.2276 30.0
426.2901 16.0
427.07254 16.0
427.125183 34.0
427.185516 284.0
427.227997 84.0
428.060669 26.0
428.175751 228.0
428.213776 290.0
428.244141 158.0
428.270569 60.0
429.124817 46.0
429.202515 770.0
429.264404 40.0
429.319641 48.0
429.470398 30.0
429.586609 28.0
429.766327 16.0
430.11026 28.0
430.18631 602.0
430.249146 108.0
430.614899 24.0
430.831635 18.0
430.980408 58.0
431.218018 1782.0
431.270813 96.0
431.325043 20.0
431.475769 24.0
431.740936 22.0
432.213043 530.0
432.286285 68.0
432.329285 16.0
432.380524 22.0
432.576263 18.0
432.685852 20.0
433.218933 326.0
433.311279 50.0
433.708435 20.0
434.212494 116.0
434.264587 102.0
434.341248 16.0
434.509125 20.0
434.647095 24.0
435.206879 184.0
436.189606 116.0
436.233917 58.0
436.577789 16.0
437.167694 52.0
437.191711 82.0
437.223236 186.0
437.274109 32.0
438.086884 32.0
438.203247 938.0
438.325256 24.0
438.345276 28.0
439.18576 2750.0
439.299561 20.0
439.336426 26.0
439.468994 28.0
439.582184 16.0
440.103973 16.0
440.193634 802.0
440.278046 84.0
440.358307 20.0
440.431946 22.0
440.572998 46.0
440.995972 24.0
441.201935 2280.0
441.342834 18.0
441.385834 40.0
441.496979 16.0
441.56601 42.0
441.748352 16.0
442.210449 684.0
442.30658 22.0
442.407501 20.0
442.661011 38.0
442.712616 18.0
442.753235 24.0
443.217377 324.0
443.293335 70.0
443.357178 18.0
443.483124 16.0
443.551788 20.0
443.686584 34.0
443.732178 60.0
443.933502 62.0
444.202576 1286.0
444.274719 34.0
444.860657 48.0
444.916779 16.0
444.985748 16.0
445.202637 590.0
445.296173 44.0
445.572418 32.0
445.643616 18.0
445.926666 22.0
445.98233 44.0
446.051392 20.0
446.226593 526.0
446.339264 16.0
446.787384 28.0
446.900848 28.0
447.235199 172.0
447.269989 46.0
447.637482 16.0
448.184662 60.0
448.215881 36.0
449.16745 84.0
451.182922 46.0
451.217896 62.0
451.25708 26.0
452.166168 56.0
452.216888 124.0
452.264221 56.0
452.986725 24.0
453.14801 70.0
453.200897 1614.0
453.30069 18.0
453.3703 20.0
453.426331 16.0
453.813293 40.0
454.216675 786.0
454.282806 128.0
454.312683 78.0
454.44577 18.0
454.682434 24.0
455.217773 280.0
455.378052 36.0
455.551422 16.0
455.866577 26.0
455.954651 24.0
456.212341 4020.0
456.298035 62.0
456.355164 16.0
456.378998 18.0
456.409851 22.0
456.511078 38.0
456.876465 32.0
457.090881 66.0
457.216614 1150.0
457.297974 24.0
457.527954 18.0
457.783875 16.0
457.917328 18.0
458.09259 24.0
458.159729 68.0
458.224182 976.0
458.283081 78.0
458.406982 28.0
458.766144 20.0
458.879913 18.0
458.926208 22.0
458.950012 30.0
459.100677 46.0
459.211731 8958.0
459.310364 68.0
459.322754 92.0
459.5224 90.0
459.62674 36.0
459.724609 16.0
459.758942 26.0
459.854156 18.0
459.984344 36.0
460.042877 30.0
460.131226 18.0
460.213715 2208.0
460.315857 36.0
460.363892 16.0
460.396393 28.0
460.437622 22.0
460.557251 34.0
460.685608 30.0
460.736755 18.0
460.758301 28.0
460.80545 16.0
461.084656 28.0
461.135956 26.0
461.218933 540.0
461.421783 30.0
461.548798 34.0
461.578064 24.0
461.894806 16.0
462.129211 30.0
462.22464 212.0
462.359955 42.0
462.489441 22.0
462.639221 40.0
462.767822 24.0
463.083282 18.0
463.206146 66.0
463.418243 30.0
464.172302 78.0
464.204224 500.0
464.327515 76.0
465.088104 18.0
465.202332 272.0
465.395996 18.0
466.192474 356.0
466.395782 26.0
467.024689 28.0
467.19696 56.0
467.247681 54.0
468.0867 32.0
468.17865 76.0
468.213654 134.0
469.197784 498.0
469.47699 16.0
469.815308 36.0
469.945648 22.0
469.993683 18.0
470.130371 16.0
470.164948 16.0
470.2276 4264.0
470.283875 122.0
470.503906 16.0
470.538513 16.0
470.685364 28.0
470.790955 24.0
470.912231 16.0
471.211914 1762.0
471.329529 26.0
471.448853 18.0
471.60907 34.0
471.912842 24.0
471.972443 30.0
472.093201 16.0
472.226532 560.0
472.265015 124.0
472.339264 16.0
472.729309 18.0
473.05011 16.0
473.105621 22.0
473.237457 262.0
473.53241 16.0
473.579193 28.0
473.71109 20.0
473.895081 18.0
473.991486 40.0
474.016022 36.0
474.044128 32.0
474.087738 24.0
474.133026 16.0
474.22226 18604.0
474.303802 228.0
474.343414 52.0
474.375336 48.0
474.461182 18.0
474.5271 20.0
474.594208 74.0
474.652527 22.0
474.685364 16.0
474.793091 18.0
474.942535 20.0
475.109619 38.0
475.180908 38.0
475.226959 3674.0
475.336426 84.0
475.380096 40.0
475.510773 32.0
475.547546 16.0
475.618622 26.0
475.674744 24.0
475.730347 28.0
475.821075 42.0
475.883057 36.0
475.91687 44.0
475.98587 22.0
476.08493 18.0
476.112885 24.0
476.227356 832.0
476.363647 24.0
476.432068 20.0
476.469208 30.0
476.501007 18.0
476.537537 20.0
476.60437 48.0
476.680298 16.0
476.704926 24.0
476.741821 24.0
476.775879 20.0
476.838318 40.0
476.939758 18.0
477.026855 16.0
477.108704 16.0
477.183441 66.0
477.238342 166.0
477.308472 48.0
477.523193 22.0
477.58725 18.0
477.647095 18.0
477.678833 38.0
477.711761 22.0
477.868469 16.0
478.103851 18.0
478.23822 30.0
478.285553 36.0
478.597595 24.0
478.989685 32.0
479.188538 52.0
479.226501 92.0
479.275696 58.0
479.306366 28.0
480.098816 28.0
480.207581 476.0
480.244751 114.0
480.911804 16.0
481.196625 2114.0
481.311646 54.0
482.068359 20.0
482.201111 636.0
482.531891 36.0
483.209991 272.0
483.256927 202.0
483.517517 16.0
484.036713 18.0
484.169037 92.0
484.209595 574.0
484.301483 20.0
484.578888 18.0
484.640442 16.0
485.17392 46.0
485.21106 224.0
485.279053 66.0
485.327362 32.0
485.551727 22.0
485.920837 32.0
486.014252 16.0
486.038879 16.0
486.223236 148.0
486.257538 56.0
487.208038 590.0
487.242828 480.0
487.502991 36.0
487.583282 42.0
487.655426 68.0
487.833771 20.0
487.898956 24.0
488.038116 18.0
488.078766 28.0
488.169586 66.0
488.237701 5704.0
488.492188 26.0
488.942169 18.0
489.241974 1394.0
489.465607 44.0
489.617889 16.0
489.746887 32.0
489.870239 16.0
490.021851 30.0
490.250549 234.0
490.321991 20.0
490.375153 20.0
490.519989 24.0
490.606537 62.0
490.696808 24.0
490.975861 18.0
491.009277 58.0
491.206512 46.0
491.24292 192.0
491.79776 16.0
491.890442 62.0
492.249573 122.0
492.329956 24.0
492.35675 16.0
492.47525 22.0
492.661163 18.0
493.034485 36.0
493.221954 68.0
493.922577 46.0
494.078186 18.0
494.229767 102.0
494.263153 40.0
495.23996 76.0
495.674805 16.0
496.246002 122.0
497.229523 432.0
497.998199 22.0
498.140472 28.0
498.22287 6246.0
498.352692 112.0
498.437103 64.0
498.665588 16.0
499.090851 26.0
499.125122 16.0
499.22522 2062.0
499.556366 20.0
499.595581 18.0
499.842407 32.0
499.903931 24.0
500.080536 18.0
500.226593 612.0
500.334991 18.0
500.571442 28.0
500.899414 20.0
501.090393 16.0
501.227112 390.0
501.536774 20.0
501.961914 16.0
502.004791 18.0
502.221924 400.0
502.390808 18.0
502.719727 18.0
502.905701 16.0
502.996735 22.0
503.234772 174.0
503.318817 20.0
504.244354 66.0
505.228546 104.0
505.270874 40.0
505.885895 16.0
506.272675 36.0
506.510773 22.0
507.23584 54.0
507.264893 52.0
508.099884 28.0
508.202271 44.0
508.24823 84.0
508.283386 26.0
509.19754 132.0
509.245087 40.0
509.709961 16.0
509.760376 18.0
510.236938 62.0
510.275757 100.0
510.837616 18.0
511.194824 44.0
511.246796 208.0
511.308319 34.0
512.242615 274.0
513.019043 22.0
513.22113 172.0
513.254395 178.0
513.414673 16.0
513.571838 28.0
513.691162 16.0
513.964111 16.0
514.240845 178.0
514.291321 72.0
514.539307 30.0
514.893799 16.0
514.953308 20.0
515.005493 34.0
515.05304 16.0
515.190002 58.0
515.249512 1556.0
515.380249 54.0
515.487488 16.0
515.534973 40.0
515.628723 16.0
515.798645 40.0
515.907104 42.0
515.933594 22.0
515.967468 34.0
515.995361 48.0
516.056335 64.0
516.084595 94.0
516.115356 84.0
516.232361 50254.0
516.350403 170.0
516.405579 164.0
516.469849 60.0
516.572815 46.0
516.607056 18.0
516.648804 20.0
516.67865 76.0
516.77063 32.0
516.819214 18.0
516.848755 34.0
516.883118 28.0
516.95166 26.0
516.980591 52.0
517.022278 20.0
517.087585 22.0
517.141846 76.0
517.238464 12758.0
517.354797 100.0
517.381348 114.0
517.445862 48.0
517.519287 56.0
517.61731 22.0
517.653992 72.0
517.696045 66.0
517.788391 70.0
517.840759 52.0
517.926758 58.0
517.972961 54.0
518.02179 20.0
518.061523 26.0
518.102356 56.0
518.24054 2728.0
518.36499 20.0
518.430786 36.0
518.462891 34.0
518.547607 24.0
518.626038 30.0
518.66394 28.0
518.756775 44.0
518.810242 48.0
518.853882 26.0
518.913147 20.0
518.966003 16.0
519.020508 16.0
519.072571 30.0
519.115601 36.0
519.161743 42.0
519.247986 414.0
519.345642 24.0
519.406494 48.0
519.556824 44.0
519.653687 62.0
519.711609 36.0
519.758423 20.0
519.856384 34.0
519.941956 18.0
520.038391 26.0
520.085388 26.0
520.109375 32.0
520.199829 46.0
520.263367 128.0
520.34375 48.0
520.39856 24.0
520.460144 30.0
520.504211 40.0
520.628601 36.0
520.692749 28.0
520.812866 28.0
520.856689 50.0
521.044556 18.0
521.236084 206.0
521.315796 16.0
521.394104 52.0
521.716736 32.0
521.924133 16.0
522.131104 50.0
522.22345 194.0
522.279053 82.0
522.44342 24.0
522.55835 18.0
522.697632 34.0
522.904724 28.0
523.134521 16.0
523.212219 50.0
523.263306 70.0
523.558167 18.0
524.127869 50.0
524.227539 184.0
524.280457 48.0
524.326477 36.0
524.614746 26.0
525.179382 20.0
525.227661 70.0
525.270203 98.0
525.321899 24.0
525.618042 16.0
526.217102 1322.0
526.31958 68.0
526.376343 48.0
526.880493 22.0
527.043152 20.0
527.151245 16.0
527.223145 634.0
527.314392 28.0
527.367371 18.0
527.462402 70.0
528.232361 82.0
528.420898 16.0
528.829346 30.0
528.895447 22.0
529.025757 24.0
529.07959 34.0
529.256409 478.0
529.325012 62.0
529.487915 56.0
530.250427 640.0
531.150574 24.0
531.250061 272.0
531.359802 16.0
532.263367 578.0
532.401123 24.0
532.733643 26.0
533.189758 48.0
533.259277 8432.0
533.370178 60.0
533.512756 16.0
533.775879 24.0
533.96106 38.0
534.002441 30.0
534.168884 42.0
534.261841 2280.0
534.437805 18.0
534.461792 16.0
534.546509 34.0
534.754944 16.0
534.832397 18.0
534.895081 16.0
534.930359 20.0
535.216064 16.0
535.262695 590.0
535.369812 24.0
535.518677 16.0
535.731262 24.0
535.998596 24.0
536.238281 590.0
536.428589 24.0
536.9422 20.0
537.125366 24.0
537.237244 182.0
537.356506 30.0
537.481934 30.0
537.842712 24.0
537.92041 18.0
538.01709 26.0
538.187073 28.0
538.254272 176.0
538.283691 60.0
538.519165 32.0
539.23938 710.0
539.41394 20.0
540.16864 50.0
540.231628 730.0
540.335449 80.0
540.416443 18.0
540.627808 16.0
540.794739 26.0
541.044067 36.0
541.240662 216.0
541.534729 22.0
542.246155 98.0
542.293701 66.0
542.323303 94.0
542.513367 20.0
542.54303 20.0
542.569092 22.0
542.663696 18.0
542.765991 16.0
543.094666 20.0
543.245117 432.0
543.296631 28.0
543.953491 26.0
544.128662 20.0
544.230042 412.0
544.693237 40.0
544.796631 16.0
544.87854 16.0
545.24469 100.0
545.278137 128.0
545.45752 18.0
545.774597 22.0
546.268555 148.0
546.327148 40.0
546.368225 42.0
546.499084 22.0
547.213501 24.0
547.283264 68.0
548.232483 50.0
548.260498 16.0
548.292603 78.0
549.261902 48.0
550.253845 376.0
550.300598 66.0
551.249512 286.0
551.360779 16.0
552.242798 198.0
552.683411 28.0
552.917114 28.0
553.227539 22.0
553.268982 68.0
554.255493 188.0
554.299133 66.0
554.481018 16.0
555.264954 138.0
556.259583 180.0
557.258362 708.0
557.796692 24.0
558.075317 16.0
558.159912 30.0
558.243408 1268.0
558.50885 26.0
559.02002 38.0
559.053894 30.0
559.244934 322.0
559.302368 104.0
559.42688 16.0
560.153076 20.0
560.242554 98.0
560.298218 58.0
560.389221 16.0
561.239502 56.0
561.267456 30.0
561.313721 36.0
561.554626 34.0
561.624512 16.0
561.664185 18.0
562.068604 20.0
562.297241 60.0
564.277222 60.0
564.56897 16.0
565.258545 128.0
566.00238 24.0
566.25293 100.0
566.282898 80.0
567.240967 194.0
567.283936 118.0
567.307129 120.0
567.572876 28.0
567.661743 16.0
568.275146 432.0
568.385681 48.0
568.990723 20.0
569.264343 186.0
569.435608 20.0
570.269287 204.0
571.273621 538.0
571.334167 66.0
571.818909 20.0
572.236816 80.0
572.278442 138.0
572.308899 66.0
572.79187 16.0
573.286438 72.0
573.330872 38.0
573.448608 16.0
574.274597 1428.0
574.414673 72.0
574.860535 24.0
575.138 16.0
575.270996 1610.0
575.62561 24.0
575.731018 16.0
575.889404 28.0
576.270752 844.0
576.347961 58.0
576.760742 30.0
576.952515 38.0
577.233582 42.0
577.264404 126.0
577.435242 16.0
578.109924 18.0
578.245117 1072.0
578.362732 26.0
579.245239 148.0
579.310059 50.0
580.252747 126.0
580.340088 46.0
581.260742 28.0
581.314636 34.0
581.639526 18.0
581.712585 16.0
582.288086 262.0
582.593323 52.0
582.8479 16.0
583.278076 300.0
583.382019 54.0
583.606689 16.0
584.255493 176.0
584.297852 206.0
584.427673 16.0
585.251648 94.0
585.300659 336.0
585.345764 120.0
586.278076 462.0
586.316772 126.0
586.373047 74.0
587.286499 174.0
587.335327 42.0
587.578369 20.0
587.707581 20.0
588.287781 102.0
588.320923 70.0
588.413818 36.0
589.201111 26.0
589.238403 122.0
589.282715 478.0
589.354065 40.0
590.240784 54.0
590.285522 120.0
590.322021 54.0
591.286743 76.0
591.678528 38.0
591.865723 16.0
592.269043 164.0
592.304016 124.0
593.258179 176.0
593.31842 64.0
594.250488 64.0
594.598938 28.0
594.744263 38.0
595.273865 744.0
595.34845 80.0
596.257141 234.0
596.324829 78.0
597.273438 92.0
597.312317 16.0
598.278259 148.0
598.337036 42.0
599.269348 92.0
599.499146 30.0
599.745178 16.0
599.799866 18.0
600.296265 134.0
600.371155 40.0
601.283508 318.0
602.270142 118.0
602.318481 118.0
603.300232 246.0
604.291077 494.0
604.345093 54.0
605.29364 222.0
606.321106 16.0
607.271606 130.0
607.314636 50.0
607.362305 16.0
608.27356 60.0
608.316956 30.0
609.092957 16.0
609.281494 42.0
610.281128 602.0
610.495056 18.0
611.277893 454.0
611.372192 38.0
611.429382 16.0
611.89093 18.0
612.007385 18.0
612.20459 16.0
612.287842 216.0
612.380188 16.0
612.577576 16.0
612.758728 34.0
613.019775 18.0
613.071106 16.0
613.283875 992.0
613.417908 104.0
613.48407 20.0
614.274475 216.0
614.35968 62.0
614.568726 16.0
615.287048 288.0
615.432434 26.0
615.888 20.0
616.060791 34.0
616.289856 16.0
617.273865 146.0
617.327637 18.0
617.486145 16.0
617.537659 18.0
617.773193 26.0
617.903259 40.0
618.267883 34.0
618.306702 284.0
619.299683 82.0
619.335022 34.0
619.902161 18.0
619.9776 16.0
621.149658 16.0
622.270508 46.0
622.868042 16.0
624.122498 16.0
624.30011 284.0
625.202759 16.0
625.28064 1180.0
625.381592 54.0
625.456421 24.0
625.711365 18.0
626.196045 40.0
626.289551 272.0
626.393494 20.0
627.026062 34.0
627.154419 22.0
627.318237 234.0
627.373169 94.0
628.032471 28.0
628.133179 34.0
628.293945 3610.0
628.828003 34.0
628.94104 16.0
629.153076 16.0
629.302429 1412.0
629.883362 16.0
630.005432 16.0
630.300842 408.0
630.360779 116.0
630.792603 24.0
631.016541 18.0
631.293335 910.0
631.34137 212.0
631.388916 62.0
631.434998 38.0
631.547363 44.0
631.629883 36.0
631.739441 36.0
631.812195 26.0
632.293884 228.0
633.301086 134.0
634.268311 40.0
634.315491 64.0
634.800293 36.0
635.272217 64.0
636.277588 46.0
638.262939 16.0
639.22229 16.0
639.617554 16.0
640.682678 68.0
641.243652 66.0
641.27832 68.0
641.88855 26.0
642.309937 3972.0
642.444702 46.0
642.496277 46.0
642.579712 24.0
642.609985 16.0
642.642334 16.0
642.850525 18.0
643.010376 50.0
643.308411 1838.0
643.394714 44.0
643.427979 34.0
643.497925 24.0
643.969299 32.0
644.066284 26.0
644.108459 28.0
644.245361 32.0
644.308289 246.0
644.374146 42.0
644.562622 24.0
644.628845 24.0
644.74646 24.0
644.797119 20.0
645.296875 58.0
645.336853 74.0
645.437073 20.0
645.467529 16.0
645.518372 22.0
645.739441 24.0
645.779358 18.0
646.020935 24.0
646.152527 16.0
646.304321 8344.0
646.418152 164.0
646.473389 62.0
646.544922 34.0
646.610718 16.0
646.641113 22.0
646.766846 16.0
646.81543 20.0
646.975891 46.0
647.134399 22.0
647.306641 3430.0
647.380676 36.0
647.482117 26.0
647.579956 18.0
647.669678 20.0
647.878845 18.0
647.966003 38.0
648.039124 18.0
648.108093 18.0
648.213684 16.0
648.261963 18.0
648.308044 420.0
648.407227 100.0
648.501831 24.0
648.536743 22.0
648.656372 18.0
648.800354 20.0
648.930847 26.0
648.98877 22.0
649.157959 26.0
649.235352 18.0
649.316345 168.0
649.530029 16.0
649.989746 22.0
650.07074 16.0
650.326416 54.0
650.570801 24.0
650.87207 20.0
651.296143 44.0
652.210571 38.0
652.295349 394.0
652.377747 28.0
653.285156 450.0
654.224792 24.0
654.293823 164.0
654.365662 20.0
655.292603 38.0
655.460999 34.0
656.299255 66.0
656.360474 16.0
656.989868 16.0
659.131714 20.0
659.302368 346.0
659.410156 24.0
659.80542 16.0
659.901611 22.0
660.168091 16.0
660.319946 2182.0
660.397644 120.0
660.431641 60.0
660.463135 16.0
660.729675 28.0
660.790771 22.0
661.323853 780.0
661.656799 22.0
661.972473 24.0
662.325623 208.0
663.084961 26.0
663.328552 38.0
663.717834 24.0
664.03833 34.0
668.448792 30.0
669.267456 34.0
669.561096 22.0
669.95752 26.0
670.128479 18.0
670.229675 16.0
670.30426 4410.0
670.487488 20.0
670.620361 64.0
670.812317 22.0
671.309082 1706.0
671.463074 48.0
671.615906 40.0
671.884338 18.0
672.140991 32.0
672.310242 312.0
672.458069 42.0
672.774048 38.0
672.900024 26.0
672.984009 28.0
673.013428 28.0
673.303406 38.0
674.052124 36.0
674.301086 44.0
674.4021 20.0
675.067261 16.0
675.863403 30.0
676.195251 36.0
676.557922 18.0
679.213379 16.0
679.735535 24.0
682.830261 16.0
683.636902 26.0
686.114197 16.0
686.325195 16.0
687.054138 28.0
687.113037 16.0
687.222534 56.0
687.648254 16.0
687.93689 18.0
688.114014 30.0
688.179504 16.0
688.315125 11300.0
688.47229 74.0
688.541016 66.0
688.618896 16.0
688.849548 18.0
689.056335 34.0
689.150513 38.0
689.317139 3254.0
689.456665 128.0
689.523193 16.0
689.554749 46.0
689.706543 38.0
689.760071 20.0
689.86499 34.0
689.918884 24.0
690.000793 58.0
690.076172 16.0
690.107666 20.0
690.197632 16.0
690.323303 844.0
690.38269 126.0
690.435913 44.0
690.574463 74.0
690.617188 18.0
690.746033 28.0
691.050293 22.0
691.323486 166.0
691.74469 16.0
691.823669 34.0
691.856079 20.0
692.333374 64.0
694.331177 38.0
694.473999 16.0
696.143616 18.0
698.776123 16.0
698.99115 16.0
699.714661 20.0
700.497375 16.0
704.022278 16.0
706.720581 16.0
709.589661 16.0
711.387939 16.0
715.503174 16.0
722.636963 18.0
724.224182 16.0
725.495178 16.0
726.646973 16.0
728.471008 18.0
731.979248 16.0
734.568176 22.0
742.680603 22.0
748.861084 16.0
750.441833 16.0
751.171692 16.0
759.979187 16.0
762.544739 16.0
762.672424 16.0
764.038452 16.0
768.594849 16.0
769.435242 16.0
770.351257 16.0
774.779907 16.0
779.06543 16.0
780.64209 16.0
783.791382 16.0
787.215393 16.0
788.444702 24.0
799.858154 16.0
810.338867 60.0
818.011841 16.0
822.774536 22.0
825.32666 16.0
828.812622 16.0
833.263245 16.0
834.838562 16.0
838.252136 16.0
847.011597 16.0
851.054688 16.0
851.645691 16.0
858.996887 18.0
861.209351 22.0
867.695679 34.0
870.2099 16.0
871.777344 16.0
872.563965 16.0
873.280212 16.0
892.925598 16.0
902.133057 16.0
903.781738 16.0
904.884888 16.0
908.111816 16.0
909.044434 16.0
910.280701 16.0
910.376953 16.0
915.345154 16.0
926.365662 22.0
928.847656 16.0
934.967712 16.0
939.826477 16.0
941.763672 16.0
943.134644 16.0
943.830261 16.0
950.771362 16.0
954.256409 16.0
956.174133 22.0
956.765808 16.0
959.357544 16.0
964.923096 16.0
965.294739 16.0
965.428528 16.0
969.213318 16.0
969.531128 16.0
970.763123 16.0
970.822754 16.0
975.116089 16.0
975.915527 20.0
978.131592 16.0
980.846985 16.0
999.13324 16.0
1001.897827 16.0
1002.518494 70.0
1005.17688 16.0
1009.018494 16.0
1015.971191 16.0
1021.519897 16.0
1022.687561 16.0
1024.815552 16.0
1028.351807 18.0
1030.009521 16.0
1030.455078 68.0
1031.04895 16.0
1044.200928 16.0
1046.671143 16.0
1047.775635 16.0
1052.302368 58.0
1054.006592 62.0
1056.026733 64.0
1056.549683 16.0
1056.627197 70.0
1057.394897 16.0
1058.427124 16.0
1058.769653 16.0
1060.150513 16.0
1060.451782 16.0
1065.646729 16.0
1068.296143 20.0
1075.086182 30.0
1076.676025 52.0
1078.215454 16.0
1080.416138 16.0
1084.053345 66.0
1087.862671 16.0
1088.367676 16.0
1090.662964 16.0
1091.620972 130.0
1093.588013 50.0
1096.026367 16.0
1098.990479 16.0
1102.504028 16.0
1104.371704 34.0
1105.776367 18.0
1110.376831 16.0
1114.046997 16.0
1114.65918 16.0
1115.292969 16.0
1118.640381 16.0
1121.042969 36.0
1127.202881 56.0
1129.688232 16.0
1139.261108 16.0
1141.092163 16.0
1142.816772 16.0
1142.924683 16.0
1146.172852 16.0
1149.998901 16.0
1153.577148 34.0
1178.180542 16.0
1178.306396 16.0
1181.560669 16.0
1185.280518 16.0
1192.754517 16.0
1195.195801 16.0
1196.67395 16.0
1202.031738 16.0
1202.612427 16.0
1205.318481 16.0
1213.271851 16.0
1217.063477 16.0
1217.592163 16.0
1219.479492 16.0
1220.950317 16.0
1227.043579 16.0
1230.039917 16.0
1247.125732 16.0
1248.028076 94.0
1253.283813 16.0
1256.328979 16.0
1262.158447 16.0
1272.622803 16.0
1281.616821 16.0
1285.319336 16.0
1288.649292 18.0
1289.405151 16.0
1291.375977 16.0
1308.927368 16.0
1322.626831 16.0
1324.936401 16.0
1329.480103 16.0
1330.073364 16.0
1338.054077 16.0
1340.143433 16.0
1343.151978 16.0
1343.88269 16.0
1346.257568 16.0
1347.533569 16.0
1348.786743 16.0
1352.684692 16.0
1360.221069 16.0
1361.363892 78.0
1370.165649 26.0
1372.081787 16.0
1388.566406 18.0
1402.830566 76.0
1403.404175 16.0
1404.461914 16.0
1406.058228 16.0
1411.709473 16.0
1419.804932 16.0
1431.795288 16.0
1433.159546 16.0
1440.329346 16.0
1441.782349 16.0
1451.248413 22.0
1452.029175 16.0
1462.922485 64.0
1464.534058 16.0
1473.984741 58.0
1486.566162 130.0
1487.900391 78.0
1488.207153 16.0
1491.063354 16.0
1504.129639 16.0
1504.612183 16.0
END IONS
