BEGIN IONS
PEPMASS=793.346
CHARGE=1
MSLEVEL=2
SOURCE_INSTRUMENT=LC-ESI-qTof
FILENAME=euphodendroidin_M.mgf
SEQ=*..*
IONMODE=Positive
ORGANISM=GNPS-LIBRARY
NAME=euphodendroidin M M+Na
PI=LITAUDON/TOUBOUL
DATACOLLECTOR=Esposito
SMILES=C[C@@]1(OC(C)=O)C[C@](O)(C([C@@H](C)/C=C/C(C)(C)[C@H](OC(C)=O)[C@H](OC(C)=O)[C@@H](OC(C(C)C)=O)C([C@@H]2OC(C(C)C)=O)=C)=O)[C@]2([H])[C@H]1OC(C3=CC=CC=C3)=O
INCHI=
INCHIAUX=
PUBMED=N/A
SUBMITUSER=lfnothias
TAGS=
LIBRARYQUALITY=1
SPECTRUMID=CCMSLIB00000840323
SCANS=1
63.473713 53.11842
105.03318 390.818512
105.084389 15.625
143.6418 52.71627
149.093704 90.0
151.349228 19.08654
161.057419 110.907303
167.105621 114.191002
171.07869 23.33333
171.315659 25.941179
182.087906 31.605
182.289093 10.66667
184.117111 97.612808
209.132782 130.114105
213.126694 23.025
235.145248 90.787163
236.135132 11.57143
237.151947 12.36029
243.138153 38.0625
243.154129 25.64286
243.46376 25.24695
251.152634 92.219513
265.160339 162.133301
283.169708 83.04348
293.153198 140.0336
293.468719 21.30769
301.959198 17.107759
311.878479 12.16447
321.496307 23.05921
325.178955 123.777901
325.288696 10.0
326.520172 19.44022
329.168976 31.93952
329.811066 17.009609
333.138947 51.45153
353.169586 177.017105
353.233124 12.44643
355.187439 37.56818
361.533142 10.20833
371.548737 22.6875
393.165497 100.290199
400.255615 16.72024
403.883759 15.04167
415.182526 67.781776
415.804474 13.0
420.61557 12.04167
433.198578 19.0
442.651428 27.100809
463.204987 83.57341
551.257629 49.958328
552.032898 17.322371
558.250244 127.449303
558.313843 11.06618
565.176392 17.066179
576.235535 52.894741
583.256714 103.030296
585.243164 44.347221
607.294495 75.009613
611.282593 150.615005
611.682739 58.03846
612.362305 17.164471
623.286987 11.24039
625.235352 30.06579
643.033875 15.01136
645.252197 246.163498
645.356689 13.0
646.276428 25.0625
657.399109 35.066669
671.300598 89.0
672.298218 105.204201
673.291809 77.580643
674.635132 41.160091
705.284241 55.090912
711.33783 217.0177
711.842407 16.005951
712.343018 65.842102
714.996338 19.225
733.321228 1419.578979
733.48291 12.25
733.688416 43.598679
734.158997 20.322371
734.325195 263.868713
734.642883 69.901314
734.695251 28.125
734.745789 31.455641
735.217102 29.605
735.396301 20.20833
735.59021 18.33333
735.735046 28.003571
735.782288 21.17308
735.952576 16.72024
736.207153 17.30769
791.803894 25.471149
793.341858 4287.841797
793.590332 40.654072
793.879333 43.041672
794.080322 47.046638
794.356018 414.195801
794.472229 28.1875
794.562317 32.875
794.766968 13.32237
794.820923 23.875
794.845764 21.29167
794.963196 13.0
795.257568 31.013161
795.838684 47.46944
795.981079 26.111839
796.465332 16.32143
807.237854 63.125
844.690002 18.0
867.626099 54.759998
891.462769 37.83696
901.625122 10.92045
955.369324 17.226851
962.460266 11.0
989.323975 24.605
END IONS
