BEGIN IONS
PEPMASS=817.408
CHARGE=1
MSLEVEL=2
SOURCE_INSTRUMENT=LC-ESI-Orbitrap
FILENAME=f.ktahlan/KT-1/MUN/Methanol/SC/2 SC on GSPG meth-pos.mzXML;
SEQ=*..*
IONMODE=Positive
ORGANISM=GNPS-LIBRARY
NAME=Tunicamyin C putative M+H
PI=Tahlan
DATACOLLECTOR=lfnothias
SMILES=CC(C)CCCCCCCCC=CC(=O)NC1C(C(C(OC1OC2C(C(C(C(O2)CO)O)O)NC(=O)C)CC(C3C(C(C(O3)N4C=CC(=O)NC4=O)O)O)O)O)O
INCHI=
INCHIAUX=
PUBMED=
SUBMITUSER=lfnothias
TAGS=
LIBRARYQUALITY=3
SPECTRUMID=CCMSLIB00005435939
SCANS=3778
70.029007 22087.4375
70.065529 16964.837891
71.013138 20374.511719
71.049576 28700.648438
71.085838 28572.429688
72.044708 27596.570312
73.028709 4477.59082
79.054459 84926.703125
80.049751 29382.396484
81.033699 69390.265625
81.070107 204842.484375
82.065346 59143.242188
83.012939 5905.635742
83.049347 112927.195312
83.085709 280209.53125
84.044563 1500064.5
85.02861 32275.908203
85.064926 16411.597656
85.101349 19822.730469
86.09655 5242.181152
91.054535 15249.132812
91.556976 3844.03833
93.033607 6877.361816
93.069946 131745.203125
94.065216 7971.879883
95.01284 70305.1875
95.049393 8980.447266
95.085571 354586.03125
96.008148 4255.787598
96.044434 773630.25
97.022209 6320.326172
97.028419 120604.359375
97.064835 36727.195312
97.101234 233139.015625
98.060135 162976.96875
99.044182 24113.765625
99.080315 17604.644531
100.039101 6957.069824
100.309052 4795.760742
101.023766 5757.622559
103.054321 5368.292969
105.033379 4648.546875
106.065056 8468.484375
107.049362 9286.246094
107.085487 80912.078125
108.044388 26659.302734
109.021667 5795.612793
109.028549 98999.0
109.052238 7750.563965
109.101227 330505.78125
110.060097 84822.9375
111.044113 123775.5
111.080719 30281.494141
111.116653 79491.023438
113.034546 420926.65625
113.09581 23405.255859
114.055046 18467.326172
120.044319 8797.071289
120.080727 8598.84082
121.028435 23715.919922
121.064392 7038.367188
121.101219 191423.5
122.059982 27785.355469
123.0439 16779.902344
123.116676 52502.410156
124.039192 25619.800781
124.07605 3873.077637
125.09613 17945.859375
125.132607 21591.277344
126.054955 547823.25
127.038834 48685.207031
127.111725 5141.39502
130.065567 14812.212891
131.048904 15943.947266
134.060165 35900.441406
135.044083 8331.158203
135.116776 307169.5625
136.039398 6792.419922
136.075668 5552.061035
137.023529 8327.063477
137.132965 6698.530273
138.054977 2905515.25
139.021805 5226.772461
139.039093 170338.515625
139.111725 20270.115234
140.070709 18870.113281
141.029221 4371.445801
144.065536 540470.5
146.060654 8502.518555
148.039261 28452.712891
148.075684 35091.183594
149.132431 70978.015625
150.055542 29227.615234
151.148163 14970.360352
151.593292 4349.414551
152.070251 28079.246094
153.126892 5535.299316
155.045135 14664.682617
156.06546 97786.40625
157.049759 20504.765625
158.060272 22575.191406
159.044388 8498.886719
160.0401 6827.345703
162.054962 38204.847656
163.039261 32586.714844
164.070511 6519.561035
165.164398 6491.943848
168.065598 579462.25
174.055435 8074.193848
176.070694 86585.273438
177.054794 26010.699219
178.049408 33303.425781
180.065186 24652.25
183.041595 4762.288574
184.07341 24868.548828
186.076172 556309.25
187.039001 8756.629883
191.179489 119558.890625
194.081436 38040.691406
204.066132 214762.140625
204.086792 947324.5
205.0495 69513.179688
209.190201 121740.992188
222.076233 189420.578125
222.09816 6948.140625
223.060272 15096.248047
226.216583 288261.1875
240.086761 193388.9375
250.215881 21232.003906
258.09729 9842.827148
269.076508 25353.765625
276.23175 58225.957031
287.086426 7580.328613
292.226807 1465968.25
298.081177 4157.589844
302.211578 77428.171875
304.226227 74136.914062
316.091217 16044.345703
318.24234 42230.550781
320.221924 7750.081055
321.161407 4233.583496
334.101837 22115.064453
342.243896 24155.636719
346.237946 297407.4375
346.280731 9908.268555
346.453278 3935.635742
348.255829 6034.815918
352.114227 173668.78125
360.252625 15797.34668
364.248352 143599.734375
370.241058 5044.959473
384.25296 6982.960938
386.232971 44662.746094
401.154968 4551.434082
406.258759 5500.677246
412.249237 67928.414062
430.259033 123248.773438
447.345764 14948.3125
448.269501 910028.0625
466.277435 29271.378906
484.291229 68602.960938
517.291809 6091.099121
524.273926 24582.416016
542.285461 66241.179688
560.20752 9220.803711
560.296753 415804.84375
596.317932 624379.5625
697.002869 5447.023926
724.023193 4447.148438
END IONS
