BEGIN IONS
PEPMASS=674.371
CHARGE=2
MSLEVEL=2
SOURCE_INSTRUMENT=LC-ESI-Hybrid FT
FILENAME=f.novakj/Substance_P.mzXML;
SEQ=*..*
IONMODE=Positive
ORGANISM=GNPS-LIBRARY
NAME=Substance P M+H
PI=Havlicek
DATACOLLECTOR=
SMILES=CC(C)CC(C(=O)NC(CCSC)C(=O)N)NC(=O)CNC(=O)C(CC1=CC=CC=C1)NC(=O)C(CC2=CC=CC=C2)NC(=O)C(CCC(=O)N)NC(=O)C(CCC(=O)N)NC(=O)C3CCCN3C(=O)C(CCCCN)NC(=O)C4CCCN4C(=O)C(CCCN=C(N)N)N
INCHI=
INCHIAUX=
PUBMED=26195308
SUBMITUSER=novakj
TAGS=
LIBRARYQUALITY=3
SPECTRUMID=CCMSLIB00000531482
SCANS=1
302.153595 1880161.0
307.14444 3429642.0
347.219421 2306540.0
354.177612 36351676.0
357.195953 5671238.0
365.22998 2368479.0
368.217133 2327189.0
371.204224 5569592.0
373.223907 7624810.0
387.166809 5260756.0
405.192719 2270547.0
406.176758 13166039.0
420.228851 8404112.0
433.737518 3149045.0
441.751495 3951002.0
449.222412 5732603.0
456.224823 2886870.0
460.75943 2762012.0
461.785522 2407452.0
463.198364 33780400.0
473.251495 4730603.0
477.330353 3892769.0
484.219849 5537111.0
501.246429 20463496.0
501.288452 3255741.0
503.266052 2813714.0
504.293732 5881940.0
506.28064 5962221.0
509.28595 4595030.0
515.28595 10523318.0
517.799194 6265635.0
526.804504 17083892.0
532.790039 2400765.0
534.235596 3508270.0
541.303345 9564433.0
543.796753 7816572.0
544.822815 3287830.0
548.28772 10436373.0
549.317383 5909818.0
552.362671 16997602.0
554.29126 2892509.0
562.804688 19836560.0
573.815125 7497300.0
577.828247 17708564.0
580.806274 6223700.0
582.820618 26872810.0
586.341492 20118536.0
591.333679 47509840.0
591.798523 7005754.0
600.31189 10590131.0
600.33905 68259304.0
603.29364 2867367.0
605.349304 7140043.0
606.324463 2692595.0
607.368591 45953736.0
609.317261 20496782.0
610.341858 2154380.0
610.833496 4066094.0
614.837891 8964228.0
619.346863 31899456.0
624.395203 12077006.0
625.830017 1807219.0
626.38208 4489115.0
627.860229 8980919.0
630.822266 1676028.0
634.343384 3771572.0
639.33551 5617015.0
643.348694 10023129.0
648.340942 18063370.0
651.862122 5590456.0
654.409912 6204821.0
656.854431 33514394.0
665.859741 47697948.0
674.373047 30377064.0
676.394165 2103069.0
681.420837 9267921.0
683.403442 17237210.0
699.431519 15940371.0
707.432495 2389198.0
710.414307 3336379.0
718.40094 9601174.0
720.452881 3678279.0
722.363403 4931036.0
732.384277 1759086.0
735.427551 53415204.0
738.409607 20797490.0
755.436096 6205106.0
773.39978 2042640.0
776.410706 8114971.0
777.474609 10561983.0
783.383972 3189447.0
785.450745 6856928.0
790.42627 3927830.0
794.50116 5076491.0
804.416809 10444547.0
812.461853 8297688.0
830.472351 15564724.0
846.500244 12584297.0
851.493835 2978848.0
854.501526 12843320.0
866.468262 22077756.0
873.463501 3131382.0
882.496643 35135664.0
899.522888 1899598.0
901.495422 2311567.0
905.533813 15291435.0
908.515625 8816261.0
920.512268 2926792.0
923.489807 2042232.0
924.544128 9453587.0
932.435425 3064920.0
934.531494 3594524.0
939.522461 4393969.0
946.516785 32056424.0
949.462219 6212771.0
956.549072 6705739.0
974.523438 11815865.0
974.559875 9274087.0
1001.570129 8699985.0
1013.53717 5767125.0
1026.589722 2723553.0
1029.56543 21222918.0
1036.574829 11069519.0
1043.570312 2085433.0
1049.562622 1968844.0
1052.602661 6313675.0
1055.584717 9067233.0
1059.547607 3771400.0
1060.531372 4590590.0
1070.563477 4730393.0
1077.557739 23951202.0
1081.600342 4722772.0
1086.587036 18984552.0
1088.574219 7159228.0
1094.584595 14182515.0
1105.600708 8166392.0
1124.603027 2962905.0
1154.648315 2783153.0
1157.631958 1733740.0
1171.676636 20741978.0
1174.611206 2377219.0
1199.671875 38666444.0
1202.65332 2558727.0
1217.628662 8975855.0
END IONS
