BEGIN IONS
PEPMASS=853.42
CHARGE=1
MSLEVEL=2
SOURCE_INSTRUMENT=LC-ESI-Orbitrap
FILENAME=f.daniel/180330_Isa_Wine-Fungi/Isa_Wine-fungi_MZmine231_GNPS.mgf;
SEQ=*..*
IONMODE=Positive
ORGANISM=GNPS-LIBRARY
NAME=Triacetylfusarinin C  M+H
PI=Pieter Dorrestein
DATACOLLECTOR=Daniel Petras
SMILES=C/C1=C\C(N(O)CCCC(NC(C)=O)C(OCC/C(C)=C\C(N(O)CCCC(NC(C)=O)C(OCC/C(C)=C\C(N(O)CCCC(NC(C)=O)C(OCC1)=O)=O)=O)=O)=O)=O
INCHI=
INCHIAUX=
PUBMED=
SUBMITUSER=daniel
TAGS=Siderophore[Bioactivity (Active against)]
LIBRARYQUALITY=3
SPECTRUMID=CCMSLIB00004679223
SCANS=126
60.627338 1251.659058
70.065826 6223.918945
79.37011 1221.621582
85.093025 1221.813354
87.550827 1487.925293
91.345276 1455.922241
91.910759 1414.262085
94.800972 1355.938843
95.049278 1663.842773
100.882812 1174.580566
108.042542 2360.968262
112.076309 5175.772461
112.175903 1293.47522
114.055115 2986.272949
128.071213 6647.495117
131.082016 1690.466797
135.04277 1679.224854
136.037201 15239.705078
158.081238 1739.99707
162.306839 1433.408325
178.04776 2271.766602
180.06427 8975.082031
197.1297 6697.166016
219.110199 1497.366699
225.123947 2197.371826
230.139084 1949.80249
264.086884 1980.696411
273.788452 1290.084839
279.096771 6439.199219
289.116425 2974.939209
290.126465 2246.396484
292.115387 3117.451904
307.126404 18683.535156
419.178528 2113.022949
END IONS
