BEGIN IONS
PEPMASS=473.24
CHARGE=2
MSLEVEL=2
SOURCE_INSTRUMENT=LC-ESI-Orbitrap
FILENAME=f.Rolandoo1/20190519 Moroidin paper GNPS/Moroidin-[QALVWRGH].mzXML;
SEQ=*..*
IONMODE=Positive
ORGANISM=GNPS-LIBRARY
NAME=Moroidin-[QALVWRGH] M+2H
PI=Jing-Ke Weng
DATACOLLECTOR=Roland Kersten
SMILES=O=C1CCC(C(NC(C(NC(CC(C)C)C(NC(C(C)C)C(NC(C(NC(C(NCC(NC(CC2=CN3C=N2)C(O)=O)=O)=O)CCCNC(N)=N)=O)C4)=O)=O)=O)CC5=CC6=C(C=C5)C4=C3N6)=O)N1
INCHI=
INCHIAUX=
PUBMED=
SUBMITUSER=Rolandoo1
TAGS=
LIBRARYQUALITY=3
SPECTRUMID=CCMSLIB00005435908
SCANS=1
67.577927 334.710815
67.578453 672.604797
67.578979 860.975403
67.579506 783.414612
67.580032 498.334747
70.916832 42.347904
70.917397 612.551025
70.917961 882.858704
70.918533 933.03949
70.919098 753.542847
70.919662 436.529053
72.077011 3.638832
72.077591 310.122803
72.078171 937.517456
72.078751 3877.413086
72.07933 12571.686523
72.079918 23269.003906
72.080498 32256.583984
72.081078 27493.613281
72.081657 16464.912109
72.082237 6309.751953
72.082817 1594.292725
72.083397 846.005127
72.083977 45.222397
72.422325 57.666088
72.422905 514.019226
72.423492 745.803223
72.42408 793.697205
72.42466 623.404114
72.425247 323.980438
79.102982 41.495975
79.103645 309.464783
79.104317 726.520813
79.10498 1063.208496
79.105652 1082.44104
79.106316 776.084229
79.106979 348.512695
84.041191 615.130432
84.041924 2335.901367
84.042656 6698.963867
84.043381 11494.420898
84.044113 14947.285156
84.044846 12004.769531
84.045578 6987.073242
84.04631 2213.412354
84.047035 69.15638
86.08979 105.867508
86.090553 1309.514282
86.091309 1447.947388
86.092064 2216.686035
86.092819 3803.021973
86.093582 12119.164062
86.094337 36165.890625
86.095093 68851.054688
86.095856 97305.164062
86.096611 89789.859375
86.097366 55999.957031
86.098122 25019.494141
86.098885 6608.49707
86.09964 1878.080933
86.100395 917.999817
86.101158 1270.853271
86.101913 1219.053223
87.096809 130.891632
87.09758 800.448181
87.098351 1445.899658
87.099121 1863.413208
87.099892 1742.666138
87.100662 1160.384155
87.101433 478.846405
91.050941 297.483337
91.051758 1917.596558
91.052582 4738.07373
91.053406 7948.441895
91.05423 9568.794922
91.055054 7289.889648
91.055878 3918.280518
91.056702 1160.247192
91.057526 155.781876
92.388542 228.24118
92.389381 1078.74353
92.390228 1458.529053
92.391068 728.112854
92.391914 198.209259
98.971977 267.465485
98.972916 1331.463257
98.973846 2718.58252
98.974777 3868.327148
98.975716 3905.654053
98.976646 2763.044678
98.977577 1215.911987
98.978516 153.766129
105.842751 199.51445
105.843781 742.770508
105.844818 985.897583
105.845848 946.194824
105.846878 651.367981
105.847916 266.325287
109.236603 145.407974
109.237686 563.656799
109.23877 835.349304
109.239853 859.910828
109.240936 631.349915
109.24202 268.32196
110.067314 143.764252
110.068405 567.827698
110.069504 920.53949
110.070595 1059.636353
110.071693 895.744873
110.072784 442.649017
112.320778 135.417099
112.321907 515.382629
112.323036 864.161804
112.324165 974.390808
112.325294 763.432617
112.326424 333.963837
116.98278 290.568634
116.983978 900.925964
116.985176 1217.314331
116.986382 1166.479858
116.987579 790.446167
116.988777 295.24826
122.23922 176.393784
122.240501 584.783508
122.241783 931.023743
122.243065 1012.404419
122.244347 761.338013
122.245628 310.570831
129.548477 194.027496
129.549866 576.013428
129.55127 823.654724
129.552673 842.109558
129.554062 606.255554
129.555466 225.982452
130.061707 265.603699
130.063126 719.633118
130.064529 948.703857
130.065933 955.07135
130.067337 759.112549
130.068741 318.314148
134.439209 257.095123
134.440689 659.780701
134.442169 899.057129
134.443649 904.693665
134.445114 671.017395
134.446594 252.589447
136.069397 123.51403
136.070908 506.71109
136.072418 1092.667114
136.073914 1600.628052
136.075424 1663.876221
136.076935 1202.884766
136.07843 559.051697
136.079941 129.475754
139.997803 249.617416
139.999374 680.391174
140.000946 1008.987244
140.002518 1093.62854
140.004089 899.40387
140.005661 554.901123
140.007233 90.231628
143.862915 370.267487
143.864563 791.721863
143.866196 922.572632
143.867828 834.271484
143.869461 587.815674
143.871094 196.064651
144.975372 330.872253
144.977036 948.152649
144.978683 1485.995605
144.980347 1613.119263
144.981995 1231.088989
144.983658 635.948425
144.985306 167.893234
158.988342 4.721533
158.990234 1827.837158
158.992142 6567.839844
158.994034 11954.388672
158.995941 15624.741211
158.997833 12721.56543
158.999741 7555.596191
159.001648 2804.421387
159.00354 605.795227
159.005447 100.53759
159.527649 425.052307
159.529556 1329.61145
159.531464 2090.089844
159.533371 2310.678711
159.535294 1899.819336
159.537201 953.474243
159.539108 192.708527
159.590714 496.033661
159.592621 2102.931885
159.594543 4042.241455
159.596451 4230.787109
159.598358 3043.939209
159.600266 1445.498901
159.602188 289.338379
159.646164 384.518555
159.648087 1270.805542
159.649994 2140.25415
159.651901 2555.956299
159.653824 2320.53418
159.655731 1616.58313
159.657639 844.727661
159.659561 191.093842
161.092331 234.850174
161.094269 710.786438
161.096207 997.573669
161.098145 2021.221558
161.100082 12068.026367
161.102036 45279.269531
161.103973 89405.578125
161.105911 130998.6875
161.107849 122957.203125
161.109787 80426.125
161.111725 37356.617188
161.113663 12573.181641
161.115601 4663.877441
161.117538 2611.672363
161.119476 523.803284
161.121414 57.382961
176.998688 266.223297
177.000916 1188.706909
177.003143 3125.666748
177.005386 5201.778809
177.007614 5666.479004
177.009842 4164.083984
177.012085 2082.02002
177.014313 621.016724
177.016541 67.906128
180.081741 402.284943
180.08403 840.502808
180.086334 1058.282593
180.088623 893.726257
180.090912 475.180542
180.093201 79.454735
183.027512 512.090698
183.029861 1063.530151
183.032211 1354.214722
183.034561 1200.491455
183.036911 722.134277
183.039261 111.80114
185.156662 576.846863
185.159058 2307.18335
185.161438 4389.234863
185.163834 5977.458496
185.166229 5266.325684
185.16861 3270.255127
185.171005 1102.047974
185.173386 116.194954
186.002869 556.424255
186.005264 1047.033936
186.007675 1249.935059
186.010086 1044.063843
186.012482 590.137268
186.014893 84.304878
200.013367 507.035126
200.016052 2232.407959
200.018738 4493.923828
200.021408 6512.650879
200.024094 6054.239746
200.026779 3766.556396
200.029465 1539.105713
200.03215 427.895508
200.034821 20.608236
201.033813 265.367157
201.036514 1069.206177
201.039215 2177.975098
201.041916 2825.691406
201.044617 2485.856201
201.047318 1429.271606
201.050034 398.893433
201.052734 23.068312
204.994156 998.121826
204.996933 2167.841309
204.999725 3030.572266
205.002502 2912.449463
205.00528 1856.151855
205.008072 639.633301
205.010849 26.540434
219.001236 16.809481
219.004318 340.387939
219.007385 1466.372803
219.010452 4520.534668
219.013535 8096.062988
219.016602 10742.549805
219.019684 8891.772461
219.022751 5105.613281
219.025833 1807.45459
219.0289 354.088806
219.031967 24.279203
221.115326 740.491333
221.118454 3745.287354
221.121567 10921.186523
221.12468 18743.839844
221.127808 23478.183594
221.13092 18483.472656
221.134033 10573.128906
221.137161 3686.397217
221.140274 817.570557
221.143387 167.428345
223.054718 41.009411
223.057877 502.058289
223.061035 919.896729
223.064194 1094.352173
223.067352 891.142212
223.070511 448.635895
223.10527 89.244415
223.108429 1071.665649
223.111588 1992.991821
223.114746 2488.070801
223.117905 2180.608887
223.121063 1256.1073
237.013901 69.689629
237.017349 524.512268
237.020813 1221.641479
237.024277 1953.504639
237.02774 2254.39917
237.031204 1903.526733
237.034653 1147.347778
237.038116 435.609741
241.061188 51.398315
241.064743 510.868103
241.068283 1772.761719
241.071838 2916.228027
241.075378 3264.942871
241.078934 2556.772217
241.082474 1300.910522
241.086029 233.967957
245.107483 66.314255
245.111115 409.471405
245.114761 806.982544
245.118393 990.940002
245.12204 838.480713
245.125671 441.425354
249.062607 87.699997
249.06633 767.974426
249.070053 2723.655273
249.073776 5932.894531
249.077515 9363.893555
249.081238 8751.885742
249.084961 5415.831055
249.088684 2445.510254
249.092422 709.787659
261.788696 144.878418
261.792694 629.128296
261.796722 1075.121094
261.80072 1371.7948
261.804749 1337.459229
261.808777 976.17572
261.812775 437.13736
264.076813 121.245758
264.080872 602.078613
264.084961 1275.560547
264.08902 1793.789673
264.093079 1777.36853
264.097168 1261.769043
264.101227 628.327332
264.105286 193.205444
265.007019 226.789154
265.011108 1102.617554
265.015198 2306.807129
265.019287 3222.415039
265.023376 3188.751709
265.027466 2228.203369
265.031555 911.761658
265.092957 272.573395
265.097046 1261.314575
265.101135 3241.798584
265.105225 6888.729492
265.109314 9735.523438
265.113403 9176.291016
265.117493 5744.481445
265.121582 2620.377197
265.125702 696.117004
267.07663 282.57962
267.08078 1202.294067
267.08493 2175.761963
267.08905 2759.029297
267.093201 2536.618164
267.097351 1654.939331
267.101471 629.281433
270.946442 139.874344
270.950653 547.816162
270.954895 926.934265
270.959106 1096.98877
270.963348 942.675842
270.96756 468.279358
283.101257 226.242661
283.105774 994.802368
283.110291 2589.435547
283.114807 5389.652344
283.119324 7876.796875
283.12384 7244.94873
283.128357 4338.319824
283.132874 2015.064453
283.13739 450.322571
289.093475 94.767754
289.098114 465.475342
289.102783 1099.615845
289.107452 1684.621826
289.112091 1833.817627
289.11676 1453.337036
289.121429 825.885376
289.126099 266.748993
290.093445 243.48407
290.098145 772.186951
290.102814 1160.857666
290.107513 1222.007202
290.112213 896.487305
290.116882 349.96933
301.11731 366.608398
301.122253 1053.319092
301.127197 1503.560303
301.132172 1545.257446
301.137115 1143.352661
301.142059 576.002136
301.147034 151.309097
306.118439 244.459595
306.123535 1010.460754
306.128601 2035.84668
306.133698 2736.730225
306.138763 2680.101807
306.14386 1911.641479
306.148926 969.264526
306.153992 212.128738
307.095856 284.647369
307.100952 2703.109863
307.106079 11887.266602
307.111176 27428.908203
307.116272 44746.226562
307.121368 49959.261719
307.126495 37780.386719
307.131592 20556.167969
307.136688 7952.284668
307.141785 2594.3396
307.146912 1161.492554
307.152008 1031.134766
307.157104 610.832764
307.162201 8.404679
311.115112 217.995728
311.120331 1183.372192
311.125519 4272.568848
311.130737 9527.307617
311.135925 14696.482422
311.141144 15719.473633
311.146332 11338.917969
311.15155 5688.77832
311.156738 1702.735474
311.161957 275.628876
324.127747 215.79068
324.133301 660.218933
324.138824 1157.412354
324.144348 1496.205444
324.149902 1464.4823
324.155426 1070.5448
324.16095 548.123657
324.166504 115.78804
325.10379 302.658478
325.109344 1824.865356
325.114929 7576.983887
325.120483 18010.621094
325.126038 30419.6875
325.131592 35420.078125
325.137146 27669.542969
325.1427 15632.407227
325.148254 6203.151367
325.153839 1856.808228
325.159393 438.461151
329.137299 278.962982
329.142975 709.945068
329.148621 962.547791
329.154297 893.638062
329.159943 559.621826
329.165619 159.465012
330.124695 385.796173
330.130402 900.270325
330.136078 1152.269653
330.141785 1076.199707
330.147461 753.047729
330.153137 246.051514
343.122559 352.321869
343.128571 1049.299438
343.134613 1817.076172
343.140625 2229.764893
343.146667 1992.40979
343.152679 1284.882935
343.158722 572.339661
347.128876 15.651533
347.13501 760.230652
347.141144 4258.773438
347.147278 10884.544922
347.153412 17318.744141
347.159546 17335.054688
347.16568 12343.026367
347.171814 8952.524414
347.177948 8224.896484
347.184082 7223.062012
347.190216 4803.06543
347.19635 1462.046997
347.202484 96.749031
347.663025 261.812408
347.669159 885.295227
347.675323 1699.143433
347.681458 2230.611572
347.687592 2081.026123
347.693756 1358.221436
347.69989 573.191406
347.706055 120.510696
348.118317 159.352066
348.124481 1897.02356
348.130646 8161.687988
348.13678 17637.126953
348.142944 27563.517578
348.149109 28626.173828
348.155273 20341.650391
348.161438 10362.200195
348.167603 3603.024414
348.173737 968.408875
348.179901 168.616959
360.270782 338.955841
360.277283 776.486755
360.283752 1061.591919
360.290253 1044.84314
360.296722 738.388794
360.303223 131.481491
362.950592 326.704224
362.957153 752.92395
362.963715 1028.398315
362.970276 1018.182983
362.976837 759.880676
362.983398 138.658875
365.137207 532.66095
365.143799 2221.029053
365.150421 9727.499023
365.157043 23811.154297
365.163666 39952.308594
365.170288 45793.28125
365.17691 33956.832031
365.183502 18743.015625
365.190125 6667.399902
365.196747 1849.358765
365.203369 732.999878
365.209991 151.687851
367.123413 1056.584351
367.130066 2509.072754
367.136749 3673.690918
367.143433 3906.189941
367.150085 3048.132812
367.156769 1713.230957
367.163422 381.215271
381.188416 374.584869
381.195465 948.380005
381.202515 1511.901123
381.209564 1765.345093
381.216644 1543.121826
381.223694 983.784058
381.230743 407.432129
381.237793 62.808319
395.182037 401.743103
395.189484 2699.547119
395.19693 6920.194336
395.204376 11847.080078
395.211823 13316.695312
395.219269 9696.185547
395.226746 5233.164062
395.234192 1839.98584
395.241638 244.475677
395.689056 426.559509
395.696503 1062.485352
395.703979 1719.39856
395.711456 2036.514038
395.718903 1800.133911
395.726379 1175.081909
395.733826 537.039978
395.741302 49.100906
402.668732 522.53949
402.676392 2394.378906
402.684052 5595.00293
402.691711 9098.272461
402.699371 9626.535156
402.707031 6639.162109
402.714691 3288.346924
402.722351 906.701111
402.730042 107.28492
403.174866 470.838745
403.182556 1218.590088
403.190216 2003.477661
403.197906 2332.84082
403.205566 1967.714233
403.213257 1182.145752
403.220947 474.286316
403.228607 60.327114
403.697357 867.430725
403.705048 2480.568604
403.712738 4668.821289
403.720428 6334.927734
403.728119 5644.005859
403.735809 3106.800537
403.7435 1312.188965
403.75119 175.088669
404.205444 887.270264
404.213165 1887.448608
404.220856 2565.788818
404.228577 2505.928223
404.236267 1747.325195
404.243988 647.227356
404.251678 76.272758
409.119751 304.3125
409.127594 1328.175171
409.135437 4500.953125
409.14328 8286.06543
409.151123 10375.646484
409.158966 8051.878418
409.16684 4615.659668
409.174683 1532.957886
409.182526 134.060455
413.190857 666.453308
413.198822 1138.701782
413.206787 1289.820557
413.214752 1047.706543
413.222717 582.586914
413.230682 70.095856
416.66095 302.470428
416.669006 2174.96167
416.677063 7375.084961
416.68515 13061.698242
416.693207 17193.087891
416.701263 13762.608398
416.709351 8092.674805
416.717407 2966.701904
416.725464 551.126038
416.733551 44.424763
417.169464 282.879791
417.177551 869.443176
417.185638 1596.187988
417.193726 1941.303345
417.201782 1636.222656
417.209869 930.266907
417.217957 159.439178
417.687042 116.721748
417.695129 930.373779
417.703217 4016.583496
417.711304 7576.348145
417.719421 10371.264648
417.727509 9254.553711
417.735596 5982.672852
417.743683 2472.873291
417.751801 463.449921
417.759888 23.619448
418.197449 436.617004
418.205536 1572.99939
418.213654 2594.571289
418.221771 3012.310547
418.229889 2543.210205
418.237976 1511.158813
418.246094 465.452637
418.254211 39.9538
423.361633 1137.103027
423.369904 2397.861816
423.378174 3537.806396
423.386414 3855.233887
423.394684 3109.485107
423.402954 1806.719482
423.411224 485.396149
423.419464 32.153694
427.111542 28.574547
427.119934 1042.240601
427.128296 4667.055664
427.136658 21106.140625
427.14502 63128.761719
427.153412 108430.585938
427.161774 138983.921875
427.170135 109861.101562
427.178528 64662.5
427.18689 23990.074219
427.195251 7390.432129
427.203644 2336.377686
427.212006 581.167542
431.692871 335.415436
431.701385 908.131348
431.7099 1447.936035
431.718384 1563.713745
431.726898 1155.162964
431.735413 541.682983
431.743896 44.193283
436.218689 758.322876
436.227325 1377.076416
436.235992 1629.203003
436.244629 1324.810303
436.253265 701.288818
436.261902 35.955029
445.121185 700.265747
445.130096 1544.358765
445.139008 6827.862793
445.147888 27130.849609
445.156799 66886.726562
445.16571 108629.5625
445.174622 124362.78125
445.183533 88732.554688
445.192444 48418.675781
445.201324 15833.113281
445.210236 5211.227539
445.219147 2625.846924
445.228058 1395.477539
445.236969 1435.80127
445.24588 75.162598
450.204376 682.855774
450.21344 2079.123779
450.222504 3856.179932
450.231567 5210.058594
450.240631 4128.751953
450.249664 2375.752686
450.258728 776.272827
450.267792 24.986
450.702972 331.092346
450.712036 1005.871216
450.72113 1918.359253
450.730194 3774.8479
450.739258 3510.149414
450.748322 1787.594849
450.757416 912.292175
450.766479 348.451721
459.185944 7.035394
459.195251 162.185471
459.20459 1477.26709
459.213928 5678.895508
459.223267 12889.969727
459.232574 20449.123047
459.241913 21683.146484
459.251251 14369.666992
459.26059 7078.065918
459.269928 1766.408936
459.279236 249.650528
459.288574 2.027497
459.708862 653.474426
459.718201 2495.931885
459.72757 4836.772461
459.736908 7055.366699
459.746246 6647.476562
459.755585 4259.375488
459.764954 1894.729736
459.774292 535.587097
459.78363 12.665401
464.209045 591.913025
464.218536 1159.490723
464.227997 1528.396484
464.237488 1425.153076
464.246979 929.280823
464.25647 391.695312
468.141083 41.551922
468.150696 934.287781
468.160309 4988.458984
468.169891 14128.331055
468.179504 23645.992188
468.189117 29343.337891
468.19873 22617.048828
468.208313 12909.692383
468.217926 4434.084473
468.227539 1028.373413
468.237152 1.627497
469.170441 0.006049
469.180084 467.934418
469.189728 903.353638
469.199371 1110.154053
469.208984 949.897766
469.218628 558.727966
469.228271 0.000611
473.126801 3.612578
473.136566 1182.628784
473.146332 76209.78125
473.156067 177109.71875
473.165833 243067.921875
473.175598 215319.28125
473.185364 134606.109375
473.195129 80318.46875
473.204865 123836.09375
473.21463 292843.28125
473.224396 462453.71875
473.234161 559106.75
473.243927 414978.96875
473.253693 232544.203125
473.263458 67001.554688
473.273193 13105.955078
473.663971 11.285083
473.673737 339.518677
473.683502 1039.180542
473.693298 2178.449463
473.703064 9775.662109
473.71283 34426.226562
473.722626 72259.507812
473.732391 110582.390625
473.742157 112460.023438
473.751953 73791.257812
473.761719 36760.144531
473.771515 10923.769531
473.781281 3456.038574
473.791046 2163.575684
473.800842 977.478699
473.810608 1421.605957
473.820404 147.931229
473.83017 1.40758
594.249573 172.54393
594.263306 738.159973
594.277039 1094.722168
594.290833 1110.833618
594.304565 771.968689
594.318298 308.724579
638.315125 102.384361
638.330383 494.098389
638.345703 1060.806519
638.361023 1672.153564
638.376282 2231.441406
638.391602 2380.00415
638.40686 2184.586426
638.42218 1672.178223
638.4375 1089.203247
638.452759 408.534729
705.258667 267.226105
705.276428 1273.55957
705.294189 2786.135254
705.311951 4107.085449
705.329712 4237.407227
705.347473 3002.801758
705.365234 1516.793823
705.382996 413.552338
706.272034 257.988251
706.289795 743.691772
706.307617 1063.644775
706.325439 1089.907227
706.343201 799.567505
706.361023 301.939209
716.254272 325.116333
716.272461 895.957886
716.290588 1181.683594
716.308777 1048.192505
716.326965 626.551331
716.345154 193.109314
733.236145 176.751358
733.255005 862.906677
733.273804 2248.655029
733.292664 4087.360352
733.311462 5119.636719
733.330322 4218.537109
733.349121 2351.609863
733.367981 993.843872
733.38678 267.835327
804.28418 191.359314
804.305786 937.609924
804.327393 3669.221191
804.34906 8240.021484
804.370667 13202.055664
804.392334 14695.208008
804.41394 11298.775391
804.435547 6225.724609
804.457214 2110.283447
804.478821 280.209473
805.323303 425.971069
805.344971 1269.709595
805.366638 2469.255859
805.388306 3441.904541
805.409973 2655.592529
805.431641 1423.564819
805.453369 642.271729
805.475037 144.253769
818.329041 217.679596
818.351257 1137.886841
818.373413 2390.026855
818.39563 3252.491455
818.417847 3222.564453
818.440063 2352.711182
818.462219 750.624878
818.484436 99.897041
832.266785 156.868439
832.289551 1011.611694
832.312317 5550.129883
832.335083 14032.642578
832.357849 23783.382812
832.380615 27570.816406
832.403381 20758.443359
832.426147 11682.137695
832.448914 4273.974609
832.47168 996.366394
832.494446 176.381516
833.292175 151.351685
833.315002 661.651001
833.33783 2110.664062
833.360657 3805.748779
833.383423 4515.833008
833.40625 3547.088623
833.429077 1950.107178
833.451904 832.792542
833.47467 185.456802
846.306763 205.060272
846.330078 685.060425
846.353455 1406.558472
846.37677 2040.310181
846.400146 2151.949463
846.423462 1656.917725
846.446838 897.999084
846.470215 211.541702
862.383545 532.054382
862.407532 1005.318237
862.43158 1167.629761
862.455566 1034.084595
862.479614 678.49176
862.503601 173.14476
END IONS
