BEGIN IONS
PEPMASS=676.346
CHARGE=1
MSLEVEL=2
SOURCE_INSTRUMENT=LC-ESI-qTof
FILENAME=f.mernst/3DModels/spectral_data_ms2_v110.mgf;
SEQ=*..*
IONMODE=Positive
ORGANISM=GNPS-LIBRARY
NAME=Euphorbia factor L14 - Lathyrane diterpenoid M+NH4
PI=Dorrestein
DATACOLLECTOR=mernst
SMILES=O=C(C1(OC(C)=O)C[C@]([H])(C)[C@H](OC(C2=CC=CC=C2)=O)[C@]1([H])[C@H]3OC(C)=O)/C(C)=C/C(C4(C)C)([H])C4([H])CC(OC(C5=CC=CC=C5O)=O)C3=C
INCHI=InChI=1S/C38H42O10/c1-20-17-27-28(37(27,6)7)18-30(46-36(44)26-15-11-12-16-29(26)41)22(3)33(45-23(4)39)31-32(47-35(43)25-13-9-8-10-14-25)21(2)19-38(31,34(20)42)48-24(5)40/h8-17,21,27-28,30-33,41H,3,18-19H2,1-2,4-7H3/b20-17+/t21-,27+,28-,30?,31?,32-,33+,38+/m0/s1
INCHIAUX=
PUBMED=
SUBMITUSER=lfnothias
TAGS=
LIBRARYQUALITY=3
SPECTRUMID=CCMSLIB00004678657
SCANS=1264
93.072655 196.0
95.084824 252.0
105.033035 1804.0
107.049049 7980.0
108.055351 288.0
109.03698 916.0
109.072701 880.0
109.090752 712.0
119.076683 392.0
121.092873 2228.0
122.100929 444.0
123.076546 1256.0
125.059639 200.0
131.08313 336.0
133.095535 1716.0
135.078674 1480.0
136.085632 176.0
137.094513 1040.0
143.082687 820.0
144.086609 212.0
145.097549 2588.0
147.091949 1480.0
148.119781 212.0
149.09462 19344.0
150.094406 1784.0
151.073776 1500.0
152.069427 196.0
155.083954 400.0
157.09436 1948.0
158.104355 284.0
159.087296 2608.0
160.077728 444.0
161.095596 5564.0
162.101135 840.0
163.073776 748.0
165.077652 200.0
167.076355 264.0
169.096222 1084.0
170.104523 180.0
171.085754 3272.0
172.084076 564.0
173.094696 3024.0
174.079758 420.0
175.079346 2860.0
176.076721 264.0
177.0849 1248.0
178.090759 184.0
179.089432 244.0
181.097427 584.0
182.109344 480.0
183.105011 1928.0
184.104721 244.0
185.094513 2672.0
186.096298 260.0
187.103058 2696.0
188.076675 492.0
189.093033 5676.0
190.110764 824.0
191.088226 856.0
192.087494 364.0
193.090073 1136.0
194.098099 204.0
195.11203 4276.0
196.116058 1496.0
197.117783 2676.0
198.123657 880.0
199.106979 2548.0
200.114639 500.0
201.086899 3316.0
202.0914 440.0
203.092987 2928.0
204.106445 412.0
205.085938 1660.0
207.114563 2764.0
208.12149 912.0
209.104263 4236.0
210.096725 712.0
211.10965 2332.0
212.106934 552.0
213.106842 3004.0
214.119431 972.0
215.106781 4008.0
216.08989 720.0
217.085785 3668.0
218.119904 552.0
219.116653 828.0
220.112473 468.0
221.128922 2012.0
222.127777 696.0
223.111618 8592.0
224.114166 2200.0
225.119339 5132.0
226.126709 424.0
227.10611 5672.0
228.130112 628.0
229.103043 1168.0
231.100327 1640.0
232.119171 1020.0
233.129135 8868.0
234.129547 2288.0
235.113159 1908.0
236.120758 1016.0
237.157669 9532.0
238.1604 1912.0
239.134796 2000.0
240.125549 420.0
241.122375 4864.0
241.439713 152.0
242.117508 968.0
243.098373 1688.0
244.094833 344.0
245.119049 2380.0
246.121445 488.0
247.143448 15924.0
248.148056 3368.0
249.127487 6892.0
250.131592 2016.0
251.133377 16992.0
252.138275 3416.0
253.114334 2140.0
255.165436 4964.0
256.160492 1152.0
257.14093 784.0
260.122437 844.0
261.127625 400.0
263.137726 832.0
264.124756 444.0
265.15506 40264.0
265.494415 184.0
266.158997 7764.0
267.149048 7952.0
268.146454 1552.0
269.137054 6184.0
270.138397 656.0
271.153687 244.0
273.11734 540.0
274.134552 236.0
275.137756 23776.0
276.143494 4120.0
276.467194 212.0
277.14386 464.0
278.123535 760.0
279.11853 288.0
281.131805 596.0
282.156952 336.0
283.165405 25688.0
283.845581 156.0
284.170013 4868.0
285.164398 736.0
287.151794 208.0
289.150055 256.0
292.964935 400.0
293.150116 90592.0
293.380219 444.0
294.152985 20040.0
295.156067 2108.0
297.072205 192.0
299.159698 184.0
305.112091 172.0
306.127319 160.0
307.161407 496.0
309.139954 612.0
309.641815 396.0
310.38385 256.0
310.775665 552.0
310.974548 1344.0
311.161469 274280.0
311.412292 656.0
311.44931 644.0
311.607056 636.0
311.735321 712.0
311.86142 744.0
312.163727 58500.0
312.365906 304.0
312.837311 316.0
313.165283 4460.0
313.546997 220.0
314.17572 168.0
314.685669 160.0
323.130798 308.0
325.184357 448.0
328.175262 276.0
329.169983 2996.0
330.1651 404.0
331.128326 856.0
333.150269 512.0
335.165924 632.0
336.168671 192.0
337.15683 156.0
341.170441 4500.0
342.180389 924.0
343.178162 532.0
344.194214 208.0
349.142426 268.0
353.171326 12028.0
354.173004 2996.0
355.173248 744.0
360.134521 180.0
369.173401 440.0
371.1828 11196.0
372.188049 2956.0
373.187714 436.0
385.199524 156.0
387.192749 752.0
393.16745 396.0
393.369019 252.0
397.17157 544.0
398.192841 196.0
405.209045 356.0
415.189301 10412.0
416.19046 2496.0
417.200287 448.0
423.226746 188.0
427.257477 304.0
431.251617 156.0
433.197632 20792.0
434.198883 5340.0
435.210693 592.0
441.234344 812.0
447.208801 152.0
455.180817 636.0
457.200226 652.0
459.249542 8524.0
460.251129 2140.0
463.026794 160.0
475.20755 19132.0
476.212524 5624.0
477.257965 12988.0
478.266754 4200.0
479.260834 804.0
493.222107 1484.0
494.207794 304.0
501.267487 292.0
515.189697 684.0
519.258667 2112.0
520.260254 1108.0
521.207764 152.0
537.26947 360.0
545.308594 212.0
572.810608 212.0
581.27301 1312.0
582.28363 604.0
598.894897 228.0
599.296753 56008.0
599.735474 244.0
599.900208 280.0
600.30011 22936.0
601.295532 3320.0
602.291443 340.0
609.799194 152.0
623.316895 312.0
641.306946 9684.0
642.308044 2944.0
643.306091 644.0
659.320068 9876.0
660.317566 6044.0
661.012817 240.0
661.314575 776.0
674.476013 192.0
675.315674 280.0
676.33374 484.0
677.349182 360.0
678.348877 152.0
681.297546 5896.0
682.273804 236.0
END IONS
