BEGIN IONS
PEPMASS=487.115
CHARGE=1
MSLEVEL=2
SOURCE_INSTRUMENT=DI-ESI-qTof
FILENAME=gnps_Enhydrin_pos_MplusNa.mgf
SEQ=*..*
IONMODE=Positive
ORGANISM=GNPS-LIBRARY
NAME=Enhydrin M+Na
PI=Norberto Lopes
DATACOLLECTOR=Monica Pupo
SMILES=O=C([C@@]1([C@@H](O1)C)C)O[C@H]2[C@@H]3[C@H](OC(C3=C)=O)[C@H]4[C@](C)(O4)CCC=C(C(OC)=O)[C@@H]2OC(C)=O
INCHI=InChI=1S/C23H28O10/c1-10-14-16(31-21(27)23(5)11(2)32-23)15(29-12(3)24)13(20(26)28-6)8-7-9-22(4)18(33-22)17(14)30-19(10)25/h8,11,14-18H,1,7,9H2,2-6H3/b13-8+/t11-,14+,15-,16-,17-,18-,22+,23-/m0/s1
INCHIAUX=N/A
PUBMED=N/A
SUBMITUSER=rsilva
TAGS=
LIBRARYQUALITY=3
SPECTRUMID=CCMSLIB00000081683
SCANS=1
153.036804 450.0
201.072906 135.0
229.067596 227.0
257.055023 143.0
289.081116 108.0
311.063568 109.0
349.093536 295.0
371.078735 1075.0
375.074127 106.0
389.083252 737.0
412.099213 114.0
487.114899 3758.0
END IONS
