BEGIN IONS
PEPMASS=549.32
CHARGE=1
MSLEVEL=2
SOURCE_INSTRUMENT=LC-ESI-qTof
FILENAME=f.chenliangyu/B2-2 light/EtOAC/B2-2LE-C9.mzXML;
SEQ=*..*
IONMODE=Positive
ORGANISM=GNPS-LIBRARY
NAME=Antimycin A1 M+H
PI=Dorrestein
DATACOLLECTOR=Liangyu Chen
SMILES=CCCCCCC1C(C(OC(=O)C(C(OC1=O)C)NC(=O)C2=C(C(=CC=C2)NC=O)O)C)OC(=O)CC(C)C
INCHI=InChI=1S/C28H40N2O9/c1-6-7-8-9-11-20-25(39-22(32)14-16(2)3)18(5)38-28(36)23(17(4)37-27(20)35)30-26(34)19-12-10-13-21(24(19)33)29-15-31/h10,12-13,15-18,20,23,25,33H,6-9,11,14H2,1-5H3,(H,29,31)(H,30,34)
INCHIAUX=
PUBMED=12550
SUBMITUSER=chenliangyu
TAGS=
LIBRARYQUALITY=3
SPECTRUMID=CCMSLIB00000578442
SCANS=1161
136.034912 656.0
164.032791 1716.0
191.084702 912.0
219.08017 372.0
237.091583 12872.0
238.096054 2112.0
239.098724 336.0
247.07431 592.0
265.089203 6352.0
266.092621 1068.0
463.30722 3020.0
464.306519 624.0
549.382996 46632.0
550.382874 12812.0
551.375977 4176.0
552.373291 696.0
END IONS
