BEGIN IONS
PEPMASS=1859.06
CHARGE=1
MSLEVEL=2
SOURCE_INSTRUMENT=LC-ESI-Hybrid FT
FILENAME=f.novakj/Gramicidin_C.mzXML;
SEQ=*..*
IONMODE=Positive
ORGANISM=GNPS-LIBRARY
NAME=Gramicidin C M+H
PI=Havlicek
DATACOLLECTOR=
SMILES=[H]C(NC(=O)C(NC=O)C(C)C)C(=O)NC(C)C(=O)NC(CC(C)C)C(=O)NC(C)C(=O)NC(C(C)C)C(=O)NC(C(C)C)C(=O)NC(C(C)C)C(=O)NC(CC1=CNC2=C1C=CC=C2)C(=O)NC(CC(C)C)C(=O)NC(CC1=CC=C(O)C=C1)C(=O)NC(CC(C)C)C(=O)NC(CC1=CNC2=C1C=CC=C2)C(=O)NC(CC(C)C)C(=O)NC(CC1=CNC2=C1C=CC=C2)C(=O)NCCO
INCHI=
INCHIAUX=
PUBMED=26195308
SUBMITUSER=novakj
TAGS=
LIBRARYQUALITY=3
SPECTRUMID=CCMSLIB00000531490
SCANS=1
168.094284 1573220.0
171.920349 1848641.0
225.989975 2498086.0
248.139343 14514090.0
249.142624 2076245.0
256.129242 5896260.0
300.170685 1866743.0
302.10025 2163618.0
343.213135 2274341.0
361.223389 11766434.0
362.226685 2241736.0
369.213226 44941580.0
369.351715 1899115.0
370.216553 8366036.0
386.399323 1854995.0
391.284332 4012290.0
401.341187 2806675.0
409.382996 7753622.0
427.393463 3844438.0
440.250336 53485112.0
441.253693 10479233.0
451.451019 3236169.0
465.370422 2362574.0
479.482178 2973172.0
481.365082 2312424.0
486.249634 2111301.0
497.360352 1985763.0
505.498322 2542944.0
507.477478 2484485.0
507.513397 4186922.0
513.35498 3922408.0
535.545166 2404419.0
537.535461 4534259.0
538.519592 2948474.0
538.53894 2326205.0
539.318787 104389672.0
540.322021 28485300.0
541.325562 3949888.0
547.302734 14303887.0
548.305908 5780384.0
599.334229 6761465.0
600.33783 2887251.0
638.387268 101069984.0
639.390808 29944694.0
640.394226 5419346.0
660.386963 16833288.0
661.390686 5803572.0
663.453064 2601436.0
709.460999 6003800.0
719.445435 6415869.0
737.455811 88103952.0
738.459473 33062708.0
739.46283 6921812.0
762.39801 5052416.0
763.401489 2499612.0
823.450562 11030508.0
824.454224 5649863.0
875.481323 4159311.0
890.503601 5832264.0
891.005554 5999219.0
891.506775 3112734.0
899.508545 36314532.0
900.010132 42869708.0
900.511841 25661426.0
901.01355 9764375.0
921.031067 4589749.0
921.531555 4882453.0
923.5354 10887701.0
924.539307 5488854.0
930.035095 24780724.0
930.536804 32088020.0
930.84906 3851497.0
931.038269 18087156.0
931.539917 7588245.0
931.85022 2908521.0
932.040833 2847189.0
936.534424 8658777.0
937.538452 4322716.0
1036.618774 5035008.0
1061.56189 3932670.0
1122.614502 9333814.0
1123.618286 5810666.0
END IONS
