BEGIN IONS
PEPMASS=659.306
CHARGE=1
MSLEVEL=2
SOURCE_INSTRUMENT=LC-ESI-qTof
FILENAME=3b_7b_13b_17-O-tetracetoxy-15b-hydroxy-5a-O-methylbutyroyloxy-14-oxopremyrsinol.mgf
SEQ=*..*
IONMODE=Positive
ORGANISM=GNPS-LIBRARY
NAME=3,7,13,17-O-Tetraacetyl-5-O-(2-methylbutyryl)-14-oxopremyrsinol M+Na
PI=LITAUDON/TOUBOUL
DATACOLLECTOR=Esposito
SMILES=O=C1[C@@](C)(OC(C)=O)[C@@]2([H])[C@]([C@H](OC(C)=O)C[C@@]3([H])[C@]2([H])C3(C)C)(COC(C)=O)[C@H](OC(C(C)CC)=O)[C@@]4([H])[C@@H](OC(C)=O)[C@@H](C)C[C@@]41O
INCHI=
INCHIAUX=
PUBMED=N/A
SUBMITUSER=lfnothias
TAGS=
LIBRARYQUALITY=1
SPECTRUMID=CCMSLIB00000840342
SCANS=1
44.597179 31.347219
45.035015 52.570648
45.040142 18.0
47.534473 12.34722
53.013447 11.08333
55.054806 72.449997
55.060314 45.25
55.067966 22.01786
57.070198 1381.375977
57.079231 84.570663
57.085579 98.408897
57.090565 72.133057
57.096394 38.25
57.105042 44.657612
57.116371 23.04891
57.153484 12.55682
57.330582 45.680561
57.337578 24.03125
61.400108 17.75
64.978447 221.047897
64.993736 40.08654
65.000801 19.08654
66.735916 15.44643
67.053513 58.520828
67.060791 30.049999
69.068565 132.111801
69.075661 76.173782
71.049606 58.5
71.05703 29.125
71.519058 12.5625
74.722336 19.44643
79.202232 36.125
80.788986 19.04167
81.068115 134.035706
81.224472 24.14286
82.949104 90.89286
83.010902 497.138214
83.017921 137.617599
83.026459 53.409088
83.038094 15.34722
83.05027 331.17749
83.068398 43.570648
83.082222 12.125
83.449402 12.375
87.045509 70.432693
87.079475 114.1912
87.089355 40.083328
87.097412 22.28125
89.049484 66.333344
89.063789 75.007347
89.071678 40.200001
89.080444 15.625
91.05394 57.889709
93.06884 121.809998
93.393806 20.92045
95.050407 99.421509
95.085426 47.020828
95.092384 35.125
95.40638 15.04167
95.622398 29.035721
97.065224 19.049999
97.1017 186.484802
97.121857 23.04167
101.996696 14.24039
107.049179 30.339279
107.086281 77.111107
107.096924 24.125
109.390541 15.125
119.047249 135.193802
119.067963 12.125
119.085556 276.186707
119.106438 42.009621
119.115219 21.450001
119.123451 13.0
119.151817 11.01786
121.064583 99.005951
121.074059 51.049999
121.083534 17.04167
121.10022 62.13443
124.083382 67.053574
124.094894 25.0
125.022552 160.673599
125.030823 34.01786
125.041634 11.75
125.056908 156.595596
125.201599 18.450001
125.226311 19.44643
128.95282 484.160004
128.96167 93.689651
128.976959 26.480261
128.987991 20.009609
129.39888 18.225
129.984406 143.484802
129.997147 35.799999
131.085922 81.470589
131.097153 25.025
133.087509 15.08333
133.101151 81.004997
133.110962 29.0625
133.167343 18.01136
133.544235 35.375
135.117844 27.125
137.059647 83.138512
137.071182 31.560181
137.09729 59.375
137.106934 34.680561
138.100327 21.778851
138.10907 14.5625
141.069611 254.344101
141.10495 15.375
143.031952 82.020844
143.055283 18.08333
143.084259 43.066181
144.926636 175.408203
144.94191 23.57143
144.949768 11.75
145.101257 131.259399
145.113953 62.408329
145.382858 32.03125
147.079559 158.005402
147.092728 33.57143
147.108215 14.04167
147.119186 24.25
147.133499 11.0
147.552124 11.16071
148.083603 25.285721
149.096268 91.390633
150.643433 11.66667
152.660233 18.16346
155.0858 48.25
155.105042 15.01389
155.781998 12.0625
156.044113 49.666672
156.055649 28.01136
156.090637 52.25
156.101303 24.01136
157.100769 382.528992
157.124298 37.125
158.10376 12.45
158.224426 12.8
158.788254 24.28409
159.078598 139.428604
159.0914 60.059212
159.102188 29.10227
159.116302 23.25
159.497864 13.01136
159.565414 11.04167
161.019241 15.225
161.096558 232.352905
161.10994 90.840912
161.120972 27.450001
161.182541 13.5625
161.233078 11.75
163.076218 109.612503
163.084229 38.041672
165.068665 58.111839
165.087646 18.125
166.072906 172.598694
166.098801 24.5625
167.070251 105.084503
167.086136 122.004997
167.102982 11.375
169.101166 263.526306
169.124741 29.66667
169.49884 13.2
170.10997 33.480259
170.122879 19.01786
171.081375 44.224998
171.090881 20.0
171.112656 109.925598
171.122238 12.34722
171.131882 13.01136
172.016327 17.013889
173.096115 68.138512
173.108658 31.17308
173.131577 43.00658
173.140808 20.0
173.421707 24.778851
174.098267 34.125
174.114441 11.33333
175.113083 66.004311
175.138458 11.0
176.114685 39.799999
176.131805 25.408331
177.092239 118.368896
177.103363 62.200001
178.070023 102.1912
178.094315 17.125
179.069839 113.574997
179.085541 72.640961
179.095581 28.53289
179.10524 11.01389
179.398361 16.375
181.101181 637.173889
181.110458 55.80278
181.126602 28.799999
181.137619 23.125
181.150604 10.45
181.286545 23.08654
181.297714 12.44643
181.336151 11.32143
181.652527 13.04167
181.790298 37.444439
181.801361 15.625
182.104889 80.043114
182.310455 17.778851
182.319153 20.0
183.078568 132.285706
183.090637 71.01136
183.116241 88.222221
183.125961 57.007351
183.15181 11.0
184.121628 190.914597
184.135361 69.0
184.147583 28.347219
185.055435 23.009609
185.093796 28.25
185.103531 19.44643
186.100693 135.686401
186.727524 13.47115
186.737457 17.347219
186.920593 17.450001
187.10936 172.704193
187.135025 21.408331
187.25444 23.92045
188.113876 48.090912
188.428391 11.04167
189.695984 11.8
191.454315 11.225
193.101074 122.556
194.105942 156.0
194.116135 43.408329
194.127289 29.007351
194.137985 13.16346
195.077759 53.75
195.116501 675.892029
195.144241 38.01786
195.165985 12.34722
195.175949 12.00833
195.484222 25.375
196.089355 88.117653
196.097565 45.92046
196.120041 50.125
196.159546 14.025
197.094528 104.0317
197.109283 22.44643
197.130081 268.209015
197.142426 79.001923
197.154465 21.0625
197.247726 11.05
197.469971 11.01786
198.100021 72.816673
198.12352 11.0
198.237976 22.57143
199.113678 131.694901
199.139648 24.008329
199.368317 38.645
199.377029 22.0
201.12796 52.083328
202.076782 58.224998
202.09375 15.0
203.087219 25.0625
203.598434 10.25
205.085251 59.075001
205.101761 78.512497
205.121567 17.625
205.403961 18.375
206.126434 40.32143
206.147507 10.225
206.487701 17.125
207.116226 708.18811
207.133499 58.125
207.143829 46.022732
207.15329 44.941181
207.178421 11.34722
208.119446 128.449997
208.132141 13.625
209.031876 90.907257
209.0466 38.025002
209.097244 95.333344
209.132843 199.685104
209.145859 30.75
209.155853 10.875
209.706558 15.47115
210.11409 90.728447
210.135422 247.004898
210.149323 46.132351
210.162323 13.05
210.175323 12.375
210.773407 14.04167
211.074631 86.14286
211.111755 257.409088
211.121582 137.603607
211.135559 34.55603
211.148163 67.349998
212.114288 433.033813
212.127853 112.0056
212.141266 38.779411
212.153366 20.16346
214.13324 196.846207
214.172607 13.34722
214.989731 58.55682
215.015701 14.0
215.108047 57.375
215.13562 116.289299
215.15155 75.489868
215.163712 20.0
215.172638 13.125
219.118591 213.739899
219.134644 24.347219
220.127731 60.44022
220.139282 37.450001
221.098221 254.724197
221.114487 77.019234
221.132935 32.408329
221.588898 22.0625
222.098022 77.470589
222.115234 38.197578
222.137054 184.083694
222.157394 22.444441
222.168213 15.5625
223.097153 38.224998
223.112198 266.15921
223.146637 55.16346
223.159714 19.57143
224.123444 26.75
224.134262 14.16071
225.127136 631.120422
225.143234 78.644997
225.16246 238.030304
225.178116 15.0
225.19194 37.01667
225.206833 11.08654
225.334412 14.125
225.410278 41.090912
225.425568 12.08333
225.535004 13.04167
226.095718 38.03125
226.108383 17.01786
226.172714 29.0
226.187103 12.0
226.401749 11.00961
227.109131 57.00544
227.124466 21.125
227.135284 38.013889
227.150925 15.01786
227.379379 14.00961
228.891678 24.16346
229.124512 20.0625
230.108154 114.285698
230.139542 16.08333
231.097992 135.064499
231.108322 76.120087
231.119843 24.240391
231.130493 17.125
233.133713 103.531898
233.148056 22.08333
234.099915 20.471149
234.124008 51.400002
234.137558 116.235497
234.154816 76.78125
234.168564 21.875
234.498322 72.670464
234.51001 31.44643
234.918823 89.080132
235.109482 159.654007
235.117905 216.625
235.133362 71.199997
235.150925 36.05357
235.161911 12.08333
236.117096 11.16071
236.944595 22.008329
237.148788 33.444439
237.162994 52.23077
237.741287 18.375
238.13118 303.969208
238.151489 22.0
238.169998 52.022732
239.089783 71.285713
239.120773 11.68056
239.172165 113.760399
239.449615 20.08333
239.640533 30.595591
239.706161 30.035721
240.107803 68.165543
240.12001 31.66667
240.147369 80.942307
240.161026 26.125
240.18425 55.272732
240.196899 18.408331
240.779755 19.408331
241.120132 38.166672
241.132233 21.33333
241.158081 69.68145
241.898865 24.125
242.162033 117.716797
242.194336 18.347219
243.138092 291.94281
243.164062 27.013889
243.176422 63.117649
243.189682 13.75
243.936188 156.507797
243.966888 28.471149
244.124573 68.191177
244.146698 14.2
244.501877 27.53125
244.558273 24.360291
245.118073 83.480263
245.146347 17.0625
246.119705 98.132347
246.14888 20.160721
249.163818 815.619202
249.18956 61.25
249.205505 31.00658
249.233047 12.00961
249.401566 11.225
249.51326 11.01389
249.609161 13.28409
249.663925 30.375
249.679626 13.125
249.746994 23.0
250.169937 218.934006
250.186661 16.125
250.198166 20.0
250.60582 13.05
251.141235 34.408329
251.178146 480.480103
251.192825 45.009621
251.209915 27.694441
251.221695 16.0
251.280502 19.08333
252.182373 222.373093
252.195068 45.083328
252.433975 27.0
253.124329 150.160004
253.157181 706.584473
253.172089 223.783707
253.184708 79.10714
253.61525 31.6875
253.633514 13.01786
253.67807 14.0
254.125809 74.134438
254.16185 193.016693
254.174149 75.204536
254.19017 27.92045
255.136917 198.152405
255.1689 30.0
255.265991 11.28409
257.190125 67.107758
257.204163 28.013889
259.149139 154.322006
259.162048 56.720242
259.176849 31.875
259.929199 13.025
261.154297 132.181793
261.170563 77.440224
262.135864 458.910889
262.148987 63.92046
262.166199 66.75
262.178772 14.01389
262.190674 15.55682
263.134857 63.310341
263.148041 31.33333
263.936554 18.025
265.157776 223.643707
265.187897 37.150002
265.94046 50.075001
266.160767 76.099998
266.179474 31.55682
267.173737 1028.708008
267.189423 237.837006
267.202454 123.166
267.216583 30.242649
267.231293 11.45
267.292114 29.20833
267.30423 33.777779
267.53363 34.027779
267.707214 38.022732
267.968109 23.450001
268.179016 71.764709
268.750397 15.025
269.103729 79.058823
269.176147 17.66667
269.193146 60.008339
269.208435 17.44643
270.667542 13.02778
271.132538 223.367599
271.148132 78.008331
271.16629 42.244999
273.159149 69.400002
273.172668 31.64286
273.189606 11.05
274.911224 133.444702
277.157837 1160.630981
277.189026 118.787201
277.207458 25.01786
277.229065 15.28571
277.72876 15.2
277.781494 47.007351
277.891815 12.0
277.970703 12.08333
278.159302 50.78125
278.926025 12.66667
278.997009 12.33333
281.182922 213.801697
283.172028 177.729706
283.204803 20.0
284.169342 23.049999
284.536194 37.2663
285.09552 41.008339
285.108124 20.04167
285.18457 195.021896
285.202515 55.02206
286.12326 18.049999
286.19339 147.111298
286.204285 24.778851
286.226868 18.008329
287.088531 76.900002
287.10614 21.160721
287.437958 21.25
287.456757 11.44643
291.123779 94.396744
291.153229 12.33333
293.268768 12.2
294.16153 113.061302
295.129547 97.25798
295.15329 62.222832
295.169769 2179.100098
295.186768 340.366913
295.202087 234.843994
295.216553 53.361111
295.245148 24.29167
295.261932 12.08333
295.523773 24.240391
295.634064 11.375
295.908356 11.08333
296.173126 524.482971
296.191498 83.777779
296.231476 23.450001
296.973572 26.0
296.989655 32.78125
297.002289 13.375
297.173126 54.244999
297.19162 21.0
299.137817 142.778793
302.071899 44.778221
302.907135 58.36742
305.154419 183.052597
305.170013 43.164471
305.18689 13.25
306.153839 30.16346
306.166992 11.025
307.164673 59.11364
309.182648 103.107803
313.180023 235.011398
313.196259 122.009598
313.209991 27.0
313.225403 19.36364
314.184265 66.245003
314.214966 14.01786
316.684448 10.55682
317.127258 13.0625
317.152039 1341.387939
317.169037 254.712006
317.188263 115.777901
317.201599 26.04167
317.227936 54.44022
317.247742 16.0
317.37561 15.00833
317.508606 33.125
317.974457 35.805
317.986969 19.44643
317.997131 11.5625
318.156311 220.857101
318.176849 82.510406
318.195282 24.25
322.15213 30.89286
327.19516 360.667114
327.229919 36.03125
327.521057 20.5625
328.199768 159.122803
328.220642 28.285721
328.233002 12.68056
329.191589 18.375
330.818756 16.0
331.188202 44.694439
331.210938 11.025
333.186554 47.284088
335.157349 76.722221
335.169312 75.201607
335.184021 23.32143
335.196838 18.10227
336.169464 37.0625
337.172974 149.906799
337.209259 23.285721
338.20697 45.361111
341.281067 34.059212
349.178528 41.075001
351.410034 12.0625
355.193176 200.573395
355.228973 15.25
355.24292 11.0
356.192902 48.01786
356.209778 15.44643
361.210052 21.025
364.16983 20.04167
365.13327 39.025002
365.153442 12.025
370.876678 59.25
370.894409 53.0
370.937805 13.10227
371.182098 98.625
375.003876 41.013889
375.017792 23.04167
376.207642 14.01786
377.172852 1845.72998
377.210297 120.022697
377.238495 20.0625
377.291321 18.200001
377.488129 12.14286
377.664124 24.01136
377.678802 16.375
377.721954 19.240391
377.801971 23.55769
377.94754 46.166672
378.173584 683.378784
378.188782 167.695602
378.208008 57.25
378.227722 10.5625
378.279297 56.090912
378.316193 11.45
379.037201 22.799999
379.160156 13.01389
379.182068 96.133331
379.211945 18.28409
381.198578 44.125
381.232147 31.32143
381.245483 17.375
381.906067 99.015633
382.518127 14.01389
387.215729 33.090912
387.236755 15.10227
388.221832 66.765633
388.236511 34.01136
388.921417 19.25
391.185883 34.57143
393.196594 21.595591
395.182373 940.007385
395.197632 185.408295
395.216064 70.036293
395.235077 43.400002
395.252747 15.04167
395.310364 14.0
395.669647 11.04167
395.685577 33.520828
395.699677 11.125
395.743958 37.471149
396.184998 113.266502
396.206451 51.160709
398.241974 34.14286
407.180054 19.89286
409.200195 64.765633
409.217224 23.025
409.240295 41.89286
409.259155 13.0
410.200439 142.408295
410.226624 14.225
414.915558 71.400002
415.204529 88.197578
415.24353 12.375
419.224396 196.111404
419.256836 28.05921
420.158356 38.009621
420.175507 45.907261
420.201721 14.025
420.221283 120.574402
429.298615 31.111111
431.118439 12.025
431.985809 53.059212
435.246887 21.08654
435.262054 16.66667
437.193085 2089.375977
437.210144 526.306885
437.232147 143.757797
437.263733 27.01136
437.281708 11.08654
437.718811 13.125
437.784698 30.20833
437.819214 10.225
437.942169 32.654411
438.022919 14.8
438.125275 33.375
438.195068 677.040527
438.214203 85.232689
438.234802 62.845001
438.253296 29.027781
438.723206 23.10227
439.197021 141.489899
439.210571 62.355389
439.229065 20.5625
439.532074 10.5625
442.952087 25.5625
451.258911 45.183819
451.278259 16.375
452.96759 101.0
452.988647 34.5625
453.007599 13.08333
453.261322 17.450001
455.204834 184.666702
455.246857 17.89286
455.848511 13.25
456.210419 185.490204
456.232452 32.004311
457.261169 72.757584
457.279785 28.625
458.253632 80.599998
458.271637 78.111107
458.296143 10.225
460.018372 20.625
461.22818 11.0625
461.424438 10.28409
465.95932 70.32692
465.983093 27.347219
465.997955 12.225
466.217468 23.04167
469.21933 99.199997
469.237915 32.083328
470.221008 179.307693
470.239166 67.845001
470.414642 14.25
475.228821 44.226849
475.253815 15.25
479.238251 3003.795898
479.296539 78.235291
479.332764 26.78125
479.360718 18.14286
479.509949 22.45455
479.554688 13.08654
479.685272 47.56818
479.701447 24.322371
479.743347 18.75
479.815643 32.272732
479.853943 11.025
480.040131 36.08654
480.071167 11.25
480.17984 17.0
480.242279 833.494873
480.287415 33.680561
480.491547 14.34722
481.099304 12.01389
481.24173 245.485794
481.282104 25.01786
481.453949 21.049999
482.151703 13.5625
482.246735 12.875
485.929321 42.599998
485.950714 23.0
491.263977 48.44907
495.997467 13.04167
496.282654 34.5
496.305359 17.225
497.169281 42.027779
497.214203 1173.852051
497.249146 98.557693
497.313812 58.43214
497.377686 12.16071
497.409637 18.008329
497.712006 11.0625
497.861359 41.008339
498.00351 25.0
498.077301 20.0
498.129364 19.92045
498.21579 626.362915
498.254608 64.050003
498.453033 35.625
498.468719 12.25
499.220337 37.166672
499.24054 19.44643
499.312866 14.04167
500.21933 11.32143
500.235413 35.102268
504.953949 44.5625
504.980774 13.44643
506.458008 14.57143
512.270508 82.671303
512.292175 53.799999
515.224976 51.722221
515.246094 23.28409
517.270813 33.075001
518.281921 134.355392
524.201477 55.55603
525.142883 27.92045
525.356995 61.765629
534.25946 25.01786
535.685852 23.0
535.872681 30.08333
538.706238 26.53125
538.723816 12.16071
539.261719 5702.883789
539.305115 399.615112
539.359314 21.04167
539.420227 33.01136
539.469482 19.78125
539.507812 26.10227
539.527893 11.16071
539.702026 27.049999
539.730835 40.004631
539.748535 16.16346
539.770569 42.36364
539.789673 58.003792
539.808899 12.225
539.823547 75.053574
540.017639 32.009621
540.096863 34.654411
540.170837 15.375
540.194702 14.25
540.238342 138.001694
540.264038 2695.895996
540.30719 238.289993
540.357544 15.66667
540.398438 43.075001
540.483398 75.222221
540.503174 32.1875
540.631409 66.289284
540.65094 22.57143
540.67981 11.92045
540.744934 13.25
540.84436 10.68056
541.054321 56.603569
541.079773 22.125
541.093933 37.0
541.128845 19.16346
541.146912 17.01786
541.264099 659.15979
541.309814 48.041672
541.32074 20.01786
541.33728 14.025
541.402344 11.45
541.472656 18.625
541.59729 54.245689
541.617737 45.224998
541.81427 11.125
541.863281 19.225
542.269714 102.969299
542.552002 21.0
542.866821 39.674999
542.885803 12.225
543.081482 30.875
543.79303 11.24039
547.262756 166.764694
547.327148 12.04167
548.290039 25.009609
550.932861 44.059212
550.95874 12.375
552.737244 11.68056
553.272461 106.551498
553.297058 35.224998
557.22522 171.508896
557.243896 54.0
557.270325 112.219597
557.312622 17.875
558.228821 168.966095
558.248169 17.08333
558.650024 21.049999
559.324341 65.560188
559.341064 48.200001
565.967163 23.78125
577.301697 32.102268
577.326599 19.125
584.447876 15.24039
586.036438 43.57143
596.138916 54.92308
596.166321 16.0625
596.664917 11.66667
596.94751 57.666672
596.972656 20.125
597.187012 15.0
597.785522 22.471149
597.993958 16.25
599.014221 31.242649
599.189514 61.76923
599.208984 28.0625
599.282104 10150.419922
599.386475 38.125
599.424438 23.08333
599.456116 26.183821
599.485291 19.066179
599.519531 63.055561
599.544617 33.224998
599.569214 24.480261
599.591125 47.387821
599.616821 14.375
599.642517 74.002449
599.668945 39.083328
599.734558 84.480766
599.761902 38.17308
599.817932 33.125
599.848755 21.674999
599.882568 18.28409
599.918518 28.55682
599.94165 22.01786
599.983459 18.01136
600.039185 44.01136
600.062805 47.375
600.092651 32.005951
600.11084 27.240391
600.130432 15.04167
600.148682 30.89286
600.185608 40.0
600.208984 19.33333
600.255371 99.23156
600.285217 5557.480957
600.306396 1233.968018
600.327515 400.98761
600.379883 48.135872
600.396851 32.56818
600.419983 49.066669
600.435791 17.125
600.457642 13.675
600.487671 57.285709
600.50238 39.89286
600.527039 22.5625
600.56665 43.91848
600.584045 36.56818
600.644714 16.0
600.660217 26.480261
600.708313 49.07692
600.726074 45.044998
600.755615 42.0
600.776001 59.560181
600.839172 17.5625
600.896729 11.0625
600.924866 40.25
601.011658 18.16667
601.058472 13.01136
601.076477 12.34722
601.143433 12.01786
601.288635 1144.291992
601.355347 45.44643
601.391235 38.00658
601.459778 15.55682
601.480835 14.00735
601.526062 18.92045
601.564087 22.125
601.619934 11.04167
601.678589 11.225
601.729065 29.4
601.75531 27.78125
601.771423 45.0
601.889221 19.55682
601.937927 28.035721
601.959412 12.025
601.984497 28.0
602.18335 26.92045
602.210083 45.183819
602.234131 15.75
602.29425 217.040604
602.315125 87.960114
602.341003 11.625
602.361206 14.00833
602.411621 37.007351
602.430725 35.375
602.600281 11.25
602.632263 18.55682
602.83075 20.25
602.849854 12.16071
602.996704 15.0
603.288696 19.450001
603.3573 14.68056
607.856201 12.24039
635.179688 12.16071
635.970337 43.01786
645.061279 46.111111
646.103027 12.625
657.875305 11.34722
658.78009 18.240391
659.303345 3044.552002
659.406616 12.125
659.437439 12.0
659.45575 30.94231
659.479492 16.25
659.563965 15.5
659.623413 13.44643
659.676086 18.680559
659.777222 23.03125
659.801453 40.76923
659.818054 47.2663
659.8396 19.0
659.92334 68.361107
659.948669 43.92308
659.972534 20.32143
660.042297 11.44643
660.083374 12.44643
660.102112 16.25
660.166382 19.04167
660.275085 73.603569
660.309021 1910.110962
660.355652 173.593796
660.387146 44.041672
660.417969 24.680559
660.437073 28.89286
660.461792 27.14286
660.496826 12.625
660.541443 11.08333
660.738892 39.30769
660.763062 10.375
660.87677 16.04167
660.919128 21.125
660.942993 20.28409
660.967896 10.92045
661.151001 61.148811
661.17511 25.66667
661.30957 330.188202
661.355042 69.321808
661.37384 41.055561
661.423279 13.375
661.435608 10.16071
661.481812 187.196396
661.542725 18.57143
661.922241 21.92045
661.941895 12.01389
662.036194 12.05
662.082397 25.66667
662.097168 11.225
662.308777 109.212997
662.335999 20.0
662.489685 136.857101
662.512146 35.674999
662.536011 47.25
662.564392 14.0
662.586731 14.01136
662.826111 20.799999
662.953796 14.10227
663.55188 18.44643
663.695007 22.32143
682.144775 256.625
682.180725 103.531303
682.227478 33.125
682.248779 30.20833
682.272827 32.066181
682.294556 35.0
682.318848 19.889709
698.757385 40.148811
698.774231 18.0
714.940247 30.57143
718.437134 15.8
745.03241 13.0
761.112305 17.680559
823.869324 20.075001
823.8974 12.225
856.70813 23.0
879.170654 15.00833
894.610962 25.33333
969.276489 11.24039
980.665161 20.5
END IONS
