BEGIN IONS
PEPMASS=1168.66
CHARGE=1
MSLEVEL=2
SOURCE_INSTRUMENT=LC-ESI-Ion Trap
FILENAME=f.arihiro1013/purecompounds_2ndconversion/201909_hoshinoamideA (2)..mzXML;
SEQ=*..*
IONMODE=Positive
ORGANISM=GNPS-LIBRARY
NAME=HoshinoamideA M+Na
PI=Gerwick
DATACOLLECTOR=Arihiro Iwasaki
SMILES=OC1=CC=C(CCCC(NCCCCCC(N([C@H](C(N[C@@](C(N([C@H](C(N[C@H](C(N[C@H](C(N([C@@H](C(N2[C@@H](CCC2)C(OC)=O)=O)CC3=CC=CC=C3)C)=O)C(C)C)=O)CCC(N)=O)=O)C(C)C)C)=O)([H])[C@H](CC)C)=O)CC(C)C)C)=O)=O)C=C1
INCHI=InChI=1S/C61H95N9O12/c1-13-41(8)53(66-56(76)47(36-38(2)3)67(9)51(74)27-18-15-19-34-63-50(73)26-20-24-42-28-30-44(71)31-29-42)60(80)69(11)54(40(6)7)57(77)64-45(32-33-49(62)72)55(75)65-52(39(4)5)59(79)68(10)48(37-43-22-16-14-17-23-43)58(78)70-35-21-25-46(70)61(81)82-12/h14,16-17,22-23,28-31,38-41,45-48,52-54,71H,13,15,18-21,24-27,32-37H2,1-12H3,(H2,62,72)(H,63,73)(H,64,77)(H,65,75)(H,66,76)/t41-,45-,46-,47-,48+,52-,53-,54-/m0/s1
INCHIAUX=
PUBMED=30387355
SUBMITUSER=arihiro1013
TAGS=
LIBRARYQUALITY=3
SPECTRUMID=CCMSLIB00004722215
SCANS=513
380.116516 62285.0
396.758179 199357.0
509.591187 105961.0
537.213135 49448.0
540.542725 189658.0
550.195312 1346808.0
551.392822 231984.0
556.258789 669737.0
557.013184 10.0
565.369995 91678.0
566.567871 42545.0
569.391235 174734.0
595.564331 124749.0
605.499878 203500.0
607.289795 314618.0
635.518066 129406.0
644.830688 102837.0
651.375854 2084215.0
653.314819 3563274.0
654.21936 48.0
663.2771 260445.0
665.397705 12050.0
668.541626 1922166.0
669.21521 48.0
717.046143 416705.0
731.703491 145546.0
734.179077 310118.0
735.538086 673454.0
736.262695 17.0
749.505127 84982.0
750.70166 187983.0
751.388184 10142482.0
752.195068 70.0
759.463135 33314.0
765.991943 1216401.0
766.605225 354488.0
767.366699 2.0
776.146362 3028444.0
777.023193 79081.0
779.362305 10811256.0
780.025635 101646.0
796.166382 55754.0
849.942505 1555206.0
850.574219 18697936.0
851.374023 18.0
860.029419 255902.0
860.686157 94357.0
875.662476 92883.0
878.410767 7883475.0
879.222046 6.0
910.695557 226241.0
974.759033 71855.0
975.635254 500990.0
1023.506226 780364.0
1024.199951 4.0
1039.497803 64493.0
1053.212402 132953.0
1055.376465 184293.0
1062.213867 231445.0
1108.612793 47771.0
1136.537109 106395.0
1150.820801 7015031.0
1151.657227 4405422.0
1152.51123 58.0
1168.585938 77579024.0
1169.852051 242015.0
1170.466553 4.0
END IONS
