BEGIN IONS
PEPMASS=1227.0
CHARGE=1
MSLEVEL=2
SOURCE_INSTRUMENT=DI-ESI-Ion Trap
FILENAME=Syringomycin_E_IT_1227mz.mzXML
SEQ=*..*
IONMODE=Positive
ORGANISM=GNPS-LIBRARY
NAME=Syringomycin E M+H
PI=Dorrestein/Moore
DATACOLLECTOR=Roland Kersten
SMILES=ClC[C@@H](O)[C@H]1C(=O)OC[C@@H](C(=O)N[C@H](C(=O)N[C@H](C(=O)N[C@H](C(=O)N[C@H](C(=O)N[C@H](C(=O)NC(=C/CC)\C(=O)N[C@@H](C(=O)N1)C(O)C(=O)O)Cc2ccccc2)CCC/N=C(\N)N)CCN)CCN)CO)NC(=O)CC(O)CCCCCCCC
INCHI="InChI=1S/C53H85ClN14O17/c1-3-5-6-7-8-12-17-30(70)25-39(72)60-37-28-85-52(84)40(38(71)26-54)67-50(81)41(42(73)51(82)83)68-46(77)31(14-4-2)61-47(78)35(24-29-15-10-9-11-16-29)65-43(74)32(18-13-23-59-53(57)58)62-44(75)33(19-21-55)63-45(76)34(20-22-56)64-48(79)36(27-69)66-49(37)80/h9-11,14-16,30,32-38,40-42,69-71,73H,3-8,12-13,17-28,55-56H2,1-2H3,(H,60,72)(H,61,78)(H,62,75)(H,63,76)(H,64,79)(H,65,74)(H,66,80)(H,67,81)(H,68,77)(H,82,83)(H4,57,58,59)/b31-14-/t30?,32-,33-,34-,35-,36-,37-,38+,40-,41+,42?/m0/s1"
INCHIAUX=N/A
PUBMED=N/A
SUBMITUSER=mcruesemann
TAGS=
LIBRARYQUALITY=3
SPECTRUMID=CCMSLIB00000075327
SCANS=90
342.106049 50.347
343.033112 32.113106
343.650757 18.558361
344.304413 3.019222
345.219849 39.652557
346.356964 34.525566
346.885193 59.867439
348.230133 43.863693
348.997314 6.861515
349.985992 24.772562
351.083588 169.096771
352.113373 427.806702
353.02005 187.77417
354.150909 69.281776
355.062012 58.953274
356.358093 7.556426
357.200745 18.841902
358.226227 2.732835
359.319489 18.885967
360.121796 18.067736
361.283813 64.244553
361.925842 75.296989
362.454559 1.200494
363.030334 90.274864
364.086212 99.801216
365.048798 36.099674
366.095856 15.180376
367.241821 51.677254
368.141266 916.139526
369.157898 1175.713867
370.164062 2457.857178
371.092072 703.283325
372.359833 41.163368
373.197998 60.176682
374.285278 27.090162
375.397247 74.563835
376.344757 49.759907
377.234436 34.948837
378.002441 73.958374
378.576721 29.426373
379.325409 15.215919
380.21579 121.854637
381.102356 417.802795
382.07489 134.178238
383.384552 63.300961
384.321289 7.882361
385.244415 37.09531
386.13678 457.297211
387.172546 5547.991211
388.147919 1389.221924
389.205536 162.775742
390.447327 31.093353
391.301575 64.708191
392.230255 6.955254
393.249023 233.754333
394.182373 69.522285
394.776062 17.949133
395.375458 61.064148
396.142761 137.215836
397.242584 120.949821
398.292145 44.795998
399.124756 104.143257
399.927734 17.319927
400.499969 49.231232
401.194946 7.480472
402.29303 34.102543
403.237091 51.676098
404.142548 476.969055
405.194641 2059.070312
406.237488 252.495148
407.325165 141.944778
408.143402 98.036232
409.018158 158.573578
409.636353 1.877051
410.150421 186.349731
411.137543 217.093201
412.142822 290.903229
412.818176 1.318936
413.319 99.111076
414.12439 32.39996
415.257416 53.733871
416.110779 234.341003
417.318268 122.64106
418.225037 79.925446
419.193329 51.24588
419.99649 76.941391
421.15155 80.223564
422.133087 147.837341
423.116516 61.663643
424.172272 133.863586
425.152252 358.944916
426.221863 87.86161
427.125519 618.049133
428.227783 551.704529
429.1987 1647.267944
430.294189 417.82135
431.129852 9.409767
431.992523 161.271317
433.105377 78.972557
434.170013 45.814281
435.221558 74.085052
436.299927 215.920074
437.171753 455.241058
438.000244 37.467312
438.528229 32.14402
439.183777 713.704102
440.155029 290.064301
441.286316 229.199615
442.237427 137.37149
443.240662 197.019669
444.189362 2018.04248
445.267395 603.813354
446.192902 5682.94043
447.378082 863.827026
448.262543 136.087311
449.365906 6.844585
450.295166 87.248329
451.098297 88.757751
452.210724 550.969788
453.154572 399.502045
454.229065 983.766846
455.193359 495.93811
456.239471 935.36377
457.092194 376.414886
458.059357 187.822296
459.152313 388.226379
460.201599 87.441292
461.182526 152.82193
462.206787 418.523407
463.218414 118.561287
464.037689 106.345329
465.289581 280.846069
466.034454 84.066681
466.545471 6.814461
467.078552 68.249077
467.660309 17.743746
468.269379 117.038101
469.226349 904.41803
470.284546 940.642212
471.201721 197.923615
472.279236 305.966614
473.487213 70.131004
474.238251 524.024292
475.253052 157.987793
476.190308 149.674606
477.19516 134.59993
478.34259 136.394684
479.11673 200.235962
480.095856 75.132736
481.130676 1159.738159
482.152161 1192.008545
483.161224 3821.926025
484.182281 931.132751
485.188934 218.264923
486.347351 88.744247
487.246155 1615.659912
488.202881 447.024719
489.156342 182.1353
489.727264 3.630175
490.271881 103.580963
491.173492 12.832894
492.189514 194.644516
493.228577 504.781921
494.260132 314.673035
495.140778 110.176918
496.253296 111.483589
497.188232 91.378754
498.054321 185.131119
499.251801 2176.211426
500.207275 19732.458984
501.188019 5698.930176
502.288971 1247.443726
503.198242 161.197647
504.100311 89.495499
505.16156 543.942322
506.249603 225.842636
507.284485 315.469452
508.233551 165.561493
509.138489 269.041351
510.271027 376.778625
511.252289 844.656128
512.217102 184.943985
513.175171 256.308746
514.285095 13.190881
515.06311 356.81488
516.312988 166.032181
517.267883 3236.274902
518.2099 15233.915039
519.213196 4905.635742
520.204346 1350.150635
521.307007 392.494354
522.147217 339.752502
523.204224 227.148621
524.049561 344.477478
525.203552 142.057129
525.792908 206.382935
526.333557 772.289246
527.247559 277.335663
528.218933 1011.566711
529.283997 979.311462
530.364197 264.156464
531.271118 100.641075
531.924438 64.864647
532.452759 7.55667
533.361938 19.198301
534.225342 27.368502
535.206543 539.061584
536.193298 3226.638916
537.28418 10103.280273
538.293457 3020.211182
539.266235 842.700867
540.206238 309.206268
540.727295 7.507519
541.298035 150.694656
542.211365 323.487976
543.278198 654.139709
544.216431 937.201782
545.250793 401.64444
546.199829 502.643402
547.0495 257.895966
547.647156 53.341793
548.248413 299.690033
549.109314 59.16655
549.612854 30.622004
551.185364 120.297417
552.239319 38.593521
553.060852 62.218025
553.585449 19.605619
554.266541 496.049744
555.274597 2780.352539
556.243042 2021.783203
557.204468 499.923615
558.251282 199.840866
559.122986 87.625656
560.210876 146.835846
561.260742 5466.453125
562.265686 1567.776978
563.275513 321.171997
564.366577 235.940903
565.215515 1590.369385
566.19989 850.47113
567.273987 401.65744
568.29303 18.943155
568.91803 60.886459
569.450073 48.816273
570.4328 47.67284
570.977844 10.810974
571.572266 69.775467
572.239563 160.569687
573.233765 5014.509766
574.205994 1675.681519
575.256714 797.588928
576.282227 407.551605
577.34137 254.448318
578.055725 200.854935
579.219666 1200.361572
580.164551 581.75415
581.275452 967.969666
582.246033 3409.137451
583.245667 4722.945801
584.160828 1173.949097
585.181824 337.866638
585.970947 24.157721
586.494507 88.453888
587.310364 177.287598
588.309814 33.425983
589.260315 7.376715
590.247009 244.58139
591.228333 1003.813599
592.227356 663.131409
593.210571 1506.648071
594.262756 434.49231
595.184204 68.794601
595.69989 83.619308
596.281128 97.831383
597.215881 2854.616943
598.199524 2675.426758
599.261963 3175.956787
600.289001 9724.775391
601.280334 3779.419922
602.173828 653.620056
603.144775 127.986557
604.012451 25.283121
604.549316 26.743286
605.122375 59.544884
605.767456 2.5003
606.350098 32.071667
607.253418 242.057571
608.241455 349.905243
609.238342 878.480286
610.148682 1082.532837
611.193481 866.68335
612.191406 623.142822
613.102234 93.373817
613.673401 12.683357
614.388977 188.032654
615.110291 67.22126
616.190552 4452.160156
617.267395 9119.933594
618.263306 13760.351562
619.298828 3993.092529
620.328491 766.805481
621.228333 117.142494
622.431824 99.212204
623.163574 215.457993
624.154968 86.340302
625.354553 243.241943
626.266846 1141.035278
627.292297 402.964081
628.267517 101.95507
629.270569 715.439453
630.180298 241.49826
631.37854 107.639359
632.35083 182.659851
633.412415 179.485565
634.156555 946.418884
635.234009 20812.25
636.250244 7597.125488
637.232971 2199.391846
638.203918 720.065552
639.223328 488.303497
640.329773 357.731812
641.282532 262.359802
642.349792 174.349136
643.27948 1607.599976
644.251404 783.551147
645.312378 341.861176
646.174255 354.802124
647.158325 214.921371
648.416077 54.173649
649.477661 420.630219
650.414001 411.350891
651.281372 263.12439
652.136963 19782.855469
653.192139 19396.800781
654.193848 14140.030273
655.251709 4782.902832
656.321228 1530.015015
657.290833 473.085693
658.323669 699.293335
659.331055 299.293335
660.277466 148.007385
661.286865 1798.060791
662.321106 725.918335
663.291748 496.658203
664.246948 872.074524
665.216858 377.096893
666.102417 121.645294
667.381897 897.869202
668.361816 463.867065
669.382263 13.635726
670.22937 45.077347
671.219482 186835.515625
672.269165 59741.625
673.209778 51704.851562
674.35675 941.379822
675.313965 1458.934692
676.365845 1085.694824
677.369568 416.890991
678.321777 156.819305
679.327942 1122.353638
680.177124 179.671371
681.206299 1707.326294
682.273376 2521.578857
683.299683 1551.620605
684.30426 848.132568
685.316284 209.815079
686.214966 55.726807
686.727295 1.700087
687.410278 10.913443
688.350525 105.542183
689.171448 106.534149
690.34436 1261.036499
691.329773 829.847534
692.331299 421.130829
693.405334 5187.952637
694.356995 1764.856445
695.379639 470.877502
696.308838 174.698975
697.382263 599.642761
698.421265 144.083252
699.333252 2730.144043
700.281189 5337.42627
701.30658 2202.510742
702.283752 1504.817139
703.278198 270.117676
704.248901 147.472046
705.290833 5.957641
705.865417 3.182783
706.475037 51.073128
707.316101 608.315125
708.25 758.873169
709.266357 702.690002
710.244568 122.844887
711.337585 1257.594482
712.365417 635.936646
713.0 1.70601
713.574097 209.035385
714.537781 15.109851
715.386719 82.913887
716.452087 99.736618
717.28064 10124.303711
718.276794 4536.520508
719.26825 3045.687988
720.230347 1523.228271
721.329041 417.398773
722.499329 48.31076
723.278564 78.643654
724.058105 103.619316
724.564819 14.609912
725.410828 79.57486
726.010254 125.932297
726.537231 199.894608
727.298279 249.518188
728.232605 182.915207
728.894775 42.00528
729.530396 146.329056
730.325745 51.579361
731.343811 143.629623
732.381287 66.324844
733.490051 41.55508
734.333313 149.794662
735.306274 11596.533203
736.263977 23181.078125
737.260376 9738.959961
738.255249 6597.918457
739.262329 242.504456
740.139587 44.035683
741.465576 33.103165
742.236877 53.186436
743.314697 70.619141
744.343872 52.239887
745.077637 77.084496
745.739807 54.482422
746.646851 74.983276
747.69812 39.196678
748.322754 3.167988
749.509583 418.532013
750.439819 179.836807
751.207397 283.130768
752.234741 415.562531
753.263062 60900.792969
754.286926 21679.257812
755.276489 20175.925781
756.236938 669.240051
756.833191 15.063502
757.523987 205.891663
758.324036 36.463352
758.908386 21.160824
759.658142 364.735107
760.5802 78.19603
761.458374 130.521301
762.187561 18.782774
763.338806 76.678261
764.333008 119.048615
765.317993 116.65461
766.261536 107.425552
767.372864 1975.227173
768.407654 644.285767
769.360168 424.914062
770.474365 345.600281
771.285217 40858.957031
772.306274 14634.064453
773.264221 10802.682617
774.144714 51.451378
774.862244 12.783163
775.517944 61.82497
776.253418 114.576172
777.507141 62.834755
778.476746 282.273285
779.401184 193.227203
780.459106 168.194702
781.227234 90.874252
782.237366 193.687607
783.079163 64.537575
783.62616 200.719543
784.190613 76.746979
785.345459 4873.667969
785.862732 485.697723
786.519287 1244.196533
787.375183 520.792908
788.320007 279.972961
789.343018 59.54311
790.329956 287.871124
791.354004 161.922501
792.531616 70.406097
793.397705 94.923096
794.431519 235.559357
795.335144 329.715759
796.366028 220.339355
797.470947 223.008453
798.431641 291.166656
799.25531 191.506653
800.293213 110.882614
801.255554 19.22596
802.261536 197.213074
803.311707 673.901245
804.314941 621.881104
805.441162 614.946228
806.349976 402.426453
807.466431 220.79425
808.34491 391.700958
809.0 5.357867
809.514954 380.847076
810.343384 215.135254
811.274536 145.316711
812.440674 288.059784
813.410095 316.298492
814.404968 309.633575
815.456238 161.544983
816.299683 119.380424
817.302124 223.608215
817.882812 23.127295
818.421082 201.950668
819.367676 150.088074
820.368713 489.837677
821.349731 1180.4823
822.467163 1071.513306
823.414124 684.731873
824.337402 528.9021
825.246338 291.603271
826.370483 506.039398
827.359375 405.172791
828.176331 292.013672
828.704346 178.919754
829.535217 170.33812
830.39978 745.73938
831.52179 325.811646
832.378967 167.944031
833.321045 437.880981
834.198364 297.615234
835.357971 378.704132
836.360962 795.621094
837.307434 407.899445
838.365112 601.991333
839.305725 983.037781
840.376038 1761.451904
841.443359 1000.396423
842.432129 1333.615234
843.330933 310.386719
844.35675 615.754761
845.345459 510.915497
846.432251 555.063354
847.393738 291.671875
848.417908 187.781342
849.330627 178.987991
850.348999 451.603363
851.351257 509.945038
852.365662 222.481583
853.378662 271.047546
854.352478 1070.607422
855.377197 531.496582
856.387573 416.181213
857.399841 1862.730347
858.456116 2998.579346
859.449768 1081.802124
860.485229 183.274292
861.43158 190.050049
862.300232 1591.013916
863.421082 901.037842
864.341553 684.821838
865.434326 233.60257
866.455078 173.899643
867.464233 152.532364
868.393005 1140.288452
869.389282 931.128113
870.395203 334.171112
871.417236 472.831543
872.362488 589.679993
873.376465 351.154022
874.341797 214.525726
875.506897 861.472534
876.481201 830.032593
877.385925 189.979294
878.016785 16.101749
878.528381 128.413284
879.420227 528.4375
880.358826 5808.39502
881.349365 2846.181396
882.342041 1093.846313
883.434204 332.852661
884.295044 223.077042
885.388794 204.392136
886.377747 1591.19165
887.370117 1070.901611
888.338928 370.376068
889.406128 245.807114
890.318909 360.84613
891.384277 392.649597
892.582092 71.094246
893.532043 539.087036
894.430176 399.454559
895.233521 135.824142
895.760559 38.519283
896.410645 130.69812
897.439392 1541.058472
898.385803 17511.837891
899.40332 7736.17334
900.385925 2440.211182
901.474915 231.572144
902.406189 469.107727
903.367737 185.95488
904.365112 1042.969238
905.37854 2418.152832
906.408508 1351.106079
907.394226 774.051819
908.518494 233.341721
909.409729 650.756775
910.442627 300.858154
911.415588 541.708191
912.435852 210.978119
913.41571 575.132935
914.400391 434.251953
915.461426 2169.760498
916.386169 26580.283203
917.407532 9318.495117
918.408447 1967.904419
919.153076 136.000748
919.818176 1.562724
920.3927 653.041565
921.365356 343.45755
922.430237 1057.500488
923.452087 7699.878906
924.488708 3738.22583
925.477478 1084.787598
926.346069 335.265167
927.393921 1020.015137
928.389709 511.016693
929.408203 461.012604
930.306152 207.997101
931.351501 772.408447
932.410889 496.352722
933.390503 344.542114
934.440247 433.057953
935.420959 804.941101
936.349182 479.138977
937.439514 357.94516
938.388733 1452.545166
939.366821 760.343872
940.345947 873.99408
941.477539 11793.144531
942.478271 6493.493652
943.488586 2308.519775
944.440552 537.349121
945.400574 450.849518
946.548035 348.655823
947.467102 249.336945
948.406433 172.456741
949.364807 1185.48877
950.371155 872.637817
951.377319 655.885803
952.285095 391.907104
953.442749 1610.964722
954.399231 665.33429
955.430908 766.174927
956.402893 2488.442139
957.394165 1274.123169
958.374084 1342.232544
959.463928 3791.27002
960.49054 1725.256714
961.39386 4645.675293
962.403687 2179.009521
963.372253 1014.404785
964.547607 1118.898315
965.486023 456.883606
966.527527 564.731384
967.42334 1937.715576
968.457764 1461.188354
969.411926 1525.463989
970.413086 569.363586
971.409851 1983.872437
972.486511 890.760742
973.416931 785.37207
974.385742 1685.840698
975.406189 1196.927979
976.423584 497.927246
977.428345 835.001892
978.349976 515.75116
979.374084 6762.420898
980.428528 4622.527832
981.498657 1835.049316
982.513184 2212.884766
983.550537 1175.098633
984.579163 863.535461
985.449463 1456.637085
986.446472 995.877258
987.407959 302.603699
988.440857 620.59668
989.404724 747.779236
990.363953 414.052856
991.472168 826.364807
992.391418 2756.568115
993.428833 1950.041138
994.502197 1483.986694
995.492371 895.435364
996.486938 411.815338
997.409119 14026.578125
998.461609 8541.226562
999.462585 2324.28125
1000.481812 2466.17749
1001.559326 1010.613708
1002.450928 550.437988
1003.374939 1313.668091
1004.367737 553.615967
1005.317505 475.407379
1005.983032 190.525284
1006.570984 1025.281738
1007.491516 1075.280884
1008.466614 442.148804
1009.475708 648.110962
1010.492615 2962.022949
1011.528992 2040.044434
1012.530579 1369.287109
1013.579102 204.495941
1015.368469 21230.667969
1016.365479 11210.709961
1017.42749 4247.851074
1018.509094 5354.544434
1019.497498 3475.822998
1020.491394 1716.485596
1021.388062 1371.23291
1022.316284 412.978149
1023.495667 668.167847
1024.550537 1470.834595
1025.554932 909.824829
1026.569702 714.405762
1027.447144 581.147095
1028.522583 1345.34021
1029.482056 741.49762
1030.481323 327.404816
1031.575806 122.682297
1032.452515 165.894608
1033.362549 15868.391602
1034.410156 9470.738281
1035.432739 6807.577148
1036.510376 21166.216797
1037.516724 11612.143555
1038.508179 3631.11499
1039.420898 786.827881
1040.376221 427.735596
1041.475952 231.027771
1042.408569 403.407654
1043.521973 486.808899
1044.460205 532.467957
1045.475342 480.416077
1046.345947 214.248215
1047.416016 494.957855
1048.214355 145.187042
1048.746094 315.681305
1049.639404 320.844391
1050.56543 310.524414
1051.378784 30247.587891
1052.421143 15562.114258
1053.445679 13951.851562
1054.523438 57273.574219
1055.540283 27482.154297
1056.537354 7481.632812
1057.581421 390.327301
1058.686035 445.305176
1059.645752 256.868439
1060.496704 226.988571
1061.486084 1134.325195
1062.553833 692.155701
1063.499146 830.306519
1064.355103 349.112976
1065.513794 1897.343994
1066.526978 1511.643921
1067.589111 993.333801
1068.477173 500.236053
1069.418579 22291.607422
1070.444214 11112.950195
1071.531738 12787.655273
1072.530029 48310.1875
1073.530029 19660.925781
1074.515503 6045.84082
1075.563232 337.663727
1076.53125 812.006287
1077.467285 399.713226
1078.505737 299.553192
1079.494507 4723.871582
1080.531372 2456.349854
1081.579224 1821.592896
1082.581543 529.265137
1083.549561 1981.536865
1084.576538 1075.74707
1085.552979 985.310608
1086.531616 252.601501
1087.484619 1460.857178
1088.462524 874.044495
1089.456665 1247.275146
1090.595215 1394.919189
1091.539917 2484.496338
1092.56543 1638.410767
1093.501709 1302.015991
1094.512207 2467.235596
1095.521484 1353.366577
1096.562012 1151.932739
1097.572021 19619.669922
1098.614014 9701.158203
1099.58606 5995.289062
1100.538696 1750.43042
1101.501709 728.397339
1102.532349 165.034225
1103.549072 529.246155
1104.546021 403.471375
1105.504761 4365.038574
1106.472168 6402.813965
1107.466064 5378.589844
1108.458008 4675.151855
1109.546875 6574.65918
1110.595337 3213.073486
1111.559937 4392.262207
1112.546875 1809.075806
1113.640869 808.065613
1114.573364 251.957443
1115.51001 73601.8125
1116.558105 40954.410156
1117.566284 21114.974609
1118.52771 6513.734375
1119.508179 2640.494873
1120.496338 424.124817
1121.494995 206.924316
1122.469849 721.354065
1123.515381 4378.187012
1124.511597 2882.715576
1125.478516 39668.769531
1126.521484 17279.880859
1127.505005 26802.080078
1128.607422 5513.109375
1129.564087 8413.609375
1130.591309 3847.294922
1131.580933 1401.723877
1132.450073 308.956543
1133.541748 7604.391602
1134.588867 4994.3125
1135.554443 30627.982422
1136.570068 14268.823242
1137.553711 4957.897949
1138.526001 546.861206
1139.644653 66.653069
1140.713379 64.574814
1141.492554 3258.772705
1142.534546 1981.329834
1143.495361 1511.693848
1144.511841 243.237335
1145.553711 3437.47583
1146.576416 2521.781006
1147.550049 11014.335938
1148.550537 5173.544922
1149.584717 2641.276611
1150.531372 506.563141
1151.485352 12577.49707
1152.564697 8446.974609
1153.547485 69916.664062
1154.592651 30879.751953
1155.56311 13311.941406
1156.522583 894.06073
1157.4021 64.631386
1159.47937 6147.003906
1160.493286 4537.257812
1161.548218 4260.671875
1162.478516 786.66449
1163.515015 6741.919434
1164.536987 4346.525391
1165.54895 3321.044922
1166.618408 419.996185
1167.481812 291.080872
1168.557251 49.846779
1169.317017 44.169743
1170.652832 226.331741
1171.516357 122381.554688
1172.527588 75260.445312
1173.57019 27992.283203
1174.519409 2228.991455
1175.432373 360.015442
1176.258667 10.93542
1177.44458 12572.512695
1178.376099 10002.498047
1179.514282 8131.568848
1180.543213 1987.783447
1181.597778 2454.876953
1182.542114 1372.14856
1183.505005 640.809265
1184.527832 48.09219
1185.287476 81.155899
1185.790161 27.610262
1186.34375 7.964039
1188.571411 204.795013
1189.479004 169278.65625
1190.483032 134959.515625
1191.521484 80465.773438
1192.535156 6321.743652
1193.505615 191.676971
1194.148926 27.744711
1194.931763 45.948044
1195.574097 568.127075
1196.533936 446.880249
1197.486084 559.638245
1198.450195 370.217163
1199.13147 70.852516
1199.765991 88.463852
1201.580688 8.413905
1202.864502 80.964752
1203.650513 7.081461
1206.772339 3097.349854
1207.515381 569694.625
1208.53186 304289.03125
1209.517822 204558.953125
1210.484985 2544.769531
1243.727295 1.224795
1251.493896 3.167542
1252.491089 16.479027
1253.700806 81.254921
1264.181885 1.258797
1293.037109 2.493822
1363.481689 3.497115
1479.226196 2.819563
1547.689819 12.336751
1625.360352 13.726778
1662.769409 20.199478
1678.868408 2.597579
1725.51123 27.594742
1758.913452 9.622869
1761.860229 45.805164
1779.545532 1.008093
1843.692505 3.124453
1862.818237 1.175155
1895.501587 2.815732
1897.83374 21.139456
1962.948486 8.293745
END IONS
