BEGIN IONS
PEPMASS=1071.58
CHARGE=1
MSLEVEL=2
SOURCE_INSTRUMENT=LC-ESI-Orbitrap
FILENAME=f.daniel/Carlos_Bsub-Pseudomonas_1/Carlos-BSub_1_MZmine231_gapfilled_manual_check_GNPS.mgf;
SEQ=*..*
IONMODE=Positive
ORGANISM=GNPS-LIBRARY
NAME=Iturin_A6_Dereplicator M+H
PI=Pieter Dorrestein
DATACOLLECTOR=Daniel Petras
SMILES=CC(C)CCCCCCCCCCC1CC(=O)NC(CC(=N)O)C(=O)NC(Cc2ccc(cc2)O)C(=O)NC(CC(=N)O)C(=O)NC(CCC(=N)O)C(=O)N2CCCC2C(=O)NC(CC(=N)O)C(=O)NC(CO)C(=O)N1
INCHI=
INCHIAUX=
PUBMED=
SUBMITUSER=daniel
TAGS=
LIBRARYQUALITY=3
SPECTRUMID=CCMSLIB00004679263
SCANS=6769
81.070107 18296.953125
83.060516 8769.421875
83.085762 15060.771484
84.04451 59022.777344
87.055428 92191.546875
88.039482 14875.681641
91.054367 16228.083008
95.085838 8629.540039
97.039925 8800.152344
97.101234 25797.806641
98.023659 15654.766602
101.070969 49293.542969
105.065826 8499.25
107.049294 9204.182617
107.085419 4524.753418
109.101379 6411.371094
111.054886 3812.895996
111.116875 7147.404785
112.039322 5574.265137
112.075447 7904.526855
115.050224 30392.515625
115.086685 18735.373047
119.049232 7484.450195
121.101013 7728.803711
123.116997 19358.630859
125.071487 27130.169922
129.065979 25802.132812
132.076706 45158.324219
135.116776 15616.425781
136.039474 4665.988281
136.075806 267954.46875
139.050201 23623.679688
139.086685 35783.308594
140.03389 8194.858398
140.070496 29189.064453
146.060501 6419.162109
147.044495 18028.884766
149.13269 15295.726562
153.065842 9476.919922
156.07724 45998.8125
157.060883 60210.433594
163.148132 6586.32373
166.060791 6318.819824
167.045715 33136.128906
167.081772 120643.367188
168.213562 3901.828613
174.08754 32437.496094
180.112869 24815.365234
181.060654 9205.261719
181.097687 43240.101562
183.08757 4494.140625
184.072235 46297.632812
184.10788 57587.910156
185.055725 17447.289062
188.070312 29101.617188
188.107025 6588.370605
191.08168 39266.101562
194.092331 8139.349609
195.076752 36307.929688
201.099136 6831.928711
202.082504 33961.046875
202.284683 4617.381348
207.09993 9166.086914
208.108353 69772.765625
209.055817 25425.804688
209.092209 78349.898438
212.070511 7111.59668
212.103165 184927.296875
212.237335 333588.09375
215.082245 6211.455566
216.065643 6883.220703
217.097198 4308.935059
219.211487 31381.876953
223.107239 5977.020996
226.082321 38852.117188
229.130203 8734.540039
232.108704 5236.452637
233.092438 72487.304688
236.102951 21670.798828
236.23616 4727.985352
237.220901 20986.087891
243.084061 5057.041504
243.109207 34184.953125
250.118759 58449.734375
252.233231 5169.388184
254.113953 31332.757812
254.247589 41959.496094
260.103119 41417.175781
261.08725 66287.828125
263.115204 6407.916992
264.097992 39704.742188
266.07843 5775.451172
267.111725 4828.711426
271.140381 15528.271484
271.273621 7357.193848
275.103973 29911.048828
277.128876 6509.615234
278.113556 102200.0625
281.124268 62312.25
281.258545 69906.117188
282.108673 14854.701172
288.097626 5052.342285
294.242737 9601.481445
296.258972 9167.009766
298.150848 7739.3125
299.134979 79959.195312
299.268707 100755.0625
302.114929 16374.626953
305.123993 17230.035156
306.107422 18334.689453
306.24295 16276.842773
306.277985 9001.655273
309.254578 15798.826172
316.161255 21167.320312
320.123901 15315.394531
322.150879 17787.449219
323.135162 48471.101562
323.268524 55243.890625
324.252777 15426.310547
330.108887 16283.43457
334.100647 4099.850586
334.27533 5365.155273
340.159943 7462.31543
341.280182 62311.023438
347.135315 5296.472656
350.282471 6149.736816
351.264832 44292.046875
356.133881 4438.817383
357.121216 20144.171875
358.104309 16774.90625
360.263489 5224.164551
365.145142 4909.812988
368.290833 29099.158203
371.133545 6118.379395
372.119598 17117.183594
374.146881 15351.042969
375.130035 21573.214844
378.277039 22056.689453
379.25824 6437.433594
382.173523 5213.552246
389.145813 26168.654297
392.157562 46020.265625
393.276642 9105.857422
396.285095 14156.632812
399.297272 4560.753418
405.285339 4651.677246
406.174438 15508.268555
410.166473 6593.080078
416.157745 6611.077148
417.136963 5484.214844
419.169403 5090.299316
420.149719 7462.108398
420.287018 14221.161133
437.312805 43695.691406
438.297546 30719.564453
441.137848 4309.65332
447.29599 5560.139648
455.322754 23962.25
465.304382 5302.443848
469.306427 7447.995605
475.328827 6620.044434
493.33905 28404.078125
496.326385 4920.650391
517.337708 5703.26123
535.347656 19106.138672
551.356445 6695.32666
552.377747 4944.088867
555.219604 5055.398438
600.377441 6802.678711
603.389893 6466.421387
604.36499 6321.977051
621.394592 6231.760254
631.382812 17780.941406
645.399902 6537.17041
649.393677 24219.439453
652.3703 5909.431641
666.417908 41679.621094
777.453003 5286.788574
795.433838 5302.970703
829.475403 7629.602051
843.457458 5203.033691
957.525146 5712.699219
960.558655 5678.931641
1003.483276 6154.203613
1020.497437 17927.818359
1036.541748 15215.701172
1037.521851 34608.355469
1053.569336 20764.173828
1054.555664 58373.433594
1071.58374 74770.460938
END IONS
