BEGIN IONS
PEPMASS=721.5
CHARGE=0
MSLEVEL=2
SOURCE_INSTRUMENT=LC-ESI-Ion Trap
FILENAME=f.jkharbush/GNPS_JenanKharbush/16.0_Phosphoglycerol_neg.mzXML;
SEQ=*..*
IONMODE=Negative
ORGANISM=GNPS-LIBRARY
NAME=16:0 PG (1,2-dihexadecanoyl-sn-glycero-3-phospho-(1'-rac-glycerol) (sodium salt)) M-H
PI=Aluwihare
DATACOLLECTOR=Jenan Kharbush
SMILES=[H][C@@](OC(CCCCCCCCCCCCCCC)=O)(COC(CCCCCCCCCCCCCCC)=O)COP([O-])(OCC(CO)O)=O.[Na+]
INCHI=
INCHIAUX=
PUBMED=
SUBMITUSER=jkharbush
TAGS=
LIBRARYQUALITY=3
SPECTRUMID=CCMSLIB00000078674
SCANS=1
197.96553 1.062808
209.067734 67.406082
214.282913 1.025113
227.112183 92.45414
228.061981 5.979452
235.438766 3.553207
237.297195 28.471769
238.209946 5.360903
245.079361 16.15732
249.087418 5.017567
250.148376 1.457906
251.019516 2.803015
255.228531 46607.746094
256.285278 5993.674316
256.821808 1.151402
257.329132 1.686868
291.033295 1.447851
293.107605 1.602694
313.255127 2.634039
314.066956 2.74252
314.758606 3.586967
323.945312 1.415326
325.206116 3.832352
327.060303 2.149249
329.151611 1.338562
341.062134 1.024181
343.203766 2.52374
354.938293 2.476729
359.015381 0.88297
368.874512 1.124328
374.89978 0.922046
378.985168 1.842416
384.90918 4.135947
386.890991 1.442218
391.245087 11171.564453
392.278259 1523.609863
393.423523 1.234585
402.839752 3.056826
409.334564 76.432426
410.356232 12.892183
420.955872 0.968816
424.147156 1.45277
427.026062 2.436078
429.255005 1.130145
431.67569 2.69173
436.058167 3.229661
439.997009 1.261626
440.884399 1.232097
443.240967 2.943872
443.990906 5.476103
447.198944 3.225341
448.144287 1.742262
449.005676 2.399626
450.5047 2.776598
452.797668 1.497938
461.058838 1.504724
463.291748 1.062914
465.298737 7428.44873
466.325684 1142.929932
470.04071 1.331549
472.221191 0.754759
478.961304 1.899317
483.313324 6402.198242
484.354095 1207.642822
485.004028 0.262282
494.108246 2.526908
494.829956 1.537313
500.928467 6.913628
509.253723 0.974815
511.3526 1.555719
515.735474 1.498804
517.96698 0.955993
524.019104 1.006352
525.732849 2.0553
526.501099 3.838249
527.976868 4.613094
539.820984 3.410463
540.886414 1.33369
562.346924 2.199984
563.826721 2.887065
567.046997 4.750166
567.71759 4.063352
569.075256 4.52518
570.87146 0.894183
582.967224 4.54536
583.9505 95.278755
584.921936 142.426086
585.922913 52.191479
587.151794 2.532696
589.065002 3.597237
592.087585 1.521193
592.746277 1.462177
595.473206 3.483039
596.767517 1.861619
601.717712 1.281986
603.848938 1.971237
604.876892 6.143071
605.92157 8.822575
606.929749 15.477464
608.200684 5.926139
609.269104 3.934444
615.876343 0.839505
619.417297 1.223767
621.890076 1.621882
622.430847 3.894372
624.073059 1.129281
625.859436 12.679055
627.05365 27.685507
627.713806 8.902604
628.942688 9.933043
631.296997 4.615951
632.094238 3.669434
634.960266 3.214264
636.009888 7.948049
636.958679 4.704827
638.284302 2.850945
638.961365 1.400651
640.164612 1.129956
642.934814 1.404125
645.938721 3.941593
646.903564 1.622132
647.523438 137.133881
648.459045 39.61142
649.322327 2.422339
651.953979 24.154255
652.991089 48.855057
653.914551 38.897507
655.00708 2.382108
655.84967 7.230333
656.906982 2.68505
658.028992 2.921552
658.612122 1.547666
659.713379 10.401932
660.87207 13.332486
661.825684 6.527592
662.616333 3.600014
663.656921 6.919693
667.053894 1.089563
673.512207 13.338033
674.077393 39.189892
674.912048 66.704834
675.856201 21.857553
676.396912 2.263494
677.14978 10.94207
678.066223 5.122028
678.919434 6.910476
681.156067 2.457443
684.008057 3.780295
684.952148 29.117535
685.958008 2.849339
689.619263 4.518659
690.492004 4.158352
693.438965 2.788349
694.308655 2.980857
700.097839 5.179591
700.906128 4.623249
701.762146 59.108261
702.927551 37.226082
703.952332 24.885527
718.60614 0.996906
720.032959 9.992366
721.204712 9.758035
722.090698 3.445398
739.187073 1.829123
END IONS
