BEGIN IONS
PEPMASS=1008.55
CHARGE=1
MSLEVEL=2
SOURCE_INSTRUMENT=LC-ESI-qToF
FILENAME=P2_C4_conc_GE4_01_2422.mzXML
SEQ=*..*
IONMODE=Positive
ORGANISM=GNPS-LIBRARY
NAME=_130021 M+H
PI=Cichewicz
DATACOLLECTOR=Luzzatto
SMILES=O[C@@H]([C@H](NC1=O)C(N[C@H](C(N2[C@H](C(N[C@H](O)[C@H](O)C[C@H](NC(CCCCCCCCCCCCC)=O)C(N[C@H](C(N3[C@H]1C[C@@H](O)C3)=O)[C@@H](C)O)=O)=O)[C@@H](O)[C@@H](C)C2)=O)[C@H](O)C)=O)[C@H](C4=CC=C(O)C=C4)O
INCHI=N/A
INCHIAUX=N/A
PUBMED=
SUBMITUSER=tal_lk
TAGS=
LIBRARYQUALITY=2
SPECTRUMID=CCMSLIB00000478456
SCANS=1565
86.059364 504.0
100.076691 3080.0
101.078217 612.0
102.05497 508.0
123.059082 264.0
129.069519 256.0
131.080673 4848.0
132.087006 388.0
134.0616 408.0
139.047592 416.0
141.066772 1404.0
142.087204 1468.0
143.080673 588.0
145.097153 19040.0
146.098923 2032.0
147.042236 1232.0
149.051743 328.0
151.051956 1040.0
152.031998 396.0
153.067932 384.0
153.10968 276.0
156.100494 728.0
157.097137 540.0
159.080475 436.0
163.09079 284.0
164.068237 720.0
165.103851 252.0
166.087921 400.0
167.080444 4900.0
168.080826 424.0
169.059082 356.0
169.096542 852.0
170.10228 260.0
171.076141 1388.0
173.089188 544.0
175.035553 300.0
175.070068 412.0
177.064011 848.0
179.044922 376.0
179.080643 672.0
180.075287 252.0
181.059235 332.0
181.095154 832.0
182.080765 664.0
183.113739 800.0
185.091187 6792.0
186.095108 640.0
187.072113 352.0
187.106735 2820.0
188.07019 296.0
188.104935 424.0
192.063965 404.0
193.068634 280.0
193.094193 1044.0
195.076447 7528.0
196.078506 592.0
197.090698 1656.0
198.093094 276.0
198.266327 308.0
199.100998 380.0
200.339645 252.0
201.120712 2188.0
202.084305 568.0
202.124054 276.0
203.081436 332.0
210.121628 1376.0
211.107742 3284.0
211.200638 300.0
212.105301 548.0
213.085938 10052.0
214.086899 820.0
214.117935 736.0
215.100647 2600.0
216.068573 416.0
216.104385 876.0
220.061325 260.0
220.09729 572.0
221.091339 3548.0
222.09407 500.0
223.102966 604.0
225.087036 2032.0
226.089432 724.0
226.118591 1392.0
228.133865 2232.0
228.2332 304.0
229.102615 664.0
229.111771 1176.0
230.079803 2820.0
231.082138 852.0
232.126511 1320.0
233.132278 296.0
234.120895 312.0
235.120911 416.0
236.097366 272.0
238.118423 1264.0
239.101196 2940.0
240.107971 600.0
241.125107 476.0
242.085587 496.0
242.111664 1228.0
243.097626 804.0
244.09671 344.0
244.126678 344.0
245.100174 428.0
246.144028 9148.0
247.106079 4556.0
247.14711 1840.0
248.089981 616.0
248.149796 328.0
249.095047 544.0
250.107452 676.0
251.107941 400.0
252.096802 680.0
254.113724 1840.0
255.105011 356.0
256.130096 864.0
257.091248 3104.0
258.073395 1460.0
258.144165 704.0
259.107574 11396.0
260.108856 3088.0
261.119934 1452.0
262.118195 1272.0
265.119751 1152.0
266.113434 476.0
266.249023 616.0
267.097595 1348.0
270.074707 356.0
270.108795 1144.0
272.123901 1368.0
273.126007 692.0
275.101532 4144.0
276.087006 4728.0
276.139221 544.0
277.11731 6980.0
278.118225 1428.0
278.148346 720.0
279.095184 384.0
279.132446 4684.0
280.130402 4596.0
281.128082 324.0
282.108673 1964.0
284.123383 5660.0
284.256042 784.0
285.124237 708.0
287.101868 4788.0
288.117249 4140.0
289.119476 1104.0
290.108795 848.0
291.099701 536.0
293.11261 3324.0
294.097778 880.0
294.11203 680.0
294.145111 984.0
294.239655 412.0
295.139191 636.0
296.12558 360.0
296.25412 788.0
298.137177 688.0
299.136078 640.0
301.150391 2892.0
302.13974 340.0
303.094604 660.0
304.127502 1720.0
305.113281 28032.0
306.052185 444.0
306.115906 4600.0
307.112885 396.0
308.124268 36736.0
309.126495 6064.0
310.131958 796.0
310.276642 712.0
311.126404 1060.0
311.167542 320.0
311.274536 396.0
312.122864 568.0
312.157318 620.0
312.249268 468.0
314.131287 352.0
315.130676 600.0
316.136353 844.0
317.129608 360.0
320.150574 404.0
321.104156 292.0
321.158508 440.0
322.138733 7528.0
322.236633 2252.0
323.124695 6996.0
323.24054 732.0
324.128693 1888.0
324.253601 2276.0
325.146332 888.0
325.258209 496.0
326.134155 6500.0
327.136627 1632.0
328.141113 592.0
329.175201 344.0
330.152771 508.0
331.128723 344.0
332.122925 392.0
333.256104 336.0
334.14212 308.0
337.153656 464.0
338.267914 856.0
339.164612 720.0
339.265747 1016.0
340.148621 4068.0
340.252899 696.0
341.150269 972.0
341.250763 256.0
341.285675 256.0
342.141876 2604.0
343.158325 1376.0
344.122559 2740.0
344.159149 3960.0
345.132477 1244.0
345.160156 888.0
347.130005 540.0
349.285339 340.0
350.131561 344.0
351.156525 360.0
351.263245 696.0
352.123932 400.0
352.164124 600.0
353.146484 840.0
355.163666 488.0
355.29184 3264.0
356.148621 416.0
356.298462 400.0
357.145386 2024.0
357.298645 276.0
358.139282 1484.0
359.13974 516.0
360.155182 13788.0
361.156891 3340.0
361.254761 488.0
362.134613 2400.0
362.167053 2284.0
362.254242 396.0
363.144043 320.0
363.170746 780.0
364.127472 328.0
364.182587 460.0
366.14563 356.0
367.1539 528.0
369.173981 848.0
370.140167 6664.0
371.14267 2128.0
372.146515 776.0
373.184021 412.0
374.165527 308.0
375.159454 512.0
377.143005 280.0
377.275452 1168.0
378.166809 14924.0
379.164093 2488.0
379.25885 1180.0
380.173126 1552.0
380.25882 712.0
381.178131 476.0
384.154175 888.0
385.139252 2000.0
385.251495 308.0
386.138367 1320.0
387.134003 264.0
387.26416 624.0
388.150513 42344.0
389.153473 10900.0
389.28241 328.0
390.156158 1872.0
391.161621 508.0
392.153809 380.0
393.27179 448.0
393.315125 276.0
394.315796 296.0
395.288483 2064.0
396.188324 552.0
396.296539 1000.0
397.17337 1344.0
398.172577 516.0
399.16925 344.0
401.1828 784.0
402.165314 7504.0
402.31424 428.0
403.165771 1736.0
403.280731 264.0
404.175903 260.0
404.327484 704.0
405.171356 672.0
405.276154 3636.0
406.161041 35940.0
406.274506 1512.0
407.163757 6716.0
407.287384 816.0
408.165588 1488.0
409.171082 1072.0
414.198914 17396.0
415.202118 4300.0
416.147949 804.0
416.200378 692.0
417.178528 700.0
418.183136 344.0
419.190613 1260.0
420.180786 608.0
420.319153 1752.0
421.308838 428.0
422.308502 356.0
423.190826 620.0
423.287231 2716.0
424.171143 27388.0
424.288086 1364.0
424.650665 368.0
425.173553 5648.0
426.178375 984.0
427.15509 600.0
427.187958 400.0
428.15979 400.0
428.292267 280.0
429.169525 804.0
430.16394 372.0
430.307037 332.0
432.283569 320.0
435.187958 720.0
435.270844 256.0
436.146057 284.0
436.185608 456.0
437.17865 420.0
438.198242 548.0
438.332428 11812.0
439.332947 2616.0
440.217133 464.0
440.306427 776.0
440.334045 640.0
441.177429 428.0
441.294647 1504.0
442.165619 460.0
443.15451 600.0
443.191223 892.0
444.183136 700.0
445.183319 1164.0
446.173615 340.0
447.175293 272.0
448.17981 328.0
448.316345 6260.0
449.318573 2064.0
450.317719 820.0
451.149567 368.0
451.196289 256.0
452.144165 296.0
452.214539 316.0
453.200226 684.0
454.146423 484.0
454.181732 296.0
454.207092 416.0
455.180145 592.0
456.342987 624.0
457.308289 1740.0
459.185577 736.0
461.201599 856.0
462.187958 708.0
463.207825 952.0
464.17926 276.0
464.313171 284.0
465.192383 328.0
466.187958 788.0
466.327942 9864.0
467.194794 264.0
467.327087 2828.0
468.224945 344.0
468.330444 940.0
469.170593 1484.0
469.301483 256.0
470.177216 508.0
470.220398 792.0
470.2995 328.0
471.185211 1820.0
472.185303 764.0
472.317657 1548.0
473.197327 376.0
473.319672 584.0
474.291504 412.0
475.320404 408.0
478.200989 476.0
478.330261 284.0
479.214752 1152.0
480.210846 664.0
480.309601 296.0
481.170227 732.0
482.185883 708.0
482.316162 472.0
483.352814 352.0
484.333405 524.0
485.199615 348.0
485.299042 616.0
487.318085 492.0
488.213318 980.0
488.311188 280.0
489.195068 4076.0
489.326385 476.0
490.196289 1088.0
490.328918 2588.0
491.18512 316.0
491.328156 1196.0
492.198669 252.0
492.319519 408.0
494.215363 460.0
494.348389 536.0
495.196655 372.0
495.359314 376.0
496.219452 288.0
497.19577 776.0
498.215393 456.0
498.317871 756.0
499.182922 2112.0
499.315582 356.0
500.183838 852.0
503.315582 564.0
504.305969 580.0
504.344604 412.0
505.332916 564.0
506.225586 1280.0
507.207367 4060.0
508.213165 1100.0
508.339996 888.0
509.213959 252.0
509.352173 276.0
510.196228 368.0
514.227173 4768.0
515.230774 2084.0
515.313538 896.0
516.229248 1092.0
516.309326 528.0
517.194092 5404.0
517.318237 392.0
518.195251 804.0
518.321167 5804.0
519.200256 828.0
519.324646 2072.0
520.183411 288.0
520.33136 664.0
521.364441 632.0
522.356567 1524.0
523.352356 1060.0
524.345764 444.0
524.384338 364.0
525.217224 2972.0
526.219116 1132.0
527.22522 808.0
528.209229 360.0
531.207947 280.0
531.352356 2264.0
532.239441 14192.0
532.349792 900.0
533.238892 4148.0
533.323303 2408.0
534.237732 1460.0
534.330017 564.0
535.200684 1640.0
535.352905 556.0
536.219604 620.0
536.328735 1752.0
537.328918 544.0
538.202942 712.0
539.167847 308.0
539.232361 380.0
539.38324 728.0
540.380798 436.0
546.210815 308.0
547.228882 296.0
549.363708 6688.0
550.250671 7872.0
550.366699 2128.0
551.251709 3404.0
551.369446 448.0
552.249634 692.0
552.374512 284.0
553.353516 624.0
554.223755 1564.0
554.354431 300.0
555.218201 396.0
556.204895 1036.0
556.324219 420.0
557.207336 420.0
558.232971 364.0
559.365723 300.0
561.218628 312.0
561.329834 284.0
564.207214 732.0
566.2146 316.0
567.374146 7532.0
568.262085 2644.0
568.376038 2068.0
569.260193 636.0
569.381409 596.0
570.263916 472.0
570.355103 2412.0
571.35437 1008.0
572.235046 2608.0
572.365479 368.0
573.236877 664.0
573.37616 284.0
574.223267 484.0
575.238403 688.0
575.347656 356.0
577.358154 1612.0
578.362732 488.0
579.370789 568.0
580.233521 268.0
580.364929 424.0
581.243103 536.0
581.374084 336.0
582.220825 7312.0
583.223572 1816.0
584.227295 688.0
584.390137 260.0
585.231201 320.0
586.38147 488.0
587.336731 512.0
588.362732 1816.0
589.237 436.0
589.365295 720.0
590.250977 1160.0
590.353027 268.0
591.246704 736.0
592.256592 576.0
592.380798 296.0
593.253052 356.0
594.384094 380.0
595.371094 572.0
596.240784 304.0
598.239014 648.0
598.348145 3088.0
599.258057 404.0
599.349976 1660.0
600.230408 8004.0
600.350037 772.0
601.232361 2936.0
601.400269 348.0
602.235535 1016.0
604.372742 276.0
605.352966 2300.0
606.281982 304.0
606.360596 684.0
607.399048 348.0
608.264465 1940.0
609.261536 792.0
609.357544 276.0
610.260376 668.0
611.384766 588.0
614.249695 296.0
615.285645 1028.0
616.255188 500.0
616.354797 4896.0
617.273071 368.0
617.359924 2660.0
618.240295 7276.0
618.364258 776.0
619.244934 2260.0
619.388 560.0
620.247986 948.0
622.375549 436.0
623.395508 1128.0
624.40033 1988.0
625.393188 592.0
626.277283 1620.0
626.417053 436.0
627.265503 612.0
629.384888 736.0
630.397278 320.0
632.39856 548.0
633.271423 368.0
634.370544 4036.0
635.262939 280.0
635.376221 2156.0
636.24939 1152.0
636.390808 744.0
637.255249 384.0
637.402405 356.0
638.253967 564.0
640.436401 284.0
643.277771 664.0
644.262695 544.0
644.390564 652.0
645.386902 344.0
650.408813 1048.0
651.306458 312.0
651.409668 616.0
652.42511 348.0
653.356689 324.0
653.406616 460.0
654.359009 268.0
657.374939 280.0
658.370239 344.0
659.388611 312.0
660.39563 540.0
661.284851 580.0
661.398438 304.0
662.278687 264.0
662.408508 2328.0
663.275513 388.0
663.41095 504.0
664.267517 400.0
664.39679 300.0
665.250183 580.0
665.352173 356.0
666.255188 264.0
666.304443 400.0
666.404663 268.0
668.420898 848.0
669.309082 348.0
669.41748 388.0
670.299255 276.0
672.386536 264.0
674.286926 404.0
674.448669 432.0
676.377563 284.0
678.403015 688.0
679.409668 880.0
680.422485 2064.0
681.286621 1192.0
681.409058 584.0
682.28772 572.0
682.430603 256.0
683.271667 964.0
683.396667 680.0
684.320251 304.0
687.41272 380.0
688.385986 936.0
690.40741 276.0
691.271851 476.0
691.364502 480.0
692.270508 528.0
692.376709 840.0
694.405151 256.0
695.399841 620.0
697.428772 624.0
699.287354 528.0
699.392761 392.0
700.29541 772.0
700.383667 372.0
701.289246 844.0
705.405151 656.0
706.401978 904.0
707.426819 540.0
708.30072 1164.0
708.414429 384.0
709.28894 2776.0
709.384338 1172.0
710.282898 1032.0
710.384277 640.0
711.392517 512.0
717.394104 464.0
718.309021 424.0
718.431885 388.0
720.415649 264.0
722.413879 332.0
723.398376 832.0
724.39978 760.0
725.422119 596.0
726.308472 3292.0
726.408508 372.0
727.297791 2960.0
727.399048 1032.0
728.294739 1960.0
728.391541 508.0
735.421936 896.0
736.435913 444.0
737.411865 400.0
738.417175 392.0
739.412476 568.0
740.413757 252.0
741.267517 348.0
742.436157 2480.0
743.440674 1152.0
744.319214 4180.0
744.43219 808.0
745.316772 1884.0
745.386353 576.0
745.456299 408.0
746.324585 968.0
746.408386 464.0
747.429993 272.0
750.411194 352.0
755.432739 280.0
760.440491 3228.0
761.455872 1336.0
762.329712 1420.0
762.448486 640.0
763.331055 1044.0
763.438904 252.0
764.329041 252.0
764.420227 1476.0
765.437256 664.0
766.412354 400.0
767.409302 336.0
774.444702 796.0
775.441345 340.0
776.456055 440.0
778.454529 468.0
780.339783 904.0
780.426819 352.0
781.335022 328.0
782.345764 316.0
782.432007 928.0
783.333862 288.0
783.43396 808.0
784.433105 372.0
785.293396 804.0
785.410461 272.0
786.305359 480.0
790.455933 352.0
792.414551 964.0
793.419617 608.0
796.441467 268.0
800.446594 716.0
801.440918 852.0
802.456055 1116.0
803.443665 252.0
806.446167 428.0
807.433899 292.0
808.465881 404.0
809.446472 416.0
810.420715 2468.0
811.42749 1368.0
812.437622 456.0
818.463135 4012.0
819.459595 1868.0
820.476807 592.0
821.486694 456.0
824.444275 420.0
825.462036 268.0
827.468384 552.0
828.438416 3160.0
829.44043 1304.0
830.443054 508.0
831.448364 288.0
835.456909 412.0
836.468811 3196.0
837.484436 1924.0
838.479187 1248.0
839.458069 296.0
839.496582 428.0
840.497498 276.0
841.455383 256.0
843.472412 340.0
846.450073 4080.0
847.450989 2500.0
848.447266 380.0
853.46582 928.0
854.483154 1216.0
855.477295 460.0
856.503662 472.0
860.454163 284.0
864.459839 2460.0
865.46167 672.0
866.467712 780.0
871.485596 1152.0
872.475952 488.0
873.464233 288.0
874.476624 412.0
880.510986 316.0
882.50769 408.0
889.486938 392.0
890.509338 292.0
892.47583 780.0
893.477234 344.0
894.467346 268.0
900.496094 296.0
908.518188 352.0
910.502869 924.0
911.508057 376.0
912.485657 392.0
918.489929 1908.0
919.502197 688.0
920.504517 304.0
926.527344 976.0
927.514771 684.0
928.508606 812.0
929.517456 724.0
936.509827 4504.0
937.507446 2592.0
938.508179 1092.0
939.514282 380.0
944.530518 688.0
945.530701 388.0
946.496277 312.0
946.541748 360.0
947.514465 424.0
954.520142 12212.0
955.519775 7440.0
956.519531 2776.0
957.518555 644.0
958.514771 356.0
969.481384 276.0
971.488647 400.0
972.305237 260.0
972.529724 48240.0
973.53363 24468.0
974.271912 272.0
974.534851 7912.0
975.539185 1612.0
976.533508 656.0
977.572998 336.0
978.554382 288.0
979.315552 308.0
979.426758 264.0
982.076416 276.0
983.277893 280.0
983.510803 272.0
985.965698 304.0
986.51062 328.0
986.776917 256.0
987.507263 332.0
988.510986 332.0
988.618408 276.0
989.935364 408.0
990.003113 436.0
990.099792 368.0
990.275208 388.0
990.376099 720.0
990.542786 174252.0
990.968811 484.0
991.065369 472.0
991.173462 412.0
991.320374 308.0
991.544678 131484.0
992.033386 348.0
992.104492 312.0
992.152649 552.0
992.265686 412.0
992.547058 31292.0
993.013123 256.0
993.206543 484.0
993.549072 7468.0
994.058167 400.0
994.254089 376.0
994.549988 1480.0
994.645386 428.0
994.726929 280.0
995.05481 280.0
995.084351 312.0
995.188782 256.0
995.529236 448.0
995.695251 376.0
996.079712 252.0
996.486206 348.0
997.19519 368.0
1008.355957 288.0
1008.548279 31600.0
1008.673828 288.0
1009.553101 16064.0
1009.743408 460.0
1009.985718 268.0
1010.551758 4608.0
1011.552979 824.0
1012.524902 3528.0
1013.051819 268.0
1013.517212 2308.0
1013.73877 304.0
1014.517761 588.0
1016.442688 276.0
1030.52356 2076.0
1031.527344 1712.0
1032.534912 608.0
END IONS
