BEGIN IONS
PEPMASS=1267.81
CHARGE=1
MSLEVEL=2
SOURCE_INSTRUMENT=LC-ESI-qTof
FILENAME=f.amcaraballor/DorresteinLab_AMCR_2018/2018_02_12_NSF_FGA_Plates1_2_mzXML/PD-FGA-21_BD2_01_8377.mzXML;
SEQ=*..*
IONMODE=Positive
ORGANISM=GNPS-LIBRARY
NAME=Putative orfamide C M+H
PI=Dorrestein
DATACOLLECTOR=amcaraballor
SMILES=CCCCCCCCCC(O)CC(NC(C(NC(C(NC1C(C)OC(C(C(C)C)NC(C(CO)NC(C(CC(C)C)NC(C(CC(C)C)NC(C(CO)NC(C(CC(C)C)NC(C(C(CC)C)NC1=O)=O)=O)=O)=O)=O)=O)=O)=O)CCC(O)=O)=O)CC(C)C)=O
INCHI=InChI=1S/C62H110N10O17/c1-15-17-18-19-20-21-22-23-40(75)30-48(76)63-42(26-33(3)4)54(80)64-41(24-25-49(77)78)53(79)72-52-39(14)89-62(88)50(37(11)12)70-59(85)47(32-74)69-56(82)44(28-35(7)8)65-55(81)43(27-34(5)6)66-58(84)46(31-73)68-57(83)45(29-36(9)10)67-60(86)51(38(13)16-2)71-61(52)87/h33-47,50-52,73-75H,15-32H2,1-14H3,(H,63,76)(H,64,80)(H,65,81)(H,66,84)(H,67,86)(H,68,83)(H,69,82)(H,70,85)(H,71,87)(H,72,79)(H,77,78)
INCHIAUX=
PUBMED=N/A
SUBMITUSER=amcaraballor
TAGS=
LIBRARYQUALITY=3
SPECTRUMID=CCMSLIB00004679300
SCANS=2789
96.421326 46.0
99.704536 33.0
100.709671 48.0
102.052704 104.0
109.676292 68.0
110.559982 32.0
111.15184 47.0
111.934616 45.0
113.022568 40.0
118.354584 28.0
121.700172 33.0
123.057877 28.0
128.1073 67.0
129.959686 40.0
130.887741 33.0
132.107819 66.0
134.016815 70.0
136.159607 37.0
137.05336 39.0
137.25264 84.0
139.05777 80.0
143.306015 27.0
145.517197 27.0
145.954559 38.0
146.193253 29.0
147.077423 71.0
147.520615 39.0
148.743927 87.0
152.13678 79.0
155.119461 162.0
158.012222 51.0
159.115631 163.0
159.170532 50.0
162.437363 32.0
167.09375 88.0
167.972351 40.0
168.083008 34.0
171.88443 60.0
173.054352 69.0
173.126633 415.0
173.437881 103.0
176.60791 32.0
178.095779 30.0
178.677383 40.0
181.204025 48.0
183.116959 42.0
183.511261 52.0
184.993973 27.0
187.100327 68.0
187.145676 65.0
187.935638 34.0
188.898575 26.0
189.82608 75.0
195.076416 288.0
196.626907 78.0
196.737595 65.0
197.129471 599.0
197.726685 33.0
199.180054 306.0
200.184677 102.0
200.392136 58.0
201.126816 993.0
201.868774 57.0
201.994446 68.0
203.097885 137.0
203.160614 31.0
203.539001 66.0
204.646988 76.0
205.119553 886.0
205.16983 95.0
206.122879 65.0
208.833466 90.0
208.984009 40.0
209.12674 67.0
210.149353 45.0
211.528305 32.0
212.642258 62.0
212.869019 101.0
213.088242 2502.0
214.091309 279.0
215.093979 185.0
215.140808 162.0
223.146713 56.0
223.217834 88.0
223.461975 65.0
225.117218 105.0
227.17746 577.0
228.160843 95.0
229.122665 81.0
230.276489 35.0
231.098221 369.0
236.244339 63.0
236.374313 67.0
237.15889 59.0
239.178055 129.0
241.124451 37.0
241.191589 131.0
242.154648 105.0
242.188278 35.0
243.135727 67.0
243.153946 101.0
244.133011 160.0
245.377716 33.0
245.579742 97.0
249.190491 43.0
251.173523 136.0
252.17308 77.0
253.148117 90.0
253.332489 34.0
255.063187 83.0
260.161652 211.0
261.156006 76.0
261.466522 34.0
262.18457 29.0
264.784851 75.0
265.187836 205.0
266.116821 47.0
266.260315 81.0
268.211609 79.0
268.773651 29.0
269.184631 266.0
269.320953 58.0
270.143158 77.0
270.591797 40.0
271.285095 61.0
271.476776 69.0
271.958588 61.0
272.609314 33.0
273.1828 67.0
275.181427 65.0
279.168304 334.0
280.168213 284.0
280.299683 49.0
281.137115 58.0
282.177277 67.0
282.208801 64.0
282.27948 90.0
282.367523 67.0
283.183746 80.0
284.159668 120.0
284.257324 2182.0
285.1698 73.0
285.234253 144.0
285.261566 193.0
285.307709 49.0
285.811279 74.0
285.970734 61.0
286.193787 96.0
286.265594 187.0
290.740204 33.0
291.161285 58.0
292.150574 35.0
292.214447 96.0
293.165192 76.0
294.165375 73.0
294.242401 493.0
295.220032 76.0
295.249298 78.0
296.146149 144.0
296.199677 2585.0
297.19809 286.0
297.241516 96.0
297.63504 72.0
298.176727 1085.0
298.248627 56.0
298.506927 67.0
299.048676 48.0
299.201019 43.0
299.247589 32.0
300.02597 26.0
300.182709 184.0
301.194397 123.0
304.609619 37.0
305.180603 49.0
305.215057 42.0
306.169769 122.0
306.193451 124.0
306.426941 48.0
308.158234 582.0
309.14151 61.0
309.168457 55.0
310.164795 91.0
310.214203 426.0
311.214478 67.0
311.511688 57.0
312.25415 8357.0
312.327148 70.0
312.428436 82.0
312.729004 105.0
313.015594 30.0
313.22113 255.0
313.256714 1824.0
313.430542 38.0
313.529633 48.0
314.208862 2663.0
314.261597 254.0
314.344269 82.0
314.486023 52.0
314.543182 41.0
314.697083 42.0
314.834442 38.0
315.139252 78.0
315.211334 430.0
315.609558 48.0
315.775391 50.0
316.147491 67.0
316.180542 183.0
317.182007 75.0
318.203217 1868.0
318.636658 44.0
318.797974 26.0
319.207336 524.0
319.413818 44.0
320.209076 57.0
321.039642 47.0
321.486359 27.0
323.218842 88.0
324.18576 78.0
325.212585 34.0
325.649902 44.0
325.719971 62.0
326.045715 77.0
326.172699 2770.0
327.172241 346.0
327.210022 148.0
328.224365 429.0
328.273499 74.0
328.485077 34.0
329.221497 149.0
330.076477 64.0
330.171112 112.0
331.204376 50.0
331.610657 43.0
337.890289 56.0
338.225922 80.0
339.159546 52.0
339.44339 36.0
340.240845 66.0
340.273743 91.0
343.392242 54.0
344.181061 500.0
344.253448 59.0
344.986603 42.0
345.18338 70.0
346.174927 111.0
346.227081 152.0
348.185455 156.0
350.237823 52.0
350.299469 59.0
351.210083 210.0
352.113098 40.0
352.154938 48.0
352.198456 56.0
353.221436 92.0
354.169525 65.0
355.237854 121.0
356.144257 67.0
356.217834 209.0
356.906128 62.0
357.201324 59.0
357.23587 100.0
359.17688 65.0
361.370117 30.0
364.463806 50.0
364.552216 65.0
365.151489 118.0
365.208344 299.0
366.203308 166.0
367.261169 94.0
367.300171 109.0
368.176544 102.0
368.259094 174.0
368.646973 44.0
369.224426 74.0
369.289062 84.0
370.186859 44.0
370.234863 128.0
371.193451 52.0
371.274323 62.0
373.241241 550.0
373.572205 67.0
374.251526 222.0
375.248871 44.0
376.231995 82.0
378.241791 49.0
378.26825 89.0
379.174316 95.0
379.226532 252.0
380.202454 27.0
380.226654 45.0
380.318176 53.0
381.162781 52.0
381.282257 150.0
381.733948 71.0
382.271667 230.0
382.348724 109.0
383.162933 41.0
383.229828 1594.0
383.346924 66.0
383.758026 26.0
384.229736 219.0
386.260651 158.0
386.306946 87.0
387.161346 74.0
387.220703 174.0
387.253937 170.0
389.206879 264.0
391.266052 43.0
393.253143 129.0
394.227325 71.0
395.183685 64.0
395.22641 116.0
395.269928 458.0
396.287811 83.0
396.841156 75.0
397.247345 846.0
397.333679 71.0
398.256927 65.0
399.19043 274.0
399.233185 44.0
399.297882 893.0
399.597504 32.0
399.70343 30.0
400.187103 101.0
400.302124 247.0
401.144806 31.0
401.238312 1666.0
401.302307 113.0
401.879486 46.0
402.247528 337.0
402.618988 41.0
402.734772 26.0
403.246796 158.0
404.150452 46.0
405.218719 129.0
405.570435 85.0
406.304108 92.0
407.217072 26.0
408.343292 49.0
409.283325 937.0
410.278168 281.0
410.92569 26.0
411.272186 173.0
411.317963 33.0
412.255554 81.0
412.394684 85.0
413.215485 323.0
413.279419 765.0
413.523682 35.0
413.91861 30.0
414.279877 46.0
415.18634 32.0
415.256409 439.0
416.24173 81.0
417.197235 1157.0
418.200928 367.0
419.19812 66.0
419.223419 66.0
419.258972 163.0
421.17337 84.0
421.206635 62.0
421.244324 163.0
421.279327 94.0
421.355469 77.0
422.180176 41.0
422.247009 208.0
422.282318 78.0
423.279022 260.0
424.295502 94.0
424.351593 55.0
425.193207 44.0
425.237915 51.0
425.349701 50.0
426.310577 43.0
426.441315 77.0
427.059631 54.0
427.186554 79.0
427.292938 5109.0
427.454132 64.0
427.950836 66.0
428.230499 71.0
428.295624 1124.0
428.408173 74.0
428.498138 26.0
429.229279 48.0
429.292847 250.0
429.360474 103.0
429.698517 38.0
430.238586 26.0
430.3367 46.0
430.408691 80.0
431.002441 82.0
431.217651 63.0
431.284424 3124.0
431.738251 34.0
432.213898 52.0
432.297699 601.0
432.608795 32.0
433.285492 145.0
434.263123 26.0
435.007538 50.0
435.256531 66.0
435.307068 60.0
435.333771 65.0
435.800476 40.0
435.918091 84.0
436.291016 47.0
437.27359 51.0
437.314117 35.0
439.256378 1295.0
439.856476 35.0
440.256561 266.0
440.301422 115.0
440.628052 90.0
440.900208 47.0
441.298309 2971.0
441.428741 121.0
442.21521 53.0
442.298431 800.0
442.905518 37.0
443.217865 43.0
443.259094 98.0
443.305206 58.0
444.301392 40.0
444.839264 27.0
445.182861 59.0
445.240021 55.0
446.30719 29.0
448.268799 88.0
448.951965 81.0
451.302399 327.0
452.018463 62.0
452.308075 53.0
453.159668 31.0
453.276367 162.0
453.965546 45.0
454.30307 153.0
455.286896 256.0
456.152222 33.0
456.288391 55.0
457.264923 721.0
458.254456 143.0
458.685883 33.0
459.269104 43.0
460.048584 90.0
460.280914 41.0
460.761322 29.0
461.042542 67.0
461.102997 29.0
461.292023 27.0
462.385803 33.0
463.162384 98.0
463.410217 93.0
464.049255 49.0
464.220856 44.0
464.292267 803.0
464.726013 34.0
465.227814 53.0
465.297546 334.0
465.354584 49.0
465.601593 83.0
465.967926 46.0
466.285309 127.0
466.358398 67.0
466.833435 32.0
467.258118 106.0
468.314606 199.0
469.186859 69.0
469.296936 415.0
470.052734 26.0
470.273499 86.0
470.313599 95.0
471.301788 28.0
472.306122 168.0
472.769318 39.0
473.293549 125.0
475.272125 109.0
476.288116 42.0
477.301727 54.0
478.306854 274.0
480.285522 194.0
480.315857 176.0
480.36676 79.0
480.956146 44.0
481.276154 161.0
481.329193 112.0
481.390625 151.0
482.302063 754.0
482.476501 96.0
483.225189 28.0
483.306732 275.0
483.887268 36.0
484.276123 109.0
485.226227 35.0
485.266113 53.0
486.324554 466.0
486.740692 65.0
487.301483 74.0
487.346497 53.0
488.259216 37.0
488.316101 182.0
488.604248 48.0
488.862701 66.0
489.52478 51.0
490.262146 170.0
490.313416 29.0
490.764771 57.0
490.801575 39.0
491.285217 53.0
492.266937 102.0
492.319092 717.0
493.326233 159.0
493.550049 30.0
494.233734 52.0
494.279572 266.0
494.318268 49.0
494.355103 58.0
495.168793 49.0
495.205078 63.0
495.308197 69.0
495.36319 168.0
495.605133 42.0
496.230225 33.0
496.319061 1347.0
496.392456 141.0
496.54068 89.0
497.272461 42.0
497.312927 475.0
497.764618 27.0
497.874847 54.0
498.321472 373.0
499.312592 129.0
500.00827 41.0
500.175812 84.0
500.305023 1689.0
500.400604 94.0
500.442932 83.0
501.313293 582.0
501.370392 62.0
501.505432 60.0
502.225861 46.0
502.292877 364.0
502.337433 109.0
503.288666 91.0
504.295013 66.0
506.219513 39.0
506.321167 1035.0
507.325256 404.0
508.283325 626.0
508.373535 576.0
508.441925 87.0
508.635071 73.0
509.280121 187.0
509.358429 162.0
509.439178 82.0
509.472595 70.0
510.330566 899.0
510.962891 65.0
511.331299 249.0
512.271545 802.0
512.376648 388.0
512.651001 61.0
513.221924 82.0
513.284241 133.0
513.351013 110.0
513.383362 97.0
514.179382 36.0
514.325012 3628.0
514.412964 127.0
514.471191 70.0
515.235229 38.0
515.330139 1147.0
516.269409 104.0
516.329468 446.0
517.304077 137.0
517.421753 46.0
517.571106 32.0
518.010986 26.0
518.317749 2986.0
519.319214 586.0
519.597778 42.0
519.701599 45.0
520.338135 247.0
520.6474 41.0
520.715942 28.0
520.979004 27.0
521.603516 47.0
522.251648 44.0
522.362244 378.0
522.885437 28.0
523.159729 66.0
523.344727 220.0
523.594849 45.0
523.713684 54.0
523.875061 63.0
524.001953 58.0
524.042664 48.0
524.333008 20489.0
524.4505 201.0
524.49762 184.0
524.571533 54.0
524.700073 36.0
524.918518 67.0
524.985962 52.0
525.137512 50.0
525.24939 304.0
525.334473 6029.0
525.490295 83.0
525.575623 28.0
525.669678 59.0
525.732361 35.0
525.929688 41.0
525.963196 52.0
526.222717 111.0
526.29364 1330.0
526.339844 1196.0
526.4776 53.0
526.87677 32.0
526.959229 33.0
527.00177 26.0
527.220276 42.0
527.29425 292.0
527.335754 132.0
527.365356 166.0
527.501282 37.0
527.549377 56.0
527.731934 35.0
527.800476 36.0
528.170898 44.0
528.276001 67.0
528.34082 252.0
528.382751 91.0
528.430603 56.0
528.903809 35.0
529.300049 75.0
529.343384 162.0
529.382935 104.0
530.286743 938.0
531.042053 38.0
531.284363 457.0
531.343262 91.0
532.29187 220.0
532.356384 54.0
532.657104 48.0
532.995544 33.0
533.319946 72.0
533.924744 45.0
534.361877 83.0
534.669495 34.0
535.597168 32.0
536.369873 95.0
536.557129 32.0
537.335938 49.0
538.169006 64.0
538.328003 533.0
538.426025 103.0
538.464661 55.0
539.310303 68.0
539.343689 112.0
539.420837 70.0
539.989319 48.0
540.374817 1236.0
540.484802 58.0
540.513245 52.0
541.224854 71.0
541.307739 55.0
541.384033 313.0
541.649475 38.0
541.779785 34.0
541.859619 62.0
542.341553 2876.0
542.62146 31.0
542.926941 36.0
543.273987 103.0
543.349121 1058.0
543.460815 26.0
543.834839 89.0
544.245605 118.0
544.296204 485.0
544.364624 627.0
544.527039 64.0
545.231262 67.0
545.296936 74.0
545.353943 244.0
545.398071 63.0
546.311584 47.0
546.349487 60.0
546.398987 76.0
547.307678 50.0
547.361389 92.0
548.33374 60.0
548.393311 60.0
548.468933 46.0
550.351624 91.0
551.375 53.0
552.348816 189.0
553.3349 134.0
553.377502 131.0
554.059998 41.0
554.380249 211.0
555.354004 364.0
556.327759 863.0
556.494019 52.0
557.258667 48.0
557.341309 196.0
558.261536 62.0
558.331665 65.0
558.376099 98.0
558.946289 63.0
559.28363 61.0
559.314819 41.0
559.391296 77.0
562.322937 49.0
563.367859 37.0
564.234558 57.0
564.296753 67.0
564.389893 176.0
564.574158 47.0
565.01416 44.0
565.231323 75.0
565.28241 45.0
565.331604 172.0
565.506226 49.0
566.327576 144.0
567.293945 36.0
567.343811 91.0
567.384521 74.0
567.428223 47.0
567.4646 55.0
568.367554 217.0
569.32782 63.0
569.419861 37.0
570.189453 29.0
570.302979 49.0
570.339966 55.0
570.773743 89.0
571.135071 37.0
571.193115 45.0
571.294495 35.0
571.401428 39.0
572.283508 139.0
573.299316 118.0
573.374451 37.0
573.440002 41.0
574.40387 52.0
575.328796 32.0
576.333679 40.0
576.973999 71.0
577.360352 118.0
577.403503 46.0
578.357422 86.0
578.399719 69.0
579.355042 75.0
580.335144 280.0
581.29364 61.0
581.408813 203.0
582.283203 258.0
582.391602 176.0
582.437683 140.0
583.271484 116.0
583.342468 445.0
583.406677 170.0
584.30072 58.0
584.358215 95.0
584.395081 75.0
585.294556 54.0
585.337708 36.0
585.405518 180.0
586.37738 251.0
587.211853 59.0
587.37561 69.0
588.394409 39.0
589.860535 45.0
591.416321 237.0
591.959106 54.0
592.400391 79.0
593.258179 52.0
593.301941 62.0
593.350586 117.0
593.415588 194.0
593.450989 78.0
594.070129 30.0
594.33844 49.0
594.400146 128.0
595.014648 33.0
595.380493 979.0
596.387451 245.0
596.948425 63.0
597.252441 31.0
597.36676 433.0
598.372498 209.0
598.500366 97.0
598.754761 96.0
599.23468 33.0
599.307434 105.0
599.364624 143.0
599.429749 160.0
600.323608 41.0
600.419617 133.0
601.213867 61.0
601.252991 79.0
601.359314 1581.0
601.528748 91.0
601.57666 67.0
602.261108 52.0
602.352661 446.0
603.355652 327.0
603.412231 136.0
603.549927 63.0
604.352173 90.0
604.45166 62.0
604.937805 53.0
605.357422 44.0
605.394043 65.0
606.415833 178.0
607.255798 34.0
607.351379 208.0
607.460205 33.0
607.878357 71.0
608.337402 78.0
608.434387 27.0
609.414978 3107.0
609.507874 125.0
609.549316 68.0
609.57959 52.0
609.711365 49.0
610.023376 38.0
610.186707 53.0
610.251892 50.0
610.419189 928.0
611.045044 50.0
611.407532 762.0
611.818787 85.0
612.132996 38.0
612.36969 106.0
612.404114 196.0
612.510193 66.0
612.630493 73.0
612.993286 41.0
613.267212 104.0
613.300476 147.0
613.338928 258.0
613.392761 2973.0
614.027344 34.0
614.151794 35.0
614.391846 743.0
614.662292 82.0
614.721863 37.0
615.288025 52.0
615.410034 255.0
616.154419 33.0
616.369568 77.0
616.42395 49.0
616.577637 48.0
617.301514 59.0
617.378906 66.0
617.575195 28.0
618.050171 59.0
618.324097 40.0
618.463867 54.0
618.618164 50.0
619.291687 58.0
619.405029 1349.0
619.467896 112.0
619.545654 114.0
619.609375 90.0
620.422546 421.0
620.633789 93.0
621.278809 63.0
621.360596 1295.0
621.443909 202.0
622.370728 369.0
622.464478 99.0
622.568542 44.0
623.099731 50.0
623.235168 45.0
623.40979 800.0
624.40625 242.0
624.646729 28.0
624.996643 48.0
625.278748 60.0
625.35437 675.0
625.440918 181.0
625.692078 68.0
625.983032 69.0
626.058899 97.0
626.171875 33.0
626.35022 280.0
626.417114 57.0
627.013367 70.0
627.185608 60.0
627.306885 46.0
627.406677 2519.0
627.549438 53.0
628.118164 78.0
628.282776 62.0
628.3479 122.0
628.409973 856.0
629.099731 32.0
629.327759 50.0
629.36438 108.0
629.41748 369.0
629.724976 44.0
630.41449 34.0
630.456421 119.0
630.543701 34.0
630.598694 61.0
630.74231 70.0
630.785522 61.0
630.955139 104.0
631.0 28.0
631.106323 28.0
631.155579 29.0
631.401184 16672.0
631.528076 93.0
631.591003 102.0
631.662598 113.0
631.736206 52.0
631.781494 37.0
631.892822 33.0
632.19043 76.0
632.282104 129.0
632.315613 118.0
632.405334 5163.0
632.674194 37.0
632.868774 65.0
632.950317 63.0
633.411804 1565.0
633.571899 36.0
633.713867 49.0
634.227722 31.0
634.411438 301.0
634.498352 75.0
634.902466 28.0
635.231201 46.0
635.749146 37.0
635.798889 190.0
635.882324 53.0
635.970337 72.0
636.07251 36.0
636.378113 72.0
636.455688 83.0
636.564758 42.0
636.751892 30.0
636.805969 40.0
637.010498 60.0
637.080627 36.0
637.189819 103.0
637.280396 168.0
637.416443 37096.0
637.587219 161.0
637.717834 111.0
637.785034 52.0
637.841919 31.0
637.929077 88.0
637.997192 59.0
638.177917 95.0
638.226257 109.0
638.41864 14706.0
638.558899 149.0
638.633362 74.0
638.864502 47.0
638.937073 55.0
639.078613 57.0
639.150391 39.0
639.208984 48.0
639.304871 74.0
639.375 1258.0
639.424744 2875.0
639.551086 104.0
639.61908 112.0
639.893555 31.0
640.120422 82.0
640.369446 422.0
640.404358 381.0
640.443237 287.0
640.715881 89.0
640.804688 57.0
641.191528 81.0
641.418457 1754.0
641.502808 80.0
641.697388 48.0
641.798401 68.0
642.072571 52.0
642.184387 38.0
642.422791 700.0
642.707886 27.0
642.754883 29.0
643.133423 29.0
643.228882 35.0
643.283997 60.0
643.368774 2711.0
643.882263 36.0
644.139709 38.0
644.173401 28.0
644.248108 48.0
644.372314 1002.0
644.435974 114.0
645.304993 40.0
645.389832 282.0
645.668762 80.0
646.392761 73.0
646.705078 32.0
647.001892 30.0
648.591492 34.0
648.640808 37.0
648.749756 32.0
648.883911 30.0
649.365234 87.0
650.411194 61.0
651.132263 36.0
651.284546 58.0
651.407227 263.0
652.340881 43.0
652.416748 324.0
653.353455 116.0
654.354309 120.0
654.458313 153.0
654.65979 38.0
655.284119 142.0
655.427917 8700.0
655.624634 163.0
656.147339 49.0
656.231018 34.0
656.29248 55.0
656.348389 259.0
656.430115 2990.0
656.607544 66.0
656.639404 74.0
656.891418 33.0
657.081238 26.0
657.32605 27.0
657.397217 358.0
657.430481 415.0
657.675781 36.0
658.385376 179.0
658.433472 423.0
659.014465 46.0
659.395569 51.0
659.468018 107.0
659.55304 32.0
659.955688 39.0
660.185608 71.0
660.333191 32.0
660.411377 175.0
660.48114 30.0
661.375854 89.0
662.384277 45.0
662.860046 58.0
663.355835 52.0
663.399902 42.0
663.453247 117.0
663.499451 48.0
663.553528 49.0
664.460144 64.0
664.858154 45.0
665.272522 34.0
665.402283 76.0
665.795959 36.0
666.384094 47.0
666.418884 78.0
666.691956 42.0
667.25415 42.0
667.479553 75.0
667.544312 62.0
667.791931 59.0
668.323303 42.0
668.371521 60.0
668.433044 290.0
669.293091 33.0
669.420654 443.0
670.429321 195.0
670.645264 27.0
670.860413 29.0
671.325867 29.0
671.406982 31.0
672.367737 56.0
675.363647 43.0
676.375977 27.0
676.51886 54.0
677.358643 143.0
677.410095 52.0
678.35437 106.0
678.423035 231.0
679.349121 59.0
679.404968 379.0
680.352905 121.0
680.405334 302.0
680.464966 62.0
681.406433 108.0
681.455627 158.0
682.442932 67.0
683.315979 31.0
683.434448 93.0
684.403259 151.0
684.45575 97.0
685.377808 107.0
685.469116 54.0
686.240784 32.0
686.381714 61.0
686.43512 166.0
686.459595 182.0
687.435364 64.0
687.48468 156.0
687.999817 73.0
688.946838 27.0
689.386047 75.0
690.468994 85.0
691.383118 60.0
691.440247 43.0
692.441162 265.0
692.533691 58.0
693.345337 49.0
693.439819 149.0
694.079468 34.0
694.189026 33.0
694.369141 344.0
695.275085 49.0
695.36969 588.0
695.452637 59.0
696.013794 41.0
696.3125 57.0
696.363098 140.0
696.427063 1464.0
697.431946 941.0
698.041626 61.0
698.249573 54.0
698.424988 105.0
698.82074 33.0
699.394958 46.0
699.466064 194.0
700.34137 31.0
700.46283 42.0
700.494751 49.0
701.497742 64.0
701.903198 45.0
702.395142 95.0
704.364441 65.0
704.496582 48.0
705.518921 59.0
705.835754 50.0
706.44812 167.0
706.50647 46.0
706.56311 75.0
707.418457 139.0
708.05719 39.0
708.38385 105.0
708.46405 432.0
709.452576 416.0
710.43927 969.0
710.702881 43.0
710.979553 51.0
711.445251 375.0
712.296387 96.0
712.393494 540.0
713.139709 52.0
713.387146 256.0
713.510559 62.0
713.988098 42.0
714.170959 31.0
714.272217 56.0
714.355652 80.0
714.436646 2673.0
714.586182 66.0
714.651611 55.0
715.243286 49.0
715.356079 44.0
715.446838 980.0
716.436829 284.0
716.539185 67.0
717.430786 50.0
717.616943 37.0
718.213013 51.0
718.501831 49.0
718.553467 38.0
719.478638 35.0
720.426392 193.0
722.391785 89.0
722.51062 225.0
723.0578 38.0
723.399902 63.0
723.449707 33.0
723.493958 169.0
724.095337 30.0
724.457092 485.0
724.575684 90.0
725.325317 88.0
725.456482 207.0
726.197388 60.0
726.378235 103.0
726.40564 95.0
726.486877 1257.0
727.485168 278.0
727.608704 33.0
727.854553 48.0
728.002686 27.0
728.340576 63.0
728.4505 2499.0
728.553833 63.0
728.688843 72.0
729.089111 29.0
729.328186 63.0
729.377869 219.0
729.45459 1018.0
729.574219 30.0
729.810181 33.0
730.326599 53.0
730.397095 1091.0
730.474915 239.0
731.20343 60.0
731.399841 578.0
731.522339 110.0
731.619202 88.0
731.899292 41.0
732.384705 162.0
732.434753 117.0
732.488586 506.0
733.412659 41.0
733.49115 56.0
734.445251 221.0
734.507263 60.0
735.299072 35.0
735.436707 108.0
736.368225 28.0
736.43927 132.0
736.486145 130.0
736.791016 71.0
737.488953 90.0
737.548157 57.0
737.945862 51.0
738.311951 107.0
738.438232 421.0
738.78241 29.0
739.250793 38.0
739.441528 217.0
740.108215 56.0
740.499512 403.0
740.641907 85.0
740.871948 42.0
741.497192 306.0
742.475647 210.0
743.473145 150.0
743.870605 73.0
744.312378 130.0
744.360046 123.0
744.487976 6716.0
744.591125 110.0
744.826599 48.0
745.391724 105.0
745.486572 3371.0
745.963257 42.0
746.208923 42.0
746.489929 518.0
746.626709 42.0
746.762207 27.0
747.18634 46.0
747.381348 51.0
747.479126 46.0
748.117554 30.0
748.396118 52.0
748.45343 90.0
748.684753 45.0
748.851379 39.0
749.510498 62.0
749.977661 57.0
750.15741 75.0
750.32782 66.0
750.501953 6129.0
750.641296 39.0
750.678833 61.0
750.724609 151.0
751.08197 30.0
751.406372 26.0
751.5047 2853.0
751.601929 102.0
751.765991 27.0
752.456177 963.0
752.505249 1204.0
752.580139 136.0
752.721863 57.0
752.797485 37.0
753.347351 34.0
753.392822 41.0
753.464844 454.0
753.610718 31.0
753.739807 73.0
754.487366 825.0
754.520386 638.0
754.729431 50.0
755.029907 27.0
755.141113 33.0
755.40094 47.0
755.453491 105.0
755.5 379.0
755.614258 49.0
755.884888 32.0
756.450012 1547.0
756.550293 38.0
757.021057 39.0
757.272583 61.0
757.457275 607.0
758.407715 77.0
758.455566 206.0
759.399414 48.0
759.707947 32.0
760.055176 26.0
762.415527 101.0
763.122009 30.0
763.288818 65.0
763.510498 130.0
763.619812 35.0
764.508118 144.0
764.553284 74.0
765.323853 49.0
765.394409 32.0
765.471191 75.0
766.302551 35.0
766.603394 36.0
767.08728 29.0
767.49408 50.0
767.870178 36.0
768.137451 72.0
768.223022 46.0
768.264282 99.0
768.34021 69.0
768.408447 189.0
768.512878 10548.0
768.780212 65.0
768.827942 48.0
768.874146 54.0
769.283386 51.0
769.384644 87.0
769.515442 4391.0
769.673462 70.0
769.806641 74.0
770.458923 794.0
770.515015 1392.0
770.851318 26.0
771.170471 99.0
771.4599 264.0
771.508911 214.0
771.573975 63.0
771.765198 29.0
772.34436 48.0
772.432739 26.0
772.495789 107.0
773.35675 70.0
773.486206 35.0
773.928162 31.0
773.985962 51.0
774.468079 121.0
774.554199 43.0
774.649231 69.0
775.796814 53.0
775.976868 33.0
776.472107 51.0
778.479553 47.0
778.822998 58.0
779.448425 34.0
779.510803 48.0
779.889954 50.0
780.030945 49.0
780.305176 50.0
780.450195 194.0
780.717651 69.0
781.467773 304.0
781.520081 312.0
782.457092 130.0
782.520325 231.0
783.382141 47.0
783.513367 164.0
783.918701 41.0
784.521057 85.0
784.614014 56.0
785.120605 56.0
785.507751 39.0
785.606445 37.0
786.514465 32.0
787.160583 75.0
787.747498 29.0
787.980225 26.0
789.442871 261.0
789.767334 37.0
790.439148 227.0
790.505127 56.0
791.260742 28.0
791.331848 52.0
791.411499 103.0
791.507751 1089.0
792.489624 711.0
792.60437 76.0
793.49231 217.0
794.00354 82.0
794.503845 167.0
795.474915 72.0
795.513123 122.0
796.003357 27.0
796.363647 61.0
796.427246 33.0
796.509766 592.0
796.675842 74.0
796.768005 50.0
797.507812 290.0
797.968567 55.0
798.466125 239.0
798.503235 212.0
798.956482 44.0
799.375122 53.0
799.526855 1263.0
800.092285 52.0
800.468262 106.0
800.526367 286.0
800.646973 27.0
801.520691 83.0
801.602356 44.0
801.689331 33.0
802.240662 51.0
802.472717 78.0
803.527222 56.0
804.095947 47.0
804.453979 67.0
804.781555 40.0
805.501465 167.0
806.497192 51.0
807.265747 40.0
807.455566 429.0
807.550293 74.0
807.584778 105.0
808.18457 38.0
808.28833 46.0
808.453003 495.0
809.153748 69.0
809.39209 57.0
809.512146 4565.0
809.683044 88.0
809.840881 36.0
809.898193 33.0
809.964111 87.0
810.28302 33.0
810.515137 2796.0
810.670776 76.0
810.94635 34.0
811.008057 37.0
811.308411 53.0
811.398621 136.0
811.521118 782.0
812.258545 38.0
812.507874 91.0
812.659119 38.0
813.486145 279.0
813.534485 804.0
814.273987 86.0
814.525085 543.0
814.740845 27.0
814.934082 43.0
815.111328 77.0
815.360962 58.0
815.472229 345.0
815.55835 172.0
815.977722 34.0
816.484558 75.0
816.524231 47.0
817.452026 33.0
817.773438 42.0
818.034119 41.0
818.899109 38.0
819.420959 44.0
819.52301 1298.0
820.015747 32.0
820.328186 112.0
820.392883 35.0
820.525024 614.0
820.64447 59.0
821.343323 56.0
821.420959 60.0
821.473938 235.0
821.522949 148.0
821.582458 67.0
821.927063 51.0
822.485168 282.0
822.553467 66.0
822.742371 49.0
823.519409 662.0
823.96814 39.0
824.44751 41.0
824.532349 406.0
824.873901 66.0
825.155579 47.0
825.28479 34.0
825.466125 1731.0
825.770691 60.0
825.896423 45.0
826.120056 30.0
826.17627 39.0
826.241211 73.0
826.475708 728.0
827.056946 26.0
827.28656 84.0
827.32959 122.0
827.522217 17998.0
827.691162 284.0
827.744629 202.0
827.797852 73.0
827.855591 118.0
827.9151 66.0
828.084167 40.0
828.282593 61.0
828.388489 135.0
828.430542 232.0
828.523743 7885.0
828.752869 103.0
828.828369 57.0
828.95282 78.0
829.0979 58.0
829.232239 28.0
829.528076 2074.0
829.732056 27.0
830.126831 55.0
830.413086 71.0
830.533081 296.0
830.847046 35.0
831.197449 31.0
831.822266 29.0
831.886169 36.0
832.121521 36.0
832.296082 28.0
832.399658 81.0
833.164612 27.0
833.499939 221.0
833.948486 32.0
834.379333 53.0
834.514343 49.0
834.809387 45.0
834.906067 61.0
834.977173 28.0
835.429565 106.0
835.862976 82.0
836.94989 64.0
837.535889 7353.0
837.663513 153.0
837.767761 43.0
837.950378 30.0
838.061707 69.0
838.390076 58.0
838.536072 2931.0
838.684814 54.0
838.959778 30.0
839.239563 31.0
839.490723 755.0
839.543701 893.0
839.68103 58.0
839.937927 28.0
840.153137 26.0
840.500549 340.0
840.541748 300.0
840.696533 134.0
840.837952 28.0
841.074219 72.0
841.378906 77.0
841.526306 2372.0
841.720337 79.0
841.827454 38.0
841.878296 30.0
841.954224 50.0
842.435242 55.0
842.535645 880.0
842.920349 85.0
843.092224 63.0
843.29425 31.0
843.383423 43.0
843.477966 2432.0
843.695068 50.0
843.8255 74.0
843.893616 57.0
844.305969 26.0
844.478333 1012.0
844.673218 32.0
845.143066 29.0
845.495972 265.0
845.604004 47.0
845.659424 35.0
845.954468 30.0
846.075867 38.0
846.908569 40.0
846.987427 62.0
847.470703 42.0
848.492065 50.0
849.194641 44.0
849.561279 57.0
849.625732 67.0
849.877319 38.0
850.048584 40.0
850.127563 29.0
850.570435 130.0
851.174927 28.0
851.543335 169.0
852.611938 38.0
853.139282 41.0
853.496643 45.0
853.549561 30.0
853.734192 27.0
854.472534 40.0
854.522705 95.0
854.563599 118.0
854.608887 62.0
854.753662 41.0
855.37616 48.0
855.433228 97.0
855.54126 4244.0
855.650391 96.0
855.700012 51.0
855.801392 51.0
856.397095 45.0
856.461426 152.0
856.540405 1798.0
856.693848 120.0
856.779541 26.0
856.931091 30.0
857.179749 54.0
857.273926 33.0
857.553223 661.0
857.84491 43.0
858.55835 258.0
859.10498 38.0
859.481506 106.0
859.569397 64.0
859.791687 27.0
860.653198 26.0
861.010132 37.0
861.520142 75.0
861.620178 43.0
862.472839 71.0
863.567932 74.0
864.603516 91.0
865.594727 56.0
865.920593 32.0
865.959473 30.0
866.543213 127.0
866.701477 42.0
867.182983 39.0
867.241821 27.0
867.391052 43.0
867.580505 1534.0
867.77478 37.0
868.334656 51.0
868.46344 70.0
868.515869 69.0
868.593201 453.0
868.710266 65.0
869.391296 63.0
869.532776 384.0
869.852051 44.0
870.261108 28.0
870.545532 199.0
870.681946 43.0
871.476074 39.0
871.523315 46.0
871.577515 31.0
872.629578 27.0
873.922913 27.0
873.982971 47.0
875.524353 41.0
877.508484 55.0
878.80188 28.0
879.539856 45.0
881.23938 29.0
881.430847 42.0
881.594482 145.0
881.81073 52.0
882.601257 66.0
883.509277 73.0
883.556091 42.0
883.619812 132.0
884.029236 34.0
884.551941 97.0
884.604431 144.0
885.027954 45.0
885.587708 266.0
885.954712 35.0
886.525696 80.0
886.570557 60.0
890.380676 33.0
891.662903 42.0
891.874756 28.0
892.13916 43.0
892.223938 64.0
892.523926 192.0
893.303955 41.0
893.533203 257.0
894.274353 51.0
894.488464 54.0
894.547546 209.0
894.608276 59.0
895.511047 126.0
895.699524 38.0
896.545349 51.0
897.294067 56.0
899.809631 34.0
900.585938 31.0
901.437805 45.0
902.548035 72.0
903.451538 54.0
903.544617 198.0
903.92981 35.0
904.50824 109.0
904.618408 102.0
905.52887 32.0
905.618774 142.0
906.594055 41.0
907.234375 45.0
908.469055 55.0
908.517883 50.0
908.558044 79.0
908.615967 175.0
909.239746 34.0
909.4953 83.0
909.588928 842.0
909.677856 56.0
909.755005 26.0
910.570557 745.0
910.696838 83.0
910.991089 46.0
911.54718 220.0
911.583984 364.0
912.550415 152.0
913.535461 132.0
913.728088 78.0
913.791077 35.0
914.492981 64.0
914.618958 130.0
915.68335 28.0
916.615051 53.0
918.150635 59.0
918.580078 48.0
918.987 74.0
919.638 59.0
920.54303 759.0
921.058533 44.0
921.391541 38.0
921.451416 42.0
921.542114 561.0
922.421448 42.0
922.540466 409.0
922.604492 218.0
923.605286 207.0
923.687134 57.0
923.882141 60.0
924.415894 42.0
924.579102 72.0
924.637146 102.0
925.439331 29.0
925.541382 54.0
926.181274 29.0
926.495361 75.0
926.596069 690.0
926.717712 92.0
926.796387 52.0
927.422424 52.0
927.48407 69.0
927.630493 388.0
927.916138 43.0
928.488525 85.0
928.575073 786.0
928.852661 79.0
929.051941 104.0
929.269043 46.0
929.574219 413.0
930.037659 36.0
930.081848 58.0
930.566895 102.0
930.605347 94.0
930.842224 27.0
930.90448 39.0
931.577759 57.0
931.85968 27.0
932.232666 66.0
932.379272 41.0
932.447815 103.0
932.605652 2295.0
933.179382 58.0
933.536133 212.0
933.607727 1087.0
933.811707 62.0
933.878967 66.0
933.934814 53.0
934.617493 292.0
934.704346 54.0
935.61554 187.0
935.757874 26.0
935.829102 92.0
936.416077 65.0
936.468811 41.0
936.601562 1358.0
936.846924 42.0
937.085205 30.0
937.483337 41.0
937.609863 913.0
937.739807 42.0
937.789062 90.0
937.992798 36.0
938.362061 40.0
938.416687 47.0
938.554443 4567.0
938.988464 54.0
939.238342 59.0
939.361816 58.0
939.447632 95.0
939.554688 2479.0
939.700256 53.0
939.798462 67.0
939.843384 93.0
940.058533 52.0
940.564331 826.0
940.747437 112.0
940.869141 51.0
941.427429 41.0
941.532898 136.0
941.620667 158.0
942.056274 43.0
942.194153 53.0
942.545898 312.0
942.612549 69.0
942.88623 66.0
944.37323 74.0
944.556213 31.0
944.826355 32.0
944.897583 38.0
945.221069 82.0
945.49353 42.0
946.609863 28.0
947.212585 36.0
947.367676 31.0
947.426453 32.0
947.506897 41.0
947.90387 60.0
948.528625 83.0
948.602783 80.0
949.561768 43.0
949.773193 51.0
949.812073 51.0
949.911865 73.0
949.982544 68.0
950.073242 45.0
950.144104 42.0
950.331299 38.0
950.438904 90.0
950.616516 12161.0
950.780273 43.0
950.828247 70.0
950.957214 120.0
951.003418 81.0
951.393127 83.0
951.614258 6673.0
951.800171 30.0
952.216797 52.0
952.278381 30.0
952.333191 35.0
952.462646 77.0
952.619324 2062.0
952.770996 75.0
952.822449 32.0
952.923584 45.0
953.03064 61.0
953.255981 38.0
953.620544 393.0
954.114502 53.0
954.178162 41.0
954.353027 50.0
954.608337 3981.0
954.864502 47.0
955.370972 28.0
955.441711 27.0
955.610962 2266.0
955.736572 99.0
955.839844 40.0
956.016296 94.0
956.104553 55.0
956.207703 33.0
956.265747 93.0
956.313965 107.0
956.563354 21519.0
956.753662 234.0
956.866699 99.0
956.961792 67.0
957.095703 44.0
957.214539 47.0
957.34314 53.0
957.566772 11663.0
957.73468 73.0
957.866516 152.0
957.991333 95.0
958.40387 82.0
958.571228 3694.0
958.790833 48.0
958.939148 38.0
959.02832 57.0
959.49054 66.0
959.578979 696.0
959.638611 170.0
959.80481 41.0
960.329712 44.0
960.426147 52.0
960.522522 59.0
960.579773 80.0
960.695801 36.0
960.812378 46.0
961.443298 32.0
961.513733 28.0
961.586487 46.0
961.921753 48.0
962.05011 52.0
962.177124 51.0
962.42572 52.0
962.555237 32.0
962.890137 33.0
963.12677 33.0
963.203552 34.0
963.642395 26.0
963.731995 32.0
964.286377 82.0
964.731873 29.0
965.621094 32.0
966.157471 38.0
966.240295 31.0
966.543579 120.0
966.582458 131.0
967.565369 46.0
967.660278 44.0
968.005249 27.0
968.447205 39.0
968.624207 2380.0
968.809753 63.0
969.46228 53.0
969.622925 2122.0
969.795593 62.0
969.994446 40.0
970.295166 27.0
970.479492 30.0
970.640259 633.0
970.793945 64.0
971.417114 32.0
971.512817 34.0
971.637817 255.0
972.016296 31.0
972.625854 289.0
972.967712 33.0
973.260315 32.0
973.303955 32.0
973.573059 44.0
974.596008 52.0
974.658203 30.0
975.866272 56.0
976.671326 61.0
976.860962 53.0
977.954224 48.0
978.641052 104.0
979.618652 243.0
980.153992 44.0
980.265503 27.0
980.571655 112.0
980.627441 157.0
981.607361 36.0
981.971863 101.0
982.654419 80.0
982.776123 36.0
983.601624 59.0
984.380737 33.0
984.57019 179.0
985.55011 81.0
985.830078 34.0
986.553406 36.0
986.675903 38.0
987.407349 26.0
987.542114 48.0
988.561768 66.0
988.607971 50.0
988.69281 49.0
989.616516 33.0
990.577087 38.0
991.507751 56.0
991.67749 58.0
992.676636 59.0
993.796265 35.0
994.662048 63.0
995.605164 55.0
995.666931 118.0
996.603149 166.0
996.6427 144.0
997.607971 51.0
997.664734 85.0
997.99939 36.0
998.104187 34.0
999.410278 34.0
1000.469849 53.0
1002.590759 35.0
1004.656067 64.0
1005.503052 50.0
1005.626221 589.0
1005.730896 52.0
1005.79718 28.0
1006.141052 66.0
1006.619019 501.0
1006.751953 40.0
1006.797913 63.0
1007.444153 38.0
1007.613098 262.0
1007.728638 46.0
1008.615173 94.0
1008.954651 33.0
1009.196411 32.0
1011.489807 33.0
1012.783508 42.0
1013.642944 201.0
1014.658997 77.0
1015.657959 37.0
1019.627563 125.0
1020.256653 46.0
1020.673584 129.0
1021.720581 57.0
1022.380432 87.0
1022.534302 109.0
1022.666077 594.0
1022.789368 67.0
1023.200989 38.0
1023.637024 1059.0
1023.769897 122.0
1024.630615 641.0
1024.875366 31.0
1025.01001 38.0
1025.636963 103.0
1026.658203 107.0
1027.0177 58.0
1029.669556 51.0
1030.612671 60.0
1031.685669 86.0
1032.61084 83.0
1032.688965 34.0
1032.738403 72.0
1032.926514 28.0
1033.637573 97.0
1035.609985 60.0
1035.701172 109.0
1036.576904 86.0
1037.516113 70.0
1037.674927 65.0
1038.014648 51.0
1038.595947 71.0
1038.654175 113.0
1039.052856 27.0
1039.108521 54.0
1039.70813 812.0
1040.466675 71.0
1040.713501 524.0
1041.500366 53.0
1041.632202 636.0
1041.689575 266.0
1041.746216 112.0
1042.635254 438.0
1043.652832 253.0
1044.259155 67.0
1045.030518 34.0
1045.453125 40.0
1045.572388 40.0
1045.692627 300.0
1046.49292 36.0
1046.694092 80.0
1047.335815 30.0
1047.511963 45.0
1047.695557 31.0
1047.743652 38.0
1049.518921 51.0
1049.606323 29.0
1049.686768 654.0
1050.002075 38.0
1050.57019 39.0
1050.688477 589.0
1050.887939 51.0
1051.57666 93.0
1051.64502 104.0
1051.687134 126.0
1052.62207 85.0
1052.706055 35.0
1053.699829 79.0
1053.751953 92.0
1054.610229 37.0
1054.692261 109.0
1055.666748 54.0
1055.721924 31.0
1056.015381 33.0
1060.401611 38.0
1060.686646 47.0
1061.055542 29.0
1062.786377 42.0
1063.695679 1775.0
1064.571411 54.0
1064.696167 1452.0
1065.34668 58.0
1065.692505 464.0
1066.059814 46.0
1066.449707 40.0
1066.709717 94.0
1067.236572 27.0
1067.537109 101.0
1067.608398 117.0
1067.69458 2460.0
1067.951538 58.0
1068.02124 76.0
1068.224243 26.0
1068.474487 52.0
1068.592163 30.0
1068.691162 773.0
1068.800903 118.0
1069.509277 34.0
1069.687866 590.0
1070.103882 28.0
1070.628296 280.0
1070.711792 183.0
1070.817627 26.0
1071.649658 100.0
1071.878906 45.0
1072.18103 47.0
1072.55896 33.0
1072.622681 113.0
1072.684814 29.0
1073.629395 50.0
1074.097534 35.0
1074.682251 35.0
1077.975342 34.0
1078.254395 34.0
1078.687866 44.0
1079.189209 75.0
1079.395142 58.0
1079.688599 64.0
1080.751465 80.0
1080.991333 29.0
1081.35376 44.0
1081.461792 30.0
1081.541748 211.0
1081.708618 6702.0
1082.014771 88.0
1082.20105 31.0
1082.262085 48.0
1082.454346 53.0
1082.713379 4301.0
1082.880615 111.0
1082.950317 51.0
1083.326416 50.0
1083.384399 44.0
1083.500244 82.0
1083.599854 70.0
1083.714844 1427.0
1083.81897 102.0
1084.544922 39.0
1084.705811 358.0
1084.887329 38.0
1085.339233 40.0
1085.726807 207.0
1085.810791 62.0
1086.421997 42.0
1087.664062 39.0
1088.740356 43.0
1089.567505 56.0
1089.746338 57.0
1090.484863 35.0
1090.702881 68.0
1091.69043 483.0
1091.930298 56.0
1092.703613 290.0
1092.882812 50.0
1093.658203 154.0
1093.72522 88.0
1094.427979 46.0
1094.633911 42.0
1094.684692 62.0
1094.803101 65.0
1096.11792 76.0
1096.664551 40.0
1098.415771 29.0
1100.713379 47.0
1100.804443 36.0
1101.637451 38.0
1101.692749 90.0
1101.771118 41.0
1102.391968 36.0
1102.720459 27.0
1104.168945 43.0
1107.351318 44.0
1107.473755 39.0
1107.583008 81.0
1107.687378 51.0
1107.758545 45.0
1107.806519 44.0
1108.720703 342.0
1109.267334 34.0
1109.716675 628.0
1109.878052 28.0
1110.244995 38.0
1110.418701 46.0
1110.688477 121.0
1110.760132 242.0
1111.646362 38.0
1111.700073 94.0
1111.749756 62.0
1112.690063 44.0
1113.101562 67.0
1113.858276 31.0
1114.647583 34.0
1114.702881 75.0
1115.515381 36.0
1115.800049 26.0
1116.808594 49.0
1116.850098 64.0
1117.45874 28.0
1117.773071 46.0
1118.507446 73.0
1118.70105 1118.0
1118.841797 57.0
1118.896484 39.0
1119.519287 49.0
1119.710938 916.0
1119.895996 39.0
1120.288452 33.0
1120.703735 477.0
1120.986572 62.0
1121.5979 46.0
1121.719604 178.0
1122.692017 61.0
1122.791626 74.0
1123.733398 94.0
1124.744995 33.0
1125.827271 36.0
1126.72998 1240.0
1127.105103 56.0
1127.542725 44.0
1127.595337 26.0
1127.741211 530.0
1127.827637 92.0
1128.72522 182.0
1128.838501 27.0
1129.110352 32.0
1129.605835 27.0
1129.670532 46.0
1130.599609 26.0
1130.74353 34.0
1132.725464 520.0
1133.718994 244.0
1133.751221 251.0
1134.216064 43.0
1134.729248 172.0
1135.652344 32.0
1135.74292 434.0
1136.258789 38.0
1136.323608 38.0
1136.611816 306.0
1136.720215 3559.0
1136.838013 225.0
1137.322388 31.0
1137.71875 2141.0
1138.068604 27.0
1138.211914 30.0
1138.611328 95.0
1138.72229 784.0
1139.057617 32.0
1139.333862 27.0
1139.729492 332.0
1139.994141 28.0
1140.259033 28.0
1140.674561 41.0
1140.74353 86.0
1141.673584 34.0
1142.05896 27.0
1142.539062 30.0
1142.759277 53.0
1142.854248 46.0
1142.985962 79.0
1144.637939 71.0
1146.606812 42.0
1146.668457 45.0
1147.675537 73.0
1147.749634 35.0
1148.18396 29.0
1148.644043 38.0
1149.933105 33.0
1150.078613 30.0
1150.21875 32.0
1150.731567 1833.0
1151.493408 29.0
1151.602051 75.0
1151.740112 783.0
1152.763184 339.0
1153.739258 333.0
1153.85083 76.0
1154.43457 51.0
1154.577637 63.0
1154.725464 3623.0
1154.920898 107.0
1154.972778 53.0
1155.103271 60.0
1155.193481 33.0
1155.300293 68.0
1155.387817 32.0
1155.725342 2240.0
1156.572388 38.0
1156.736694 948.0
1156.883301 51.0
1157.022583 27.0
1157.422852 36.0
1157.740112 264.0
1158.161377 27.0
1158.770752 86.0
1159.404175 42.0
1159.546997 47.0
1160.195435 45.0
1160.565186 36.0
1160.86145 39.0
1161.528198 82.0
1162.779053 237.0
1163.44519 29.0
1163.666382 43.0
1163.771606 195.0
1164.086304 27.0
1164.198486 33.0
1164.393677 36.0
1164.698486 36.0
1164.778809 71.0
1166.348389 33.0
1166.700928 36.0
1167.659668 68.0
1168.235474 29.0
1168.488647 43.0
1168.741089 992.0
1169.130249 30.0
1169.595947 35.0
1169.749268 654.0
1170.315552 28.0
1170.603516 58.0
1170.751343 156.0
1171.755371 72.0
1173.35083 71.0
1176.803833 26.0
1177.766235 47.0
1179.333862 101.0
1180.492798 44.0
1180.596069 101.0
1180.654907 67.0
1180.777832 485.0
1180.911011 65.0
1181.76062 336.0
1182.644165 45.0
1182.810059 66.0
1183.769287 112.0
1184.79895 47.0
1186.786255 26.0
1187.777466 81.0
1188.76001 37.0
1188.998535 45.0
1189.804565 27.0
1190.835083 42.0
1192.715576 26.0
1193.787109 29.0
1194.706665 28.0
1194.79126 36.0
1194.861816 63.0
1195.798096 78.0
1196.831543 46.0
1198.04187 27.0
1200.659668 26.0
1201.508423 31.0
1202.643188 65.0
1203.804565 158.0
1203.928711 41.0
1204.568848 69.0
1204.663452 29.0
1204.776123 424.0
1204.950439 45.0
1205.049438 56.0
1205.768311 275.0
1206.035889 27.0
1206.785278 172.0
1207.309082 33.0
1207.820679 39.0
1208.694336 39.0
1208.785522 60.0
1208.932007 42.0
1209.337524 29.0
1212.175659 34.0
1212.590088 71.0
1213.775757 114.0
1214.209229 56.0
1214.763428 33.0
1215.261719 50.0
1215.495483 42.0
1215.559326 35.0
1215.729004 78.0
1216.262451 59.0
1216.776978 39.0
1217.606567 48.0
1219.5271 92.0
1220.921265 40.0
1221.68457 80.0
1221.799194 808.0
1222.80896 1164.0
1222.908569 75.0
1223.030884 42.0
1223.803589 753.0
1224.824707 272.0
1225.078735 30.0
1225.419922 26.0
1225.466431 50.0
1225.609741 32.0
1225.792603 59.0
1225.854858 37.0
1226.795532 47.0
1226.88269 27.0
1229.593262 66.0
1231.310425 36.0
1231.391846 35.0
1231.57019 49.0
1231.675903 45.0
1231.788452 1288.0
1231.907471 109.0
1232.469116 57.0
1232.664185 34.0
1232.792358 1583.0
1232.944946 58.0
1233.005371 33.0
1233.074829 28.0
1233.129272 38.0
1233.483398 45.0
1233.669312 47.0
1233.784058 660.0
1234.775391 183.0
1234.945923 42.0
1235.59082 45.0
1235.728271 60.0
1235.777832 54.0
1235.922852 46.0
1236.614868 35.0
1237.164185 41.0
1237.335205 40.0
1237.796509 99.0
1238.037598 54.0
1238.404541 65.0
1238.558472 94.0
1238.795044 120.0
1239.323364 29.0
1239.662842 101.0
1239.819336 4057.0
1240.007324 67.0
1240.09436 124.0
1240.460938 46.0
1240.824585 2765.0
1240.970459 206.0
1241.056396 33.0
1241.128906 55.0
1241.222778 128.0
1241.299316 33.0
1241.364258 39.0
1241.431885 47.0
1241.610474 33.0
1241.714233 108.0
1241.815063 1293.0
1242.028198 29.0
1242.088135 27.0
1242.394653 32.0
1242.574463 63.0
1242.81958 360.0
1242.947632 54.0
1243.137451 29.0
1243.241699 40.0
1243.363281 78.0
1243.503174 34.0
1243.811768 188.0
1244.224487 26.0
1244.543823 35.0
1244.706665 91.0
1245.427979 44.0
1245.958252 47.0
1246.519409 41.0
1246.794067 32.0
1246.92395 29.0
1247.353516 34.0
1247.619507 28.0
1247.789673 68.0
1248.199707 54.0
1248.253296 59.0
1248.532837 58.0
1248.644287 79.0
1248.733032 38.0
1248.857788 31.0
1248.978394 40.0
1249.047241 55.0
1249.158569 61.0
1249.221191 37.0
1249.480835 78.0
1249.631714 388.0
1249.797485 22867.0
1250.053467 194.0
1250.233154 156.0
1250.38562 91.0
1250.448364 132.0
1250.525757 33.0
1250.599365 124.0
1250.798584 18799.0
1250.983765 302.0
1251.154907 153.0
1251.251953 50.0
1251.325806 125.0
1251.471558 41.0
1251.510254 45.0
1251.596191 68.0
1251.806274 6671.0
1251.93811 86.0
1252.079834 126.0
1252.170166 87.0
1252.266479 55.0
1252.484131 88.0
1252.575806 100.0
1252.643311 50.0
1252.809204 1751.0
1253.164185 107.0
1253.446655 57.0
1253.508911 49.0
1253.817871 390.0
1254.018555 123.0
1254.144531 32.0
1254.374146 60.0
1254.804199 78.0
1254.852051 49.0
1254.907349 34.0
1255.008545 49.0
1255.241577 42.0
1255.367065 47.0
1255.41687 46.0
1255.750854 42.0
1256.039307 73.0
1256.163574 53.0
1256.895874 46.0
1257.18689 53.0
1257.272461 31.0
1257.581665 27.0
1258.361938 83.0
1258.897217 27.0
1259.081543 72.0
1259.207031 26.0
1259.26001 42.0
1259.499023 37.0
1259.680542 28.0
1259.731445 32.0
1260.168579 31.0
1260.366577 41.0
1260.73291 33.0
1260.930786 55.0
1261.121094 40.0
1261.247559 37.0
1261.31311 46.0
1261.421021 34.0
1262.201538 38.0
1262.404053 39.0
1262.874268 35.0
1262.991333 34.0
1263.065186 29.0
1263.296509 28.0
1263.350342 35.0
1263.897827 33.0
1263.935791 34.0
1264.004272 27.0
1264.335815 50.0
1264.433105 62.0
1264.592163 61.0
1264.898438 55.0
1265.105713 62.0
1265.196655 43.0
1265.367432 30.0
1265.546143 34.0
1265.615356 58.0
1265.777588 40.0
1265.911743 87.0
1266.128662 28.0
1266.272095 42.0
1266.579956 131.0
1266.75647 36.0
1266.821899 46.0
1266.98877 88.0
1267.216675 51.0
1267.283569 184.0
1267.348511 107.0
1267.414307 47.0
1267.509766 155.0
1267.807251 71481.0
1267.995483 434.0
1268.083496 335.0
1268.158203 177.0
1268.253906 193.0
1268.337891 154.0
1268.452393 115.0
1268.567261 250.0
1268.809937 55490.0
1269.007568 306.0
1269.151489 59.0
1269.230835 236.0
1269.295166 144.0
1269.356689 79.0
1269.47583 53.0
1269.596558 291.0
1269.812134 18892.0
1270.201904 132.0
1270.296753 136.0
1270.400146 117.0
1270.453979 103.0
1270.536499 131.0
1270.624268 120.0
1270.812866 4607.0
1271.047363 101.0
1271.159058 55.0
1271.220337 48.0
1271.307251 38.0
1271.441406 36.0
1271.552734 35.0
1271.624023 51.0
1271.69812 118.0
1271.817749 1184.0
1272.197144 47.0
1272.334351 31.0
1272.425659 45.0
1272.551636 28.0
1272.5979 42.0
1272.668457 44.0
1272.705444 46.0
1272.749634 80.0
1272.846558 111.0
1272.975586 49.0
1273.04541 32.0
1273.310791 55.0
1273.399536 26.0
1273.488159 57.0
1273.604492 40.0
1273.69751 54.0
1273.779907 59.0
1273.85022 83.0
1273.944214 35.0
1274.004517 86.0
1274.106201 51.0
1274.203491 91.0
1274.461182 64.0
1274.545776 37.0
1274.843384 97.0
1275.141357 90.0
1275.52417 62.0
1275.570312 59.0
1275.828735 45.0
1275.92627 70.0
1276.092163 115.0
1276.220581 27.0
1276.383423 34.0
1276.633179 78.0
1276.952759 31.0
1277.41272 38.0
1277.617432 49.0
1277.718262 56.0
1277.937256 44.0
1278.310913 100.0
1278.551636 30.0
1278.792603 33.0
1279.063599 27.0
1279.14502 37.0
1279.408325 29.0
1279.800049 26.0
1279.849731 32.0
1280.310913 38.0
1280.714844 33.0
1280.795898 27.0
1281.147461 26.0
1282.642212 35.0
1283.332886 38.0
1283.4729 32.0
1284.351685 46.0
1285.62854 47.0
1286.026367 36.0
1287.032227 48.0
1287.099121 52.0
1287.424805 27.0
1287.618896 36.0
1288.736084 31.0
1290.193481 26.0
1290.532715 30.0
1290.737793 32.0
1290.793213 29.0
1291.060547 41.0
1291.115479 49.0
1296.414185 37.0
1297.453735 33.0
1298.341064 26.0
1301.959961 33.0
1302.236694 33.0
1303.169067 37.0
1307.371948 41.0
1307.637329 49.0
1308.606812 36.0
1308.934326 49.0
1309.251343 28.0
1309.510864 36.0
1309.642456 68.0
1310.085205 45.0
1312.783447 46.0
1312.890137 46.0
1314.176636 35.0
1315.203247 64.0
1318.107178 38.0
1320.359131 39.0
1320.740479 88.0
1323.497314 30.0
1324.747803 46.0
1327.0802 37.0
1327.611938 64.0
1327.850342 35.0
1328.582275 41.0
1333.012329 38.0
1337.394531 29.0
1342.632324 38.0
1344.946655 29.0
1349.091919 28.0
1350.671631 65.0
1353.274658 66.0
1353.667847 42.0
1354.009644 46.0
1354.624023 27.0
1366.645264 49.0
1372.726807 29.0
1381.388672 69.0
1390.61145 32.0
1392.20813 59.0
1392.564453 34.0
1395.814697 62.0
1399.716064 37.0
1401.530884 52.0
1401.762573 44.0
1401.981567 52.0
1402.476807 33.0
1404.962524 63.0
1405.86499 33.0
1409.721924 41.0
1421.638062 29.0
1422.505981 28.0
1423.768921 39.0
1425.513306 34.0
1427.147217 28.0
1428.003174 41.0
1431.025024 35.0
1431.081787 42.0
1433.409546 29.0
1436.408081 33.0
1439.72522 38.0
1442.893311 75.0
1444.616455 31.0
1445.829956 28.0
1445.92749 82.0
1450.371216 29.0
1451.097168 30.0
1455.990112 28.0
1457.663818 44.0
1458.393433 33.0
1462.130615 27.0
1462.292847 30.0
1471.349121 41.0
1472.651733 34.0
1482.758545 27.0
1489.937866 39.0
1494.928711 33.0
1499.380493 48.0
1503.37561 39.0
1503.954834 32.0
1506.544189 49.0
1509.705811 31.0
1519.174072 33.0
1520.489868 28.0
1524.613037 33.0
1528.874146 36.0
1529.886475 40.0
1530.907593 32.0
1533.228882 33.0
1538.292847 50.0
1542.72998 43.0
1544.085938 29.0
1544.98291 35.0
1546.202026 30.0
1546.280762 48.0
1546.898438 45.0
1549.491699 34.0
1550.051025 26.0
1552.845215 106.0
1556.537354 30.0
1559.298218 35.0
1559.519897 32.0
1562.407104 29.0
1567.228027 26.0
1577.159546 27.0
1577.899658 36.0
1590.592529 39.0
1591.481445 39.0
1594.492676 32.0
1601.470093 30.0
1615.733154 42.0
1617.844604 47.0
1629.965698 34.0
1630.629761 32.0
1633.78833 35.0
1635.389038 27.0
1638.258911 41.0
1638.855469 40.0
1639.761475 30.0
1641.687866 49.0
1641.965454 29.0
1643.373779 36.0
1645.662598 31.0
1645.878174 38.0
1646.001587 28.0
1654.785889 40.0
1660.056885 60.0
1664.117065 35.0
1664.981323 34.0
1665.103882 53.0
1669.042236 42.0
1677.952881 38.0
1681.47876 47.0
1682.183594 27.0
1683.719849 29.0
1685.204468 49.0
1685.287109 42.0
1698.472168 32.0
1699.05603 33.0
1707.176636 58.0
1709.675659 35.0
1714.000366 31.0
1714.924316 42.0
1716.239868 75.0
1716.481079 39.0
1727.292114 52.0
1728.599365 35.0
1735.11438 60.0
1739.937256 55.0
1746.214478 44.0
1748.324585 33.0
1748.690674 33.0
1748.83374 33.0
1751.417358 50.0
1752.267578 65.0
1755.286377 43.0
1758.576416 53.0
1759.217896 28.0
1764.05957 39.0
1766.357056 35.0
1771.188599 33.0
1771.336426 42.0
1784.618652 32.0
1798.275269 41.0
1799.323853 36.0
1803.488647 47.0
1807.997437 44.0
1808.161133 38.0
1809.817383 36.0
1812.135986 27.0
1827.126953 26.0
1831.317627 39.0
1841.431396 50.0
1842.500244 33.0
1843.777588 75.0
1846.194214 46.0
1848.717896 69.0
1851.218384 39.0
1851.327881 63.0
1853.902222 39.0
1858.446655 72.0
1859.00647 34.0
1864.004761 76.0
1866.263428 31.0
1868.015259 29.0
1875.24939 37.0
1875.870728 74.0
1879.970337 68.0
1883.038208 34.0
1886.220337 29.0
1887.471436 35.0
1888.259888 32.0
1892.314209 27.0
1892.552612 57.0
1898.792358 30.0
1903.236572 55.0
1920.512085 28.0
1925.708252 42.0
1931.984375 47.0
1933.328491 80.0
1934.77832 49.0
1941.189941 93.0
1943.690796 44.0
1944.733154 80.0
1947.573608 60.0
1947.815674 51.0
1951.0625 52.0
1952.804932 32.0
1954.340454 27.0
1955.991089 41.0
1956.782471 44.0
1957.799438 48.0
1958.942993 46.0
1960.865112 29.0
1961.409912 29.0
1967.067383 43.0
1968.223511 35.0
1973.089233 42.0
1976.661133 38.0
1977.532959 33.0
1983.314209 42.0
1985.152222 45.0
1985.335327 34.0
1986.594604 73.0
1988.581177 28.0
1992.515991 31.0
1992.871216 28.0
2002.196899 31.0
2003.344604 31.0
END IONS
