BEGIN IONS
PEPMASS=673.247
CHARGE=1
MSLEVEL=2
SOURCE_INSTRUMENT=LC-ESI-Hybrid FT
FILENAME=f.lfnothias/140221_LF_015_AcOEt_ASE-cpd-5.mzXML;
SEQ=*..*
IONMODE=Positive
ORGANISM=GNPS-LIBRARY
NAME=2,3,5,7,8,15-hexaacetoxy-9,14-dioxojatropha-6(17),11E-diene (5) M+Na
PI=Louis-Felix NOTHIAS-SCAGLIA
DATACOLLECTOR=Louis-Felix NOTHIAS-SCAGLIA
SMILES=C=C([C@@H]1OC(C)=O)[C@H](OC(C)=O)[C@@H](OC(C)=O)C(C(C)(C)/C=C/[C@@H](C)C([C@]2(OC(C)=O)[C@]1([H])[C@@H](OC(C)=O)[C@](C)(OC(C)=O)C2)=O)=O
INCHI=InChI=1S/C32H42O14/c1-15-12-13-30(9,10)28(40)26(43-19(5)35)25(42-18(4)34)16(2)24(41-17(3)33)23-29(44-20(6)36)31(11,45-21(7)37)14-32(23,27(15)39)46-22(8)38/h12-13,15,23-26,29H,2,14H2,1,3-11H3/b13-12+/t15-,23+,24?,25?,26?,29?,31?,32?/m1/s1
INCHIAUX=
PUBMED=24926807
SUBMITUSER=lfnothias
TAGS=
LIBRARYQUALITY=3
SPECTRUMID=CCMSLIB00000424721
SCANS=1
183.431793 1286.423096
183.43367 2194.523193
183.435547 2926.634277
183.437424 2763.444824
183.439301 1646.370117
186.010086 1962.425293
186.011993 2234.145752
186.013916 2332.272705
186.015839 2027.186523
186.017746 1305.523682
196.442642 620.607788
196.444733 2030.084961
196.446808 2905.625732
196.448883 2210.358154
196.450974 567.23999
200.583023 729.871216
200.585159 2941.956055
200.587311 4561.455566
200.589462 4284.441406
200.591599 2528.644775
200.59375 898.425659
203.063889 535.872559
203.066071 2927.804932
203.068268 6175.990723
203.07045 7530.850586
203.072632 5964.966309
203.074829 3096.84668
203.077011 1088.724609
225.085541 866.35022
225.088089 2142.779541
225.090637 3281.187012
225.093185 3199.031738
225.095749 2016.208008
225.098297 910.006714
227.086761 1736.063232
227.08934 2773.459961
227.091934 2932.547363
227.094513 2043.018066
227.097092 787.944336
231.058578 710.483765
231.061234 2486.670654
231.063889 3686.855957
231.066544 3543.497559
231.069199 2109.053467
231.071854 456.545288
239.100464 284.924927
239.103256 2708.864502
239.106049 4333.161133
239.108841 4054.144043
239.111633 2213.409668
239.114426 32.009277
243.132141 1991.073486
243.13501 4808.379883
243.137878 6012.300781
243.140747 4709.575195
243.143616 2103.235352
243.146469 164.873535
245.071777 502.986084
245.074677 6761.688965
245.077576 15298.397461
245.080475 20173.001953
245.083374 17588.828125
245.086273 9925.165039
245.089172 3003.440918
245.092072 481.825195
253.115814 516.155273
253.118851 2086.412354
253.121887 2834.463379
253.124939 2258.405518
253.127975 1156.133057
253.152328 111.266479
253.15538 3194.354004
253.158417 5084.963379
253.161469 4237.890625
253.164505 1547.21167
255.327377 2019.298584
255.33046 2633.095459
255.333557 2671.370361
255.336639 2054.698975
255.339722 961.941528
263.135956 2160.959473
263.139191 4998.788574
263.142426 6623.550293
263.14566 5757.606934
263.148865 3081.943359
263.1521 600.03186
269.845215 1027.173096
269.848572 2104.355957
269.851929 2743.51416
269.855286 2626.692627
269.858612 1799.321289
271.15979 298.11377
271.163177 3649.844238
271.166534 7304.424805
271.169922 8627.824219
271.173279 6620.187012
271.176666 3062.48584
271.180054 529.795288
281.141937 1514.012695
281.145508 14540.674805
281.149048 34230.171875
281.152618 47111.632812
281.156189 42306.601562
281.15976 24023.746094
281.1633 6450.407715
289.767609 1858.987061
289.771332 2977.233887
289.775085 3604.142578
289.778809 3714.61377
289.782532 3425.070801
289.786255 2799.700195
289.789978 1825.639893
291.125488 634.373291
291.129242 2837.165283
291.132996 5688.191895
291.136749 7206.016602
291.140503 5984.868652
291.144257 2876.450195
291.14801 56.235107
292.753937 1496.905029
292.757721 2201.018799
292.761505 2549.101074
292.765289 2333.927002
292.769073 1575.796875
299.151947 2500.313477
299.155853 13720.086914
299.15976 29294.748047
299.163666 38060.070312
299.167572 32540.017578
299.171509 17663.183594
299.175415 4996.011719
299.179321 662.206787
309.131042 737.039551
309.135132 4369.312988
309.139252 20898.166016
309.143372 46091.265625
309.147461 62670.96875
309.151581 56234.34375
309.15567 31972.107422
309.15979 8959.615234
309.16391 543.422607
309.402313 1629.191162
309.406403 2701.55249
309.410522 2833.946533
309.414642 2406.454346
309.418762 1625.694092
313.162415 919.675415
313.166595 2408.02832
313.170807 5241.441406
313.174988 8423.168945
313.179169 9494.02832
313.18335 7259.851562
313.187531 3361.905762
313.191742 471.935303
316.961639 1855.807373
316.965912 2528.095947
316.970184 2796.069824
316.974426 2514.8479
316.978699 2011.530273
323.157684 4058.803711
323.162079 7746.050781
323.166473 7666.109375
323.170868 4068.026855
323.175262 24.372437
327.140839 1953.106445
327.145294 2792.978516
327.14978 24855.898438
327.154236 55680.164062
327.158722 73085.351562
327.163177 62842.265625
327.167664 34816.664062
327.172119 10948.049805
327.176605 1785.981934
331.786438 1007.938721
331.790985 2257.643555
331.795563 3082.092285
331.80014 2896.974365
331.804688 1973.291504
341.155579 639.912842
341.160339 3927.338379
341.1651 13793.900391
341.169861 26653.785156
341.174622 32650.822266
341.179382 26346.414062
341.184143 13231.367188
341.188904 3165.556641
341.193665 698.702637
345.157074 870.872559
345.161926 5365.32373
345.166779 9552.12793
345.171631 10134.150391
345.176483 6719.192383
345.181305 2481.488281
345.186157 643.210571
348.107666 1545.506836
348.112549 2175.903809
348.117462 2450.5625
348.122375 2178.699707
348.127289 1172.937256
351.145935 768.059937
351.150909 4648.854492
351.155884 8127.901367
351.160858 8261.279297
351.165833 5047.459473
351.170807 1167.220459
359.177612 3712.109863
359.18277 7298.306641
359.187897 7809.844727
359.193054 4976.611816
359.198181 1169.462891
369.149323 1114.506348
369.154694 15328.798828
369.160034 48762.3125
369.165405 84591.78125
369.170746 94796.5
369.176117 70487.96875
369.181488 32127.939453
369.186829 5969.568359
373.13147 1013.818604
373.136932 2837.48584
373.142365 3642.460449
373.147827 3325.141602
373.153259 2546.586426
373.158722 1743.931152
383.172089 1144.368896
383.177765 3394.282715
383.183441 4915.591309
383.189087 4198.674805
383.194763 2033.66626
387.159302 308.532715
387.16507 5255.464844
387.170837 16502.421875
387.176575 27584.318359
387.182343 29674.310547
387.18811 21019.019531
387.193848 8970.155273
387.199615 1680.05542
391.138947 1400.719482
391.144775 2608.715088
391.150635 3392.24707
391.156464 2887.331299
391.162323 1370.976318
392.158112 1973.407471
392.163971 2457.462158
392.16983 2659.817627
392.17572 2182.09375
392.18158 1227.085449
401.178406 30.010132
401.184479 2260.303223
401.190552 6025.76416
401.196625 7948.899414
401.202698 6466.853516
401.208771 3018.69873
401.214844 307.008301
405.056183 1331.07373
405.062347 2158.184326
405.068481 2697.64502
405.074646 2835.912842
405.080811 2659.596436
405.086975 2350.24292
405.09314 2041.94751
411.161743 1659.348389
411.16803 8620.185547
411.174347 16683.021484
411.180634 19613.667969
411.186951 15255.464844
411.193237 7632.818359
411.199554 2122.75708
411.205841 161.732422
429.165497 1941.182129
429.172211 19848.269531
429.178925 62094.320312
429.185638 106307.085938
429.192383 117351.640625
429.199097 85435.921875
429.205811 37660.28125
429.212524 6690.22168
433.143555 550.991943
433.15036 4133.035156
433.157196 8055.12793
433.164001 9232.686523
433.170807 6868.102539
433.177612 3033.068359
433.184448 194.076782
443.186005 1587.832031
443.193054 6832.683105
443.200104 12684.803711
443.207153 14489.336914
443.214203 10586.100586
443.221252 4247.878906
443.228302 58.636597
447.189514 1352.334473
447.196655 3516.434082
447.203796 4408.130859
447.210938 3630.940918
447.218079 2215.443848
447.22522 1291.264893
451.15332 8848.297852
451.160583 27002.806641
451.167816 44206.546875
451.175049 46914.226562
451.182312 32921.195312
451.189545 13979.571289
451.196777 2420.43457
467.135315 1811.82373
467.142944 2717.762207
467.150574 3047.196289
467.158203 2788.692871
467.165833 1844.496338
471.182343 9969.461914
471.190063 29260.794922
471.197815 45170.390625
471.205536 44888.390625
471.213257 29063.226562
471.221008 10739.31543
471.228729 761.950073
489.189209 2077.927246
489.197357 7441.363281
489.205536 13066.636719
489.213715 14426.599609
489.221893 10365.669922
489.230072 4438.432129
489.238251 858.424072
493.154205 641.427124
493.162476 17503.779297
493.170746 47719.414062
493.179047 73041.703125
493.187317 72973.125
493.195587 47795.914062
493.203857 18239.527344
493.212128 2262.921143
531.189941 976.355957
531.199158 3093.298828
531.208435 8099.276367
531.217651 12640.094727
531.226929 12909.181641
531.236206 8702.737305
531.245422 3430.708008
553.14563 1316.986084
553.155457 2703.877686
553.165283 4248.605469
553.17511 101771.492188
553.184937 370594.3125
553.194763 693504.375
553.204651 829100.8125
553.214478 661331.9375
553.224304 334074.78125
553.234131 83873.242188
564.130859 1408.730225
564.140991 3800.828125
564.151123 5273.393066
564.161255 4425.000977
564.171387 1869.907471
591.212952 14292.091797
591.223816 47964.171875
591.23468 84361.054688
591.245544 95802.476562
591.256409 72623.460938
591.267273 34437.070312
591.278137 7748.958984
609.690247 1609.293457
609.701599 3313.932129
609.713013 3216.68457
609.724365 2754.004395
609.735779 2552.582275
609.747131 1309.57666
612.097839 550.091553
612.109253 3645.26123
612.120728 2223.827637
612.132141 2404.668213
612.143616 1401.317383
612.303894 1453.680908
612.315308 4167.075195
612.326782 2306.568604
612.338257 3942.132812
612.34967 2552.548584
612.361145 3268.811035
612.372559 1201.160156
612.384033 5467.713867
612.395508 3891.211426
612.406921 2968.747803
612.418396 2009.424805
612.429871 4507.100098
612.441284 2328.201904
612.452759 4716.924805
612.464233 2488.534912
612.475647 5412.412598
612.487122 3681.236328
612.498596 3941.93457
612.51001 2211.288086
612.521484 5610.77832
612.532959 3279.278809
612.544373 5181.67041
612.555847 3255.927246
612.567322 5229.09082
612.578796 3364.563477
612.59021 5215.250977
612.601685 2080.007324
612.613159 8115.912109
612.624634 5784.249023
612.636047 4757.170898
612.647522 3363.986816
612.658997 6153.526367
612.670471 3684.317383
612.681885 6692.839355
612.693359 3331.279785
612.704834 8072.095703
612.716309 4864.630371
612.727722 8052.300781
612.739197 5149.919922
612.750671 8117.636719
612.762146 5311.143066
612.773621 8740.49707
612.785034 5883.935547
612.796509 8359.363281
612.807983 5221.269043
612.819458 9968.286133
612.830933 6989.076172
612.842407 9708.358398
612.853821 6171.406738
612.865295 10687.945312
612.87677 6856.488281
612.888245 11486.365234
612.899719 7834.390625
612.911194 12285.318359
612.922668 7860.736328
612.934082 13517.15332
612.945557 8595.899414
612.957031 14645.44043
612.968506 9379.961914
612.97998 16267.419922
612.991455 11316.400391
613.00293 16897.900391
613.014404 11833.036133
613.025879 18341.123047
613.037354 12275.900391
613.048828 20891.162109
613.060303 13193.774414
613.071716 24896.847656
613.083191 16460.380859
613.094666 27053.275391
613.10614 19870.775391
613.117615 24798.039062
613.129089 14267.974609
613.140564 33147.453125
613.152039 23831.246094
613.163513 15123.382812
613.174988 46830.273438
613.186462 220488.703125
613.197937 1367105.875
613.209412 3244355.25
613.220886 4644984.0
613.232361 4414033.5
613.243835 2757784.0
613.25531 1000050.75
613.266785 119951.359375
613.278259 17898.404297
613.289734 22376.542969
613.301208 15964.466797
613.312744 12856.625
613.324219 31786.720703
613.335693 20219.107422
613.347168 26151.751953
613.358643 16252.554688
613.370117 24866.148438
613.381592 15288.129883
613.393066 21251.849609
613.404541 12285.014648
613.416016 20883.988281
613.42749 13046.029297
613.438965 17627.787109
613.4505 10756.729492
613.461975 16379.039062
613.47345 9945.208008
613.484924 15085.779297
613.496399 9753.878906
613.507874 12527.53125
613.519348 7229.75293
613.530884 13808.975586
613.542358 8189.220703
613.553833 11915.039062
613.565308 7847.638672
613.576782 10040.810547
613.588257 5981.260254
613.599792 10598.905273
613.611267 6534.682129
613.622742 9145.207031
613.634216 5761.885254
613.645691 8449.716797
613.657227 3682.276367
613.668701 10827.512695
613.680176 7160.697266
613.69165 6885.419922
613.703186 4434.739258
613.714661 7929.807617
613.726135 4947.205566
613.73761 6464.586914
613.749146 2891.963867
613.76062 8840.375
613.772095 5699.03418
613.783569 5528.108887
613.795105 3197.768066
613.80658 7123.041016
613.818054 4168.036621
613.829529 6044.26123
613.841064 3665.930176
613.852539 6021.838867
613.864014 4117.131348
613.875549 5211.836426
613.887024 3437.056152
613.898499 4668.936523
613.910034 2375.484863
613.921509 5660.110352
613.932983 2987.814209
613.944519 5156.536133
613.955994 2941.097656
613.967468 5050.191406
613.979004 3520.150391
613.990479 4001.129395
614.002014 2005.831055
614.013489 5180.448242
614.024963 3444.754883
614.036499 3606.69043
614.047974 2609.163086
614.059448 3249.163574
614.070984 1430.196289
614.082458 4415.397949
614.093994 2595.947998
614.105469 2944.751953
614.117004 648.614502
614.128479 5431.99707
614.139954 3560.720703
614.151489 2735.051514
614.162964 1293.745361
614.22052 5418.770508
614.231995 3176.866211
614.24353 3235.793457
614.255005 2052.648193
614.266541 3579.293945
614.278015 2818.440918
614.289551 2350.780029
614.301025 855.069824
614.485168 1277.538086
614.496704 4052.537598
614.508179 2927.236816
614.519714 2796.041748
614.53125 2271.939941
614.542725 3468.016113
614.55426 2134.250488
616.74762 2158.085449
616.759155 3236.971191
616.770752 4405.692383
616.782349 4438.141602
616.793884 1894.019287
617.037048 2679.25
617.048645 3765.117676
617.060242 2349.053955
617.071838 2203.202881
617.083435 3003.4021
617.094971 2217.647949
617.106567 1256.225098
618.220215 1775.487061
618.231873 2996.316162
618.243469 3143.213379
618.255066 2238.214111
618.266724 1059.508057
628.928223 2082.420898
628.940125 2919.270752
628.952026 2840.738525
628.963928 2431.134033
628.975891 1773.456299
END IONS
