BEGIN IONS
PEPMASS=677.835
CHARGE=2
MSLEVEL=2
SOURCE_INSTRUMENT=LC-ESI-Hybrid FT
FILENAME=f.novakj/T_peptide.mzXML;
SEQ=*..*
IONMODE=Positive
ORGANISM=GNPS-LIBRARY
NAME=Branched T-peptide N-acetyl-ESL(KNFI)DQYG-NH2 M+H
PI=Havlicek
DATACOLLECTOR=
SMILES=CCC(C)C(N)C(=O)NC(CC1=CC=CC=C1)C(=O)NC(CC(N)=O)C(=O)NCCCCC(NC(=O)C(CC(C)C)NC(=O)C(CO)NC(=O)C(CCC(O)=O)NC(C)=O)C(=O)NC(CC(O)=O)C(=O)NC(CCC(N)=O)C(=O)NC(CC1=CC=C(O)C=C1)C(=O)NCC(N)=O
INCHI=
INCHIAUX=
PUBMED=26195308
SUBMITUSER=novakj
TAGS=
LIBRARYQUALITY=3
SPECTRUMID=CCMSLIB00000531489
SCANS=1
116.28315 1687111.0
116.283783 1340240.0
116.387581 801296.0
125.973061 2496219.0
125.974663 707725.0
126.086388 956085.0
137.422684 800313.0
137.424515 1689013.0
137.425964 1417085.0
137.548065 694847.0
137.937027 713066.0
142.313095 687444.0
151.164459 762509.0
151.166672 1666200.0
151.167892 1726320.0
151.302933 1593751.0
156.181671 701063.0
168.11441 862134.0
171.918854 1102147.0
205.906982 738965.0
238.118286 866528.0
294.149994 863737.0
294.154907 1308222.0
294.160095 1048186.0
316.78009 1309968.0
316.788483 1399808.0
343.187012 901094.0
352.536011 719925.0
354.165558 2008776.0
366.177002 800638.0
372.176392 1557890.0
374.115051 737106.0
374.373077 727041.0
374.381561 760762.0
374.388702 966131.0
375.202454 1618782.0
407.156158 946941.0
419.193512 726873.0
434.168732 764886.0
444.064301 744738.0
464.177673 790975.0
477.22406 788724.0
481.203766 7063387.0
482.187927 902907.0
482.206696 1214893.0
493.857361 743256.0
499.768097 780470.0
517.688843 826430.0
537.080444 749767.0
546.772644 1125388.0
555.28479 813063.0
561.674011 877511.0
570.318237 777200.0
575.78302 851033.0
583.795593 2495205.0
584.296448 1636166.0
584.797729 906126.0
592.308411 3902882.0
592.810181 2464961.0
604.003357 768293.0
606.381531 765144.0
618.300842 1391667.0
618.802917 982075.0
621.038147 773924.0
623.291504 1034075.0
626.815308 789062.0
631.804382 1094993.0
632.297485 6056372.0
632.799194 3747048.0
633.301392 1403643.0
633.80249 1220799.0
640.810974 12208915.0
641.312683 8752965.0
641.81427 3232503.0
643.687378 849769.0
660.31604 3650971.0
660.807556 3084684.0
661.309753 2033406.0
661.811707 851697.0
662.39032 814570.0
668.829346 3888952.0
669.32135 35511084.0
669.823547 24263006.0
670.325134 8862866.0
670.827515 3572423.0
671.328186 821979.0
676.839783 882146.0
677.312683 805893.0
677.834839 32662702.0
678.336975 24374500.0
678.426392 2205838.0
678.839111 9183515.0
679.326721 1541648.0
679.341309 2540434.0
679.428101 913803.0
679.820129 1481127.0
680.311218 805437.0
686.386353 2110955.0
687.390259 886512.0
691.391296 801948.0
694.218262 818959.0
703.412964 995380.0
729.57428 816835.0
733.088806 936661.0
750.201477 811676.0
764.092041 882781.0
765.603088 898582.0
769.035706 847087.0
778.473328 905054.0
857.439453 5605997.0
858.03064 911616.0
858.441284 2926990.0
862.364197 922906.0
874.466431 2164567.0
875.469177 1071792.0
893.472656 890309.0
913.866394 1022943.0
929.466187 877464.0
929.927673 955299.0
942.755737 905762.0
966.46698 1330025.0
980.466675 2319111.0
983.492737 1766254.0
984.494019 913671.0
989.492004 1243289.0
1070.377441 980797.0
1100.523926 2030913.0
1101.53418 1005133.0
1117.548584 1720936.0
1118.556396 1201287.0
1120.932861 1075772.0
1149.723145 1033318.0
1169.318726 1045751.0
1219.373779 1038523.0
1377.209595 1083389.0
1422.303955 1064167.0
1435.847168 1051089.0
END IONS
