BEGIN IONS
PEPMASS=522.77
CHARGE=2
MSLEVEL=2
SOURCE_INSTRUMENT=LC-ESI-Orbitrap
FILENAME=f.Rolandoo1/20190519 Moroidin paper GNPS/Amaranthipeptide B.mzXML;
SEQ=*..*
IONMODE=Positive
ORGANISM=GNPS-LIBRARY
NAME=Amaranthipeptide B M+2H
PI=Jing-Ke Weng
DATACOLLECTOR=Roland Kersten
SMILES=O=C1CC[C@@H](C(N[C@H](C(N[C@@H](CC(C)C)C(N[C@@H](C(C)C)C(N[C@@](C(N[C@H](C(N[C@@H](CC(N)=O)C(N[C@@H](CC2=CN3C=N2)C(O)=O)=O)=O)CCCNC(N)=N)=O)([H])CC4=C3NC5=C4C=CC6=C5)=O)=O)=O)[C@@H]6C(C)C)=O)N1
INCHI=
INCHIAUX=
PUBMED=
SUBMITUSER=Rolandoo1
TAGS=
LIBRARYQUALITY=3
SPECTRUMID=CCMSLIB00005435904
SCANS=1
73.083084 675.269409
73.083672 1153.010498
73.084267 1313.825317
73.084854 1010.990356
73.085449 451.434814
77.044113 1709.246948
77.044754 2801.447754
77.045395 3226.157959
77.046036 2705.764893
77.046677 1596.659912
84.038544 65.416641
84.039268 1122.53772
84.040001 3516.733398
84.040733 4580.573242
84.041466 6254.537598
84.042191 22628.580078
84.042923 74747.414062
84.043655 153915.078125
84.044388 231038.40625
84.045113 232204.953125
84.045845 150844.546875
84.046577 73987.789062
84.04731 20710.074219
84.048042 5252.824707
84.048767 2643.89502
84.0495 669.981445
85.046127 55.782021
85.046875 708.878113
85.047615 1196.0271
85.048363 1317.327026
85.049103 968.8927
85.04985 406.392609
86.090126 204.245239
86.090881 1886.638306
86.091637 3830.30542
86.092392 15811.694336
86.093155 21661.064453
86.09391 72940.195312
86.094666 251604.953125
86.095428 603256.375
86.096184 957075.9375
86.096939 1089934.5
86.097694 779674.8125
86.098457 423858.15625
86.099213 135291.671875
86.099968 40838.683594
86.100731 18962.613281
86.101486 10811.628906
87.053246 52.813019
87.054016 592.7323
87.054787 1173.473877
87.055557 1599.558228
87.056328 1565.422607
87.057098 1076.224976
87.057869 421.105133
87.097168 686.385803
87.097939 4822.662109
87.098709 11151.969727
87.09948 20097.091797
87.10025 22357.794922
87.101021 15780.106445
87.101791 7067.248535
87.102562 2536.42334
87.103333 270.672028
88.037331 42.576912
88.038109 452.32608
88.038895 910.479492
88.03968 1139.529175
88.040459 974.138306
88.041245 539.908752
109.403557 423.404205
109.40464 2160.541504
109.405724 3103.674805
109.406807 3136.848633
109.407898 2268.035645
109.408981 1007.772888
110.067375 379.404999
110.068466 2237.394287
110.069565 4516.032227
110.070656 6056.250488
110.071754 6087.307129
110.072845 4520.351562
110.073944 2108.500977
112.083099 96.918541
112.084229 898.050781
112.08535 3128.508545
112.086479 5487.769043
112.087601 6598.870117
112.08873 5712.809082
112.089851 3515.662109
112.090981 1279.582764
129.059692 136.899933
129.061081 1334.406494
129.062469 4245.116699
129.063873 6883.174316
129.065262 8131.416016
129.06665 7053.282715
129.068039 4316.665039
129.069427 1639.098389
129.070816 275.621033
140.138626 142.269836
140.140213 614.99646
140.141785 1175.488281
140.143356 1423.539551
140.144928 1149.483643
140.1465 506.54895
141.761856 171.756973
141.763458 662.404175
141.76506 1046.942993
141.766663 1150.705811
141.768265 906.188782
141.769852 426.490082
156.071014 535.630798
156.072861 2234.910889
156.074707 3672.10791
156.076553 4487.247559
156.078415 4262.585449
156.080261 3130.257324
156.082108 1474.837891
177.050186 316.608337
177.052414 1178.600464
177.054642 1585.189575
177.056885 1471.781006
177.059113 940.071228
177.061356 338.234497
185.152222 544.902588
185.154617 3796.726318
185.156998 15845.238281
185.159393 43693.050781
185.161789 80494.78125
185.164169 106608.257812
185.166565 94177.242188
185.168945 56763.832031
185.171341 24876.679688
185.173737 6988.108887
185.176117 2037.546509
188.466537 467.568756
188.468994 1915.956177
188.471436 3022.861572
188.473892 3457.662354
188.476349 2935.603271
188.478806 1513.217529
196.499069 514.09314
196.501678 2085.47168
196.504303 3064.02124
196.506912 3227.905762
196.509521 2456.394043
196.512131 1110.318237
209.096649 567.134399
209.099518 2243.3125
209.102386 3348.592529
209.105255 3537.612305
209.108124 2745.807617
209.110977 1293.834229
213.148376 624.543152
213.151337 2979.767822
213.154282 6523.590332
213.157227 9997.509766
213.160187 10683.099609
213.163132 7514.097168
213.166092 3247.387207
213.169037 428.121338
271.140137 360.831787
271.144348 1122.641235
271.14859 1472.297852
271.152832 1399.451416
271.157074 934.996155
271.161285 343.851013
272.120728 268.519653
272.124969 1015.700928
272.129242 1806.354248
272.133484 2306.333984
272.137756 2210.436768
272.141998 1579.860474
272.146271 815.774902
272.150513 255.528366
293.653229 236.268372
293.65799 802.431335
293.66275 1227.399414
293.667542 1247.994019
293.672302 825.780762
293.677063 280.506714
315.171356 219.725647
315.176666 833.939514
315.181976 1516.381104
315.187286 1898.87793
315.192566 1715.476318
315.197876 1095.212891
315.203186 384.863403
324.654266 227.76329
324.659821 760.428101
324.665375 1281.153442
324.670929 1658.115234
324.676453 1673.490112
324.682007 1275.739502
324.687561 533.135986
329.681885 247.628143
329.687561 848.165161
329.693237 1423.727295
329.698914 1704.076782
329.70459 1499.908691
329.710266 932.591675
329.715942 311.7034
332.647675 1607.530029
332.653442 7678.217285
332.65918 16974.527344
332.664948 25266.859375
332.670685 26558.580078
332.676453 19147.375
332.68219 9851.375
332.687958 3382.615967
332.693726 920.184814
333.15451 875.261353
333.160278 2810.517334
333.166046 4303.322266
333.171814 4805.844238
333.177582 4158.853516
333.18335 2823.703125
333.189117 1124.887695
338.64743 250.72168
338.65332 2064.901855
338.659241 5980.771973
338.665131 10147.350586
338.671051 11946.831055
338.676971 9251.674805
338.682861 4628.224121
338.688782 1406.319458
342.671692 1164.424927
342.677704 3611.213623
342.683716 5195.740723
342.689728 5274.154297
342.69577 3894.173584
342.701782 1840.515869
342.707794 331.853302
347.154205 274.379181
347.160339 1998.592407
347.166473 6907.270996
347.172607 14626.854492
347.178741 21123.080078
347.184875 20237.056641
347.19101 12710.889648
347.197144 5865.368652
347.203278 1881.416382
347.209412 289.18512
348.143799 270.281219
348.149963 833.536316
348.156128 1226.037354
348.162262 1254.821655
348.168427 887.605957
348.174591 327.931335
350.166748 1155.444946
350.172974 2939.154785
350.179169 3429.958008
350.185394 3306.504883
350.19162 2526.606445
350.197815 1057.663086
350.664337 330.600281
350.670563 2954.121094
350.676788 8041.722168
350.683014 12606.402344
350.68927 13712.568359
350.695496 10226.769531
350.701721 5078.350098
350.707947 1238.17749
351.156769 880.338867
351.162994 5010.283691
351.16925 12223.807617
351.175476 19382.291016
351.181732 21485.230469
351.187958 14297.874023
351.194214 5608.030273
351.200439 1665.211914
351.875427 238.918106
351.881683 860.066284
351.887939 1478.246704
351.894226 1684.62146
351.900482 1360.779541
351.906738 784.044739
351.912994 253.262894
356.674469 1162.592285
356.680847 3412.447998
356.687225 4768.996582
356.693634 4741.760254
356.700012 3305.635742
356.70639 1214.516479
357.153992 156.577362
357.1604 3134.418945
357.166809 10693.770508
357.173187 20255.427734
357.179596 25765.472656
357.186005 21759.423828
357.192413 11725.022461
357.198792 3796.834961
357.2052 907.08844
359.669708 235.458389
359.676178 803.042603
359.682648 2367.050293
359.689117 4721.308594
359.695587 6064.581055
359.702057 5759.709473
359.708527 3909.304199
359.714996 1411.620483
363.674164 1179.264404
363.680756 4039.822998
363.687317 6902.187988
363.693909 7975.639648
363.70047 6216.38916
363.707062 2906.13623
363.713623 579.341125
364.1745 264.389709
364.181091 931.548218
364.187683 1640.706055
364.194275 1963.308594
364.200836 1663.067383
364.207428 991.108215
364.21402 323.755188
365.178223 1254.888428
365.184845 5181.772949
365.191467 11292.422852
365.198059 17272.666016
365.204681 17824.412109
365.211304 11269.706055
365.217926 4395.582031
365.224548 1185.136963
365.668396 1404.536621
365.675018 5442.638184
365.681641 11797.689453
365.688263 19303.460938
365.694916 21771.416016
365.701538 15911.552734
365.70816 7727.566406
365.714813 2082.720703
368.663727 299.810883
368.670441 856.937012
368.677155 1235.856445
368.683868 1355.565674
368.690582 1076.621582
368.697296 434.641815
370.665344 247.472137
370.672119 830.877808
370.678894 1382.667603
370.685638 1575.514893
370.692413 1254.343628
370.699188 507.980133
373.660797 675.640015
373.667633 3945.197266
373.6745 10404.110352
373.681335 18139.607422
373.688202 23251.726562
373.695038 21162.558594
373.701904 13894.479492
373.70874 6497.626953
373.715607 1429.730835
374.174988 267.225311
374.181854 2719.531738
374.188721 7674.947266
374.195587 12948.050781
374.202454 16150.198242
374.20932 14224.884766
374.216187 8721.516602
374.223053 3397.979492
374.229919 426.923401
377.185394 359.790314
377.192352 979.748413
377.19928 1290.354858
377.206238 1245.05481
377.213165 868.99939
377.220123 317.013458
379.663422 668.404968
379.670441 4980.519043
379.67746 13574.615234
379.684479 23593.041016
379.691498 29025.845703
379.698517 24161.414062
379.705505 14072.834961
379.712524 5815.866699
379.719543 1286.269165
380.168976 491.489532
380.176025 2606.763916
380.183044 5347.815918
380.190063 6600.604492
380.197113 6081.46582
380.204132 4123.077637
380.211182 1650.786377
380.218201 271.131073
381.190216 262.691589
381.197266 1001.636841
381.204315 2046.893677
381.211395 3662.443604
381.218445 4176.28125
381.225494 2678.684814
381.232544 1257.387573
381.239624 383.445251
382.165955 827.05072
382.173035 4131.769043
382.180115 17973.107422
382.187225 48290.976562
382.194305 87983.398438
382.201385 113470.140625
382.208466 98879.664062
382.215546 60512.988281
382.222626 26298.246094
382.229736 7668.260742
382.236816 1757.484131
382.676544 1419.9021
382.683624 5469.947266
382.690735 12368.983398
382.697845 21010.605469
382.704926 24697.681641
382.712036 19644.378906
382.719116 11014.583984
382.726227 4607.969238
382.733337 1257.996704
385.187469 645.56189
385.194641 2831.190186
385.201813 7731.765137
385.208954 14560.855469
385.216125 19173.490234
385.223297 17802.310547
385.230469 11876.688477
385.23764 5827.848145
385.244812 1406.077515
388.165161 45.764568
388.172424 2395.577637
388.179657 11372.282227
388.18692 31481.583984
388.194153 58733.722656
388.201416 77473.585938
388.208679 68826.359375
388.215912 42925.226562
388.223175 18995.03125
388.230438 5423.960938
388.237701 1124.08606
388.673279 791.762207
388.680542 3284.459473
388.687805 8729.819336
388.695068 16414.40625
388.702332 20408.8125
388.709595 16784.613281
388.716888 9312.826172
388.724152 3658.341064
388.731415 897.217041
389.19696 398.676025
389.204224 1005.535278
389.211517 1292.361938
389.218781 1298.869873
389.226074 971.246338
389.233368 373.095612
390.693787 718.592224
390.701111 2341.937744
390.708435 3689.781738
390.715759 3831.222656
390.723083 2697.143066
390.730377 976.723999
392.700562 307.053833
392.707947 919.227661
392.715302 1359.842407
392.722687 1408.324097
392.730072 1071.677124
392.737457 424.927856
394.158295 1114.863647
394.16571 3984.057373
394.173126 8209.467773
394.180542 15341.87793
394.187988 19056.871094
394.195404 14114.157227
394.20282 7147.058594
394.210236 1876.374512
395.184296 198.947876
395.191742 737.997009
395.199188 1344.930908
395.206635 1629.246216
395.214081 1413.427368
395.221527 890.386353
395.228973 282.179169
396.678345 1039.744751
396.685852 7939.568359
396.693329 34271.4375
396.700836 84062.320312
396.708313 145147.765625
396.71582 175851.78125
396.723297 144179.796875
396.730804 84523.203125
396.738312 35488.9375
396.745789 10318.025391
396.753296 3456.179932
396.760773 1080.710815
397.180756 119.557533
397.188263 1553.201782
397.19577 6569.461914
397.203278 15529.967773
397.210785 26134.669922
397.218292 30304.662109
397.2258 23668.519531
397.233307 12861.129883
397.240814 4998.145508
397.248322 1227.891235
398.173401 207.00238
398.180908 820.011963
398.188446 2087.166016
398.195984 4022.75415
398.203522 5273.908691
398.21106 4519.684082
398.218597 2499.680176
398.226135 957.240906
398.233673 257.164337
399.20755 451.794006
399.215118 2015.633423
399.222687 4189.106445
399.230225 5463.732422
399.237793 4915.763184
399.245361 3071.956055
399.25293 1016.292053
399.692047 248.331299
399.699615 2356.313721
399.707184 6584.191406
399.714783 10962.677734
399.722351 13122.665039
399.729919 11420.896484
399.737518 7357.958984
399.745087 3462.875977
399.752655 940.57019
400.215363 293.065857
400.222961 924.897888
400.23056 1469.655762
400.238159 1673.401611
400.245728 1474.987427
400.253326 1021.030457
400.260925 299.423096
402.181305 836.216492
402.188965 2502.968506
402.196594 3859.37207
402.204254 4277.79541
402.211914 3290.719482
402.219543 793.126648
402.663574 281.485992
402.671234 5856.720215
402.678894 24289.097656
402.686554 48428.179688
402.694214 69603.671875
402.701874 64449.773438
402.709534 42456.503906
402.717194 19579.339844
402.724854 6613.785156
402.732513 1533.189331
403.169708 915.00708
403.177399 3540.831543
403.185059 8299.668945
403.192749 14928.591797
403.200409 17956.363281
403.208099 12982.172852
403.215759 6265.519043
403.22345 2424.419189
403.23114 461.846893
406.685211 627.269836
406.692963 4456.372559
406.700745 14080.973633
406.708527 26805.621094
406.716309 35026.8125
406.724091 30390.800781
406.731873 18567.318359
406.739655 7836.402832
406.747406 1643.294189
407.191162 765.30011
407.198944 3039.625
407.206757 5978.47168
407.214539 7673.05957
407.222321 6875.361816
407.230133 4272.131836
407.237915 1381.65979
407.713684 170.990845
407.721497 707.474365
407.729309 1571.886841
407.737091 2425.863281
407.744904 2726.29126
407.752716 2264.165283
407.760529 1388.626343
407.768341 464.402832
408.158997 260.714813
408.16684 901.805847
408.174652 1681.976929
408.182465 2274.526611
408.190277 2321.390869
408.19809 1798.652466
408.205933 1073.887207
408.213745 719.631653
408.221558 2514.48584
408.229401 6100.800781
408.237213 8778.366211
408.245026 8027.391602
408.252838 4624.475098
408.260681 1755.413452
408.268494 279.921722
413.20166 946.973022
413.209625 4507.82373
413.21759 10356.19043
413.225555 15737.295898
413.233521 15669.733398
413.241486 10263.708984
413.249451 4528.29248
413.257416 977.254333
413.687927 890.663391
413.695892 3660.984619
413.703888 10081.703125
413.711853 19094.462891
413.719849 25280.962891
413.727814 23681.423828
413.735809 16036.086914
413.743774 7807.440918
413.75177 2203.888916
413.759735 278.985687
416.188507 1158.709351
416.196564 3382.657471
416.20462 4799.719727
416.212646 4438.539062
416.220703 2510.196289
416.22876 654.977234
416.66391 756.958252
416.671997 6918.326172
416.680054 20821.658203
416.68811 38167.019531
416.696167 46571.191406
416.704254 37708.617188
416.712311 21559.541016
416.720367 9566.806641
416.728455 5404.374512
416.736511 6363.259766
416.744568 7634.786133
416.752655 7118.961426
416.760712 4665.810547
416.768768 1572.264038
417.164398 217.940323
417.172455 2120.410156
417.180542 6389.197754
417.188629 11345.079102
417.196716 14421.973633
417.204773 13187.753906
417.21286 8605.240234
417.220947 3967.742188
417.229034 996.237488
418.095062 370.81665
418.10318 1007.888428
418.111267 1398.17981
418.119385 1390.027466
418.127472 988.981995
418.13559 356.349274
420.210693 387.889038
420.218872 1223.55188
420.227051 1991.973022
420.235199 2231.106445
420.243378 1755.869873
420.251556 952.721008
420.259705 218.743347
420.684845 1894.674072
420.693024 9990.587891
420.701202 23274.824219
420.709412 37713.28125
420.71759 42056.253906
420.725769 31703.203125
420.733948 16992.179688
420.742126 6577.98877
420.750305 1498.466797
420.758484 49.939537
421.167999 218.775192
421.176178 3276.306152
421.184387 14697.956055
421.192566 34104.96875
421.200775 56725.734375
421.208984 66251.53125
421.217163 52722.851562
421.225372 30428.740234
421.233551 12595.87207
421.24176 3310.603516
421.249969 491.95105
421.684814 472.811432
421.693024 1380.677612
421.701233 2130.499756
421.709442 2343.858154
421.717651 1878.719727
421.725861 1201.535767
421.73407 352.425262
422.194336 815.016357
422.202576 3498.467041
422.210815 13869.327148
422.219025 32213.162109
422.227264 53637.019531
422.235474 60759.117188
422.243713 46327.902344
422.251923 25584.845703
422.260162 9970.15918
422.268402 2660.544922
422.276611 537.017944
422.713043 2047.135376
422.721313 5965.672852
422.729553 8798.498047
422.737793 9086.80957
422.746033 6761.335938
422.754272 3544.553223
422.762512 993.109558
424.689575 1765.7854
424.697876 4638.731934
424.706177 6380.651855
424.714478 6563.374512
424.722778 4979.803711
424.731079 2730.154297
424.73938 816.85022
426.187317 1363.664062
426.195679 3992.449951
426.20401 5898.624023
426.212341 6228.28418
426.220703 4851.145996
426.229034 2452.808838
426.237396 549.161682
427.20697 515.516602
427.215332 1230.764893
427.223724 1497.796387
427.232086 1478.062134
427.240479 1178.944946
427.24884 482.065338
427.693024 291.618958
427.701385 1017.257629
427.709778 1802.729126
427.71817 2113.999512
427.726562 1668.489624
427.734955 813.284973
427.743347 182.018005
428.726501 377.581573
428.734894 1089.910522
428.743317 1640.381958
428.75174 1757.024658
428.760162 1296.22583
428.768585 521.509766
429.206696 1184.820312
429.215118 3550.676758
429.223541 5577.342285
429.231995 6325.152344
429.240417 5216.783691
429.24884 3034.219238
429.257294 947.952881
429.67926 69.395012
429.687714 1622.091675
429.696136 8292.119141
429.70459 21117.443359
429.713043 36557.949219
429.721497 45904.609375
429.729919 39535.859375
429.738373 23952.484375
429.746826 10159.260742
429.75528 1609.839722
430.194885 400.71698
430.203369 1315.803101
430.211823 2324.614258
430.220276 2977.368408
430.228729 2877.832275
430.237213 2107.559814
430.245667 1121.670532
430.25412 267.190277
430.711487 1802.021973
430.71994 11212.994141
430.728424 30972.455078
430.736908 55268.367188
430.745392 69840.0625
430.753845 58581.902344
430.762329 35904.519531
430.770813 15285.373047
430.779297 4260.936523
430.787781 856.322021
431.22049 1009.410217
431.228973 3937.020508
431.237457 8015.158203
431.245972 13698.452148
431.254456 14939.523438
431.262939 9555.976562
431.271423 4617.015625
431.279938 1375.614014
434.207794 447.844543
434.21637 1203.084961
434.224945 1629.420654
434.233521 1534.528809
434.242096 968.753662
434.250702 302.164307
434.680054 254.490448
434.688629 2050.793945
434.697235 5674.346191
434.705841 9642.461914
434.714417 11685.984375
434.723022 9991.404297
434.731598 5790.908691
434.740204 1272.875244
434.74881 234.710709
435.170288 193.107391
435.178894 5369.975098
435.1875 16053.545898
435.196106 28117.927734
435.204712 34008.535156
435.213318 26635.703125
435.221954 15813.639648
435.23056 6447.54834
435.239166 1673.930786
435.247772 397.040222
435.72171 553.910889
435.730347 1424.741577
435.738983 1838.550049
435.747589 1670.935913
435.756226 1044.845459
435.764832 331.452789
436.196442 1532.395386
436.205078 7717.788086
436.213715 20312.691406
436.222351 37099.703125
436.231018 47613.113281
436.239655 40918.40625
436.248291 24262.0
436.256927 10046.03418
436.265564 1989.487427
436.2742 15.799961
436.706573 1986.150879
436.71521 7134.024414
436.723877 13363.969727
436.732513 17460.378906
436.74118 15809.158203
436.749847 9167.242188
436.758484 3419.74707
436.767151 809.505676
438.207489 437.586334
438.216187 2031.646729
438.224884 4401.975586
438.233582 6167.500977
438.24231 5676.947266
438.251007 3522.458252
438.259705 1508.19873
438.268402 315.268036
438.721161 2103.084717
438.729858 5214.722168
438.738586 6502.634766
438.747284 6149.021973
438.756012 4479.304688
438.764709 1689.649414
440.723389 1429.472168
440.732147 4181.946777
440.740936 6528.245605
440.749695 7540.066895
440.758484 6542.675293
440.767242 4207.814453
440.776031 1428.66687
443.190216 298.102417
443.199066 2536.231689
443.207916 7364.605957
443.216766 14669.930664
443.225586 19900.232422
443.234436 16984.785156
443.243286 9727.985352
443.252136 4163.608887
443.260986 1011.064331
443.677185 813.166748
443.686066 5616.376953
443.694916 21362.830078
443.703796 46881.921875
443.712646 73714.117188
443.721497 80419.078125
443.730377 59731.84375
443.739227 31538.056641
443.748108 11206.847656
443.756958 2332.878906
443.765839 245.330704
444.19162 1612.466431
444.2005 5042.203613
444.209381 8487.663086
444.218262 10224.118164
444.227142 8990.413086
444.236023 5528.390137
444.244873 2530.986816
444.253754 638.154114
444.698059 1231.196167
444.70694 6791.966309
444.71582 31353.15625
444.724731 88880.867188
444.733612 164092.828125
444.742523 214178.1875
444.751404 186640.84375
444.760284 116219.46875
444.769196 50925.335938
444.778076 16316.885742
444.786987 6646.627441
444.795868 3552.909424
444.804779 1088.869873
445.205322 175.475449
445.214233 3037.594727
445.223145 12656.602539
445.232056 27521.402344
445.240967 42294.027344
445.249878 44198.027344
445.258789 31491.052734
445.2677 15773.323242
445.276611 5442.345703
445.285522 1210.139404
449.240936 2206.909668
449.249939 6241.899902
449.258972 9206.069336
449.268005 9594.37207
449.277039 7059.884277
449.286072 3532.743164
449.295105 918.724548
450.199524 350.911865
450.208557 1132.064209
450.217621 1997.62146
450.226685 2524.328857
450.235748 2319.96875
450.244812 1488.532593
450.253876 478.428772
452.180603 844.665283
452.189728 5375.318359
452.198853 24503.474609
452.207977 84590.59375
452.217102 179355.6875
452.226196 273408.59375
452.235321 289361.78125
452.244446 210851.265625
452.253571 109698.382812
452.262695 39368.429688
452.27182 11888.183594
452.280914 6309.750977
452.290039 4645.186523
452.299164 1937.687256
452.308289 355.899658
452.69165 850.831055
452.700775 6992.810547
452.7099 27103.490234
452.719025 55504.15625
452.72818 81270.257812
452.737305 79350.226562
452.746429 54609.042969
452.755585 26422.273438
452.764709 8721.322266
452.773834 1839.75
452.78299 204.067856
453.221832 1334.342041
453.230957 8119.932617
453.240112 21154.925781
453.249268 36966.894531
453.258423 44149.007812
453.267578 34854.925781
453.276733 19001.873047
453.285858 6886.324707
453.295013 1287.113647
453.734619 1397.514771
453.743774 3471.353271
453.75293 4319.008301
453.762085 3930.601318
453.771271 2744.477051
453.780426 999.06604
455.222931 411.487213
455.232147 1095.315308
455.241364 1539.964233
455.250549 1543.517822
455.259766 1078.509766
455.268982 365.868866
457.190979 1287.146973
457.200256 4575.544434
457.209503 9403.191406
457.218781 12744.633789
457.228058 11729.417969
457.237335 7638.191895
457.246582 3601.599609
457.255859 1025.204834
457.682648 1213.96936
457.691956 6284.35791
457.701233 15049.186523
457.71051 24472.253906
457.719788 28510.203125
457.729095 22288.275391
457.738373 11883.007812
457.74765 4280.62207
457.756927 839.427246
458.193726 476.781189
458.203033 1260.426392
458.212341 1781.87793
458.221649 1886.888306
458.230927 1599.394409
458.240234 1184.370483
458.249542 423.818665
458.705658 1885.730225
458.714996 9904.430664
458.724304 23932.158203
458.733612 39830.851562
458.74292 45421.78125
458.752258 35044.957031
458.761566 19245.869141
458.770874 7176.841309
458.780212 1329.526367
459.209137 1762.367554
459.218445 5203.083984
459.227783 10814.765625
459.237122 17460.224609
459.24646 19262.144531
459.255798 12891.112305
459.265106 5648.947266
459.274445 1696.219849
463.219543 223.685989
463.229004 1946.658936
463.238464 6015.856934
463.247925 11304.25
463.257355 17057.833984
463.266815 15908.492188
463.276276 9417.59375
463.285736 4338.265625
463.295197 1048.277954
463.711517 836.856628
463.720978 3156.164307
463.730469 9181.554688
463.739929 18685.957031
463.74939 26818.837891
463.758881 26727.392578
463.768341 18332.59375
463.777802 8434.425781
463.787292 1728.359375
464.223236 209.408279
464.232727 1705.23938
464.242218 5507.288574
464.251709 10262.058594
464.2612 13077.62207
464.27066 11612.71582
464.280151 7212.303711
464.289642 2676.687256
464.299133 303.403503
465.696808 297.73761
465.706329 2153.777344
465.715881 7954.375488
465.725403 17074.400391
465.734924 25645.294922
465.744446 25840.943359
465.753998 17423.171875
465.763519 7759.597168
465.773041 1576.267334
466.183197 1266.334717
466.192749 9224.259766
466.202271 37923.683594
466.211823 87845.125
466.221375 145274.203125
466.230927 167332.234375
466.240479 130874.570312
466.25 73142.421875
466.259552 28952.560547
466.269104 8374.415039
466.278656 2457.169189
466.288208 556.131348
466.689453 152.103851
466.699005 3782.012695
466.708588 13452.750977
466.71814 26768.533203
466.727692 36929.101562
466.737274 34036.71875
466.746826 21559.638672
466.756378 9286.793945
466.765961 1224.725586
466.775513 30.607101
467.215698 1283.702026
467.225281 11645.011719
467.234863 31035.896484
467.244415 53258.976562
467.253998 62718.757812
467.26358 48226.6875
467.273163 27745.667969
467.282745 10600.729492
467.292328 2896.19458
467.30191 703.714172
467.723633 548.121521
467.733246 3576.427246
467.742828 7878.024414
467.752411 10410.257812
467.762024 9416.550781
467.771606 6301.411133
467.781189 3256.843506
467.790802 873.463257
468.713165 234.590561
468.722778 843.79834
468.732422 1605.00769
468.742035 2074.894287
468.751648 1929.746704
468.761292 1307.083252
468.770905 445.261871
469.213928 1408.509521
469.223541 4293.78125
469.233185 6718.134277
469.242828 7158.772461
469.252472 5338.941406
469.262115 2424.586426
469.271759 446.022552
472.235382 1258.21582
472.245087 3965.496094
472.254822 6508.057129
472.264557 7273.296387
472.274292 5654.120117
472.284027 1984.019409
472.293762 186.854416
473.200195 1345.407959
473.209961 7848.682129
473.219727 19381.376953
473.229492 32254.673828
473.239258 34638.660156
473.248993 24909.337891
473.258759 12676.056641
473.268524 4237.806152
473.27829 833.563416
473.70816 1356.462524
473.717926 4134.151855
473.727722 6822.420898
473.737488 7995.949219
473.747284 6730.42627
473.75705 3978.733154
473.766815 1078.38623
477.207825 196.753952
477.217712 2302.658691
477.2276 11625.482422
477.237488 30439.982422
477.247375 53563.59375
477.257263 64950.75
477.267151 52680.617188
477.277039 30567.208984
477.286926 12293.142578
477.296814 3751.941895
477.306702 932.410522
477.712372 1774.805054
477.72226 8820.910156
477.732178 23040.125
477.742065 41490.214844
477.751984 53088.695312
477.761871 45703.625
477.77179 27933.048828
477.781677 11993.110352
477.791595 2769.487549
477.801483 197.26535
478.227631 456.767212
478.237549 1346.211426
478.247467 2176.36499
478.257385 2546.676514
478.267303 2175.434326
478.277222 1300.765625
478.28714 410.178406
481.216553 2203.341553
481.226562 10424.349609
481.236572 22615.861328
481.246582 34991.855469
481.256592 36015.347656
481.266602 25463.490234
481.276611 12721.728516
481.286621 4262.895996
481.296631 759.298218
481.727448 581.861084
481.737488 1441.988281
481.747498 1831.294556
481.757538 1681.379883
481.767578 1181.447876
481.777588 492.589569
485.722321 92.680435
485.732483 2608.958252
485.742615 12200.99707
485.752777 28191.957031
485.762909 46403.789062
485.773071 52494.308594
485.783234 40182.484375
485.793365 21777.164062
485.803528 8401.264648
485.81369 1372.044067
486.220093 955.968384
486.230255 7100.181641
486.240417 24841.841797
486.25058 47812.359375
486.260742 66963.75
486.270905 61597.027344
486.281097 40650.914062
486.29126 18630.414062
486.301422 5730.982422
486.311584 1171.314453
486.72879 225.186493
486.738983 2587.314209
486.749176 6659.833984
486.759338 11002.949219
486.769531 12938.085938
486.779724 10672.743164
486.789886 6291.397949
486.800079 1854.130005
486.810272 413.863098
491.209137 564.560547
491.219452 4932.250488
491.229797 18001.25
491.240112 35234.367188
491.250427 50105.554688
491.260742 46580.605469
491.271088 30693.25
491.281403 13536.763672
491.291718 4059.476318
491.302063 731.618042
491.705017 90.675888
491.715363 1950.99231
491.725708 7499.376953
491.736053 16428.082031
491.746368 26688.126953
491.756714 31841.257812
491.767059 26712.447266
491.777405 16585.587891
491.78775 7607.264648
491.798096 1804.025269
492.232727 2442.616211
492.243073 5885.996094
492.253448 7473.145508
492.263794 6853.146973
492.274139 4414.452148
492.284515 1391.919067
493.217957 912.181091
493.228363 3203.71582
493.238739 5935.516602
493.249146 7336.153809
493.259521 6129.520996
493.269897 2562.856934
493.280304 313.796509
499.710663 889.143188
499.721252 5150.072266
499.731842 23538.855469
499.742432 78560.039062
499.753021 155184.53125
499.763611 220675.046875
499.774231 211233.25
499.784821 142722.953125
499.79541 67113.867188
499.806 20675.121094
499.816589 4567.095215
499.827179 559.356812
500.187653 705.189575
500.198273 1563.268799
500.208862 3490.940186
500.219482 16143.633789
500.230072 63167.390625
500.240692 151465.140625
500.251312 259731.84375
500.261902 314393.125
500.272522 257609.796875
500.283142 153396.4375
500.293732 65086.039062
500.304352 19264.677734
500.314972 6155.525879
500.325592 1401.542969
500.707825 11.175571
500.718445 2569.869873
500.729065 14469.970703
500.739685 39076.886719
500.750336 69663.03125
500.760956 86997.71875
500.771576 72075.859375
500.782196 43337.378906
500.792816 18088.126953
500.803467 5744.677734
500.814087 1370.672485
501.239441 1673.932373
501.250092 3675.808594
501.260742 4348.887207
501.271362 4138.916504
501.282013 3139.445801
501.292664 1147.507324
501.729279 2295.124756
501.73996 5789.635742
501.75061 7903.528809
501.761261 7828.97168
501.771912 5587.748535
501.782593 2229.994873
501.793243 249.537521
505.210693 308.501678
505.221466 1240.654907
505.232239 2930.397217
505.242981 5021.248535
505.253754 6074.900879
505.264526 5034.291504
505.275299 2958.109131
505.286072 1140.152832
505.296844 184.75354
505.717163 1543.078979
505.727936 5578.872559
505.738708 10828.032227
505.749512 13999.462891
505.760284 10538.625
505.771088 5368.614746
505.78186 2663.474365
505.792633 685.487427
508.695801 505.425507
508.706696 1088.572144
508.71756 3018.817139
508.728455 12426.012695
508.739319 50419.707031
508.750214 134514.671875
508.761108 243639.03125
508.771973 312898.96875
508.782867 269654.21875
508.793732 166686.90625
508.804626 72686.851562
508.815491 22177.429688
508.826385 7526.118164
508.83728 2238.164307
508.848145 462.038879
509.218414 69.393646
509.229309 2445.611816
509.240204 14038.521484
509.251099 40468.78125
509.261993 72579.796875
509.272919 91835.945312
509.283813 76284.0625
509.294708 46543.785156
509.305603 19479.171875
509.316498 6221.868652
509.327393 1374.11377
513.715393 992.221069
513.72644 6009.553223
513.737427 22714.923828
513.748474 48916.328125
513.759521 75761.929688
513.770569 79663.1875
513.781616 57494.253906
513.792664 29175.058594
513.803711 10062.820312
513.814758 2083.352051
513.825806 226.697754
514.19043 410.167969
514.201477 2692.45874
514.212585 13431.272461
514.223633 54269.511719
514.23468 140277.96875
514.245728 250284.15625
514.256775 316854.8125
514.267822 269781.34375
514.278931 165727.15625
514.289978 72360.15625
514.301025 22694.253906
514.312073 7628.276367
514.32312 2615.31665
514.334229 2093.16333
514.345276 1226.627563
514.699402 229.127533
514.710449 1963.972046
514.721558 9967.181641
514.732605 33918.035156
514.743713 66725.617188
514.754761 94022.835938
514.765869 88354.351562
514.776917 58923.066406
514.788025 27078.855469
514.799072 8120.55127
514.81012 1515.314087
522.6745 1262.530273
522.685791 14863.057617
522.697144 55798.421875
522.708496 85127.710938
522.719788 159983.71875
522.73114 557390.8125
522.742493 1849157.25
522.753784 3757207.5
522.765137 5563204.0
522.776489 5591635.5
522.787842 3927747.5
522.799133 1959387.25
522.810486 690634.375
522.821838 219217.046875
522.83313 109180.992188
522.844482 52234.757812
522.855835 14114.442383
522.867188 2982.895264
523.173401 514.799561
523.184753 4283.745605
523.196106 17254.990234
523.207458 30649.390625
523.218811 46449.488281
523.230164 137542.671875
523.241516 476151.90625
523.252808 1036457.5
523.26416 1647812.25
523.275513 1805115.25
523.286865 1356348.5
523.298218 733313.0
523.30957 283923.125
523.320923 88925.875
523.332275 42987.839844
523.343628 24765.916016
523.35498 7318.64209
523.366333 525.956787
570.246338 513.960205
570.259277 1402.579224
570.272156 2110.6521
570.285095 2242.444336
570.297974 1702.247803
570.310913 847.915833
570.323853 196.100372
647.275391 638.775879
647.291016 1363.210327
647.30658 1748.078247
647.322205 1666.552734
647.33783 1143.057617
647.353455 318.786102
664.280273 361.860443
664.296509 2482.706543
664.312744 5510.61084
664.328979 7231.849609
664.345215 6298.338867
664.36145 3544.193359
664.377686 839.117859
676.27533 1126.626587
676.291992 3861.656494
676.308655 6942.82666
676.325317 8292.260742
676.342041 7073.913086
676.358704 4419.934082
676.375366 1154.027466
693.299744 385.55246
693.317078 1156.814087
693.334351 2092.157959
693.351685 2745.671387
693.369019 2668.806641
693.386292 1877.288086
693.403625 899.571777
693.420959 189.492599
729.372742 430.268463
729.391418 1094.070679
729.410095 1611.57373
729.428772 1653.707275
729.447449 1198.850464
729.466187 308.906311
742.299377 2054.184814
742.318542 4600.416016
742.337708 6240.512695
742.356934 6171.056152
742.376099 4325.155762
742.395264 1087.172119
759.308594 579.361938
759.328491 1363.811401
759.348328 2078.512695
759.368164 2378.480713
759.388 1988.38269
759.407837 1134.48291
759.427673 246.722
763.352234 845.784851
763.372192 1617.317383
763.392212 1824.661255
763.412231 1478.822876
763.43219 850.957947
763.452209 187.40065
770.278564 2135.026123
770.298828 5452.021484
770.319092 8406.748047
770.339355 9424.336914
770.359619 7869.818848
770.379883 4730.946777
770.400208 1437.2229
770.420471 145.072937
775.330566 499.588501
775.351074 2754.971191
775.371521 5361.674805
775.391968 7186.056152
775.412476 7297.604492
775.432922 5408.562988
775.45343 2671.758301
775.473877 528.919739
786.337097 2867.583008
786.357971 5570.42334
786.378906 6480.808105
786.399841 5583.282715
786.420715 3638.927979
786.44165 934.07251
787.278809 1648.588501
787.299744 5825.173828
787.32074 14276.666992
787.341675 25199.246094
787.36261 30073.988281
787.383545 23288.345703
787.404541 12654.584961
787.425476 4877.612793
787.446411 788.057068
788.306213 382.235474
788.327209 1206.770874
788.348145 2096.057373
788.369141 2447.88916
788.390137 2009.430786
788.411133 1153.636353
788.432129 246.431396
792.351257 2243.313965
792.372375 6149.453125
792.393555 14090.917969
792.414673 17870.058594
792.435852 13903.018555
792.457031 7675.659668
792.478149 2417.631836
792.499329 333.519379
793.367371 534.498108
793.38855 1311.860596
793.40979 1944.749023
793.430969 2015.08667
793.452148 1455.499878
793.473328 259.903961
804.285522 802.464172
804.30719 5897.021484
804.328796 23828.046875
804.350464 51555.484375
804.37207 82265.25
804.393677 87037.960938
804.415344 61729.496094
804.436951 32049.324219
804.458618 10948.070312
804.480225 2097.769531
804.501892 195.692215
805.324707 2251.0271
805.346375 5949.418457
805.368042 9619.994141
805.389771 11286.040039
805.411438 9802.677734
805.433105 6118.300781
805.454773 2011.640015
805.47644 366.160492
814.305725 1820.707886
814.327759 3903.529053
814.349854 4868.061523
814.371887 4081.718994
814.393921 2179.916748
814.415955 432.893341
815.254028 12.227538
815.276123 1291.546875
815.298218 6006.708496
815.320251 12175.382812
815.342346 17137.013672
815.364441 15989.916992
815.386475 10515.012695
815.408569 4763.651855
815.430664 682.497803
815.452759 63.425003
823.348267 524.026794
823.370667 1262.650635
823.393066 1782.208374
823.415466 1711.792847
823.437866 1087.886719
823.460266 231.81636
831.358948 661.097595
831.381714 1304.453979
831.404419 1593.311279
831.427185 1477.835327
831.44989 1058.454956
831.472656 176.385208
832.268921 783.716248
832.291687 4399.299805
832.314453 19297.042969
832.337219 47798.441406
832.359985 80734.859375
832.382751 93042.1875
832.405518 69323.359375
832.428284 38435.574219
832.451111 13649.303711
832.473877 3567.145752
832.496643 548.989075
833.3172 3205.12793
833.340027 10597.686523
833.362793 19050.734375
833.38562 22666.248047
833.408447 17270.529297
833.431274 9122.108398
833.454102 3819.2854
833.476868 700.696411
841.335388 772.05249
841.358521 1815.065552
841.381653 3537.605957
841.404785 3282.662109
841.427917 2516.618652
841.45105 1548.122803
841.474243 632.665222
841.497375 104.081802
848.367493 759.93573
848.39093 1543.414062
848.414368 1902.418579
848.437805 1630.25293
848.461243 925.496582
848.484619 180.77832
858.342468 1070.178955
858.366272 3807.956543
858.390137 7615.550293
858.414001 13882.378906
858.437866 15719.305664
858.46167 10354.390625
858.485535 5295.245605
858.509399 1046.520996
869.320129 1179.266479
869.344421 3950.388428
869.368774 8534.135742
869.393066 14030.761719
869.417358 15806.541992
869.44165 11803.543945
869.466003 5385.012207
869.490295 1832.10437
869.514587 559.555664
886.335876 1117.956055
886.360901 6533.742188
886.385925 17092.746094
886.41095 29064.941406
886.435974 34663.09375
886.460999 27375.660156
886.486023 14819.683594
886.511047 4972.637207
886.536133 421.555084
887.362671 1250.266846
887.387756 3762.301758
887.412781 6191.033203
887.437866 6779.018066
887.462952 5167.911133
887.487976 2709.54248
887.513062 538.309509
903.315308 420.53064
903.341064 2741.916016
903.366821 13030.264648
903.392578 44484.617188
903.418335 87943.007812
903.444031 129751.90625
903.469788 125362.171875
903.495544 84613.679688
903.521301 39502.992188
903.547058 12496.260742
903.572815 2909.615479
903.598572 326.802368
904.371765 1918.546265
904.397522 9245.189453
904.42334 18725.537109
904.449097 27319.722656
904.474915 26037.337891
904.500732 17595.664062
904.526489 7344.401367
904.552307 2143.450928
904.578064 311.431396
906.516052 1762.505371
906.541931 3570.596436
906.56781 4381.784668
906.593689 3748.660645
906.619568 2212.153564
906.645447 422.516052
913.361206 1367.305054
913.38739 3305.835693
913.413574 5171.81543
913.439697 5853.683105
913.465881 4717.521484
913.492065 2540.081055
913.51825 729.184631
914.330444 2775.865479
914.356628 10810.016602
914.382874 22381.638672
914.409058 34303.664062
914.435303 36016.839844
914.461548 25980.802734
914.487732 13226.352539
914.513977 3669.49707
914.540161 251.098297
917.379089 1726.936035
917.405457 9312.237305
917.431824 19676.501953
917.45813 28734.890625
917.484497 26528.501953
917.510864 17226.650391
917.537231 7254.345703
917.563538 1432.029053
917.589905 70.995926
918.407532 2043.740356
918.433899 5228.161621
918.460266 7706.37793
918.486694 7913.900391
918.513062 5654.850098
918.53949 2697.953125
918.565857 511.604828
928.384949 972.499329
928.411743 1723.75769
928.438599 1986.686768
928.465454 1766.100586
928.492249 1206.757935
928.519104 290.989227
931.315552 1764.337891
931.342529 6793.73291
931.369446 25665.853516
931.396423 63575.703125
931.423401 109578.523438
931.450317 132014.21875
931.477295 104658.695312
931.504272 60576.148438
931.531189 22611.046875
931.558167 5138.01416
931.585144 451.95105
932.340515 1213.307129
932.367493 4548.980957
932.394531 12758.530273
932.421509 22852.542969
932.448486 30830.730469
932.475525 26274.275391
932.502502 15830.363281
932.52948 5120.73584
932.556519 1175.302368
932.583496 185.00473
945.351501 1582.887817
945.379089 8806.573242
945.406616 25457.736328
945.434204 46907.550781
945.461792 61128.660156
945.489319 51782.371094
945.516907 31248.822266
945.544495 12183.176758
945.572021 2974.733398
945.599609 321.728668
946.372131 1228.441162
946.399719 4479.310059
946.427307 10941.299805
946.454956 16293.642578
946.482544 14811.272461
946.510132 8374.672852
946.537781 3641.970459
946.565369 599.914734
961.40094 1956.563599
961.429199 6857.677246
961.457458 12188.135742
961.485718 19463.960938
961.513977 17818.757812
961.542236 11219.818359
961.570557 4929.505859
961.598816 771.705811
END IONS
