BEGIN IONS
PEPMASS=792.346
CHARGE=1
MSLEVEL=2
SOURCE_INSTRUMENT=LC-ESI-qTof
FILENAME=f.mernst/3DModels/spectral_data_ms2_v110.mgf;
SEQ=*..*
IONMODE=Positive
ORGANISM=GNPS-LIBRARY
NAME=Miliiamine C 20-Ac, (or positional isomer) M+H
PI=Dorrestein
DATACOLLECTOR=mernst
SMILES=CC(C(OC(C1=CC=CC=C1/N=C(O)/C2=C(/N=C(O)/C3=C(N(C)C)C=CC=C3)C(O)=CC=C2)=O)C4(O)C5O)=CC46C(CC(C(C)7C)C7C(C6=O)C=C5COC(C)=O)C
INCHI=InChI=1S/C45H49N3O10/c1-23-21-44-24(2)19-31-35(43(31,4)5)30(38(44)52)20-26(22-57-25(3)49)37(51)45(44,56)39(23)58-42(55)27-13-8-10-16-32(27)46-41(54)29-15-12-18-34(50)36(29)47-40(53)28-14-9-11-17-33(28)48(6)7/h8-18,20-21,24,30-31,35,37,39,50-51,56H,19,22H2,1-7H3,(H,46,54)(H,47,53)
INCHIAUX=
PUBMED=
SUBMITUSER=lfnothias
TAGS=
LIBRARYQUALITY=3
SPECTRUMID=CCMSLIB00004678654
SCANS=1614
121.093742 200.0
125.069916 232.0
134.057358 39104.0
135.061523 2060.0
139.109909 180.0
143.077438 188.0
148.080231 432.0
149.098938 220.0
150.053146 2244.0
151.061859 224.0
155.080658 160.0
159.077576 164.0
161.079239 172.0
171.072571 260.0
173.097015 184.0
176.068542 4956.0
177.083786 664.0
179.057724 172.0
184.072083 320.0
185.095291 192.0
187.094955 240.0
189.120468 304.0
191.094727 344.0
193.09729 288.0
199.116974 288.0
201.125534 232.0
207.100128 500.0
209.080292 176.0
211.102356 328.0
215.126724 376.0
217.125229 336.0
224.128433 152.0
225.107803 484.0
227.13382 228.0
234.133926 244.0
235.124329 276.0
237.121902 304.0
239.169052 488.0
241.186981 252.0
243.092728 388.0
244.094711 164.0
245.120636 176.0
249.158569 956.0
251.077347 296.0
251.158585 248.0
253.115341 980.0
254.144318 212.0
255.135025 556.0
257.105164 192.0
258.109528 172.0
261.121887 264.0
265.086334 1108.0
266.082977 428.0
267.168304 1936.0
268.165833 572.0
269.085968 35804.0
270.08551 5364.0
271.122375 408.0
277.14917 3536.0
278.145721 712.0
279.167664 604.0
281.087708 700.0
282.090454 240.0
282.904633 212.0
283.101929 49028.0
283.484039 280.0
284.105103 9204.0
285.127075 1052.0
287.096619 14568.0
288.099915 2284.0
289.088562 284.0
291.079285 160.0
295.160675 6340.0
296.16153 576.0
297.195374 284.0
299.069 236.0
307.056793 160.0
309.19104 240.0
311.139191 180.0
313.077972 316.0
313.171814 13108.0
314.177704 2560.0
315.209198 196.0
316.137024 188.0
323.167267 216.0
325.134735 192.0
337.171906 2440.0
338.168427 528.0
339.184357 248.0
345.227539 172.0
355.192535 1624.0
384.120239 488.0
385.131256 264.0
402.137451 18008.0
403.134247 4544.0
404.144897 200.0
410.203369 292.0
417.719299 292.0
418.130646 1532.0
418.265961 400.0
418.454865 264.0
418.833954 248.0
419.122131 540.0
419.26181 268.0
419.675201 572.0
419.889862 1188.0
419.967133 1044.0
420.14801 282028.0
420.498932 1252.0
420.740234 996.0
420.908569 1008.0
421.149261 72780.0
421.629791 444.0
421.856079 324.0
422.151428 8000.0
423.158844 496.0
428.210358 1936.0
429.232513 344.0
429.998566 248.0
432.15033 252.0
446.227173 2428.0
447.231201 236.0
462.151428 288.0
463.194153 220.0
488.23999 624.0
489.220062 612.0
490.302124 152.0
506.236725 348.0
521.176941 164.0
541.24292 368.0
575.634888 188.0
576.204651 520.0
577.219482 404.0
581.247803 356.0
599.272278 1544.0
600.249329 500.0
636.226318 312.0
641.279053 452.0
659.255005 256.0
694.678589 152.0
696.293335 1264.0
697.301575 580.0
698.317383 296.0
714.305908 3568.0
715.316284 1924.0
716.309448 532.0
729.849365 196.0
732.047607 156.0
732.32019 41376.0
732.781311 260.0
733.321167 16884.0
734.329041 7408.0
735.325623 1340.0
748.326965 304.0
749.352661 192.0
756.30896 704.0
757.311951 400.0
774.331116 6336.0
775.33667 2720.0
776.333801 616.0
787.63385 152.0
787.971375 488.0
788.283508 244.0
788.572937 364.0
789.037354 500.0
789.25647 320.0
789.554932 476.0
790.360046 812.0
790.569641 568.0
791.439453 1028.0
791.684509 1000.0
791.965759 844.0
792.344482 219372.0
792.776306 888.0
793.055847 1372.0
793.346497 119732.0
793.706238 920.0
794.024231 828.0
794.34613 26068.0
794.921753 272.0
795.349915 3264.0
796.01886 192.0
796.393005 432.0
805.193298 168.0
813.133423 168.0
END IONS
