BEGIN IONS
PEPMASS=711.336
CHARGE=1
MSLEVEL=2
SOURCE_INSTRUMENT=LC-ESI-qTof
FILENAME=f.chenliangyu/A1B2 LIGHT ETOAC/A1B2-LE-C9.mzXML;
SEQ=*..*
IONMODE=Positive
ORGANISM=GNPS-LIBRARY
NAME=Piperazimycin B M+H
PI=Pieter Dorrestein
DATACOLLECTOR=Liangyu Chen
SMILES=O=C1OCC(=O)N2NCCCC2C(=O)NCC(=O)N2C(C(=O)N3C(C(=O)NC1)CCCN3)CCCN2
INCHI=1S/C31H47ClN8O9/c1-18(2)8-5-4-6-9-21-28(46)40-24(12-19(32)14-34-40)29(47)39-22(10-7-11-33-39)27(45)37-31(3,17-41)30(48)49-16-25(43)38-23(26(44)36-21)13-20(42)15-35-38/h4-6,8,18-24,33-35,41-42H,7,9-17H2,1-3H3,(H,36,44)(H,37,45)
INCHIAUX=
PUBMED=
SUBMITUSER=chenliangyu
TAGS=
LIBRARYQUALITY=3
SPECTRUMID=CCMSLIB00000839208
SCANS=900
187.082214 924.0
197.099609 724.0
231.109695 344.0
259.105499 1728.0
278.196014 372.0
314.154999 416.0
360.154297 1176.0
362.153809 788.0
378.164124 1752.0
379.177032 396.0
498.222626 1068.0
525.267761 1008.0
526.273743 428.0
527.262939 428.0
543.284485 5760.0
544.284912 1632.0
545.283447 2184.0
665.331238 340.0
683.343018 1028.0
684.346008 592.0
693.33374 1396.0
694.332458 792.0
695.327637 752.0
711.344482 3260.0
712.342346 1516.0
713.345764 1580.0
END IONS
