BEGIN IONS
PEPMASS=675.281
CHARGE=1
MSLEVEL=2
SOURCE_INSTRUMENT=LC-ESI-qTof
FILENAME=5a_14b_15b-O-triacetoxy-7b-O-benzoyloxy-3b-O-propanoyloxymyrsinol.mgf
SEQ=*..*
IONMODE=Positive
ORGANISM=GNPS-LIBRARY
NAME="5_,14_,15_-O-triacetoxy-7_-O-benzoyloxy-3_-O-propanoyloxymyrsinol " M+Na
PI=LITAUDON/TOUBOUL
DATACOLLECTOR=Esposito
SMILES=C[C@H]1C[C@@]2(OC(C)=O)[C@]([C@@H](OC(C)=O)[C@@]([C@H](OC(C3=CC=CC=C3)=O)C=C[C@@H]4C(C)=C)(CO5)[C@]4([H])[C@]5(C)[C@@H]2OC(C)=O)([H])[C@H]1OC(CC)=O
INCHI=
INCHIAUX=
PUBMED=N/A
SUBMITUSER=lfnothias
TAGS=
LIBRARYQUALITY=1
SPECTRUMID=CCMSLIB00000840360
SCANS=1
57.034309 324.236694
57.132816 18.625
57.344772 12.03571
63.868744 28.20833
64.002846 21.6
71.085129 108.737801
77.036591 86.534882
79.264732 17.160721
83.010315 127.163498
93.069572 241.218796
95.181793 13.32237
95.515038 31.765631
97.026085 312.125793
98.904823 32.136108
100.113686 91.11364
105.03096 83.355553
105.068504 83.68145
119.084412 108.380997
123.043686 64.090912
128.302719 13.02083
130.130417 27.049999
133.099823 164.170197
143.086517 153.267395
145.100113 61.014999
147.116699 102.9086
149.096237 181.673904
155.084106 51.009258
157.097244 61.507019
159.593445 16.0
161.09317 194.820404
161.613083 11.375
169.100143 61.697781
173.092941 106.429497
173.560272 40.765629
178.077271 20.0
179.086639 50.130322
181.101044 156.457108
181.137482 13.2
185.096252 104.920502
189.093338 134.240707
189.360977 33.520161
190.323547 14.05
193.100693 397.167389
193.220444 10.66667
194.105988 30.53261
196.086853 114.111702
202.07373 91.520844
202.094177 87.125
203.108414 45.111839
205.102936 285.158203
206.107086 32.46944
207.116165 175.444504
207.633987 36.012501
208.12558 13.01136
209.906662 22.5625
210.138977 68.529503
211.115005 107.280296
213.092987 47.875
215.106308 52.321812
218.711426 27.160721
219.117798 360.027008
221.094086 68.054817
221.132309 353.819611
221.395126 13.59559
222.103241 153.885895
222.137833 144.121597
222.675568 15.08654
223.148163 26.04891
225.122955 142.126801
225.546768 24.44643
227.110718 41.44643
229.163651 47.8801
231.115479 213.553802
233.133102 381.102295
233.375793 38.003792
234.14212 180.612198
235.082947 86.859703
235.10881 339.355804
235.147079 237.880997
235.312851 50.020451
235.481415 24.39674
235.741257 14.69444
235.899139 27.205
236.297409 34.714291
237.128113 36.657612
237.158951 88.07206
239.177902 52.259621
244.048187 50.56522
244.120132 27.52083
247.112854 43.066669
247.148163 1050.93103
247.391022 21.009609
247.445969 13.14881
247.537674 47.011909
247.637619 34.00338
247.72525 13.14881
247.785049 22.125
248.114594 20.00543
249.16246 41.002449
253.156769 117.888901
259.145386 119.375
262.134064 150.815094
263.142029 39.761909
265.159088 414.592285
265.563599 42.33532
265.864288 17.30769
265.977661 34.041672
266.164764 169.122803
275.143127 78.547287
276.148834 16.375
277.119141 108.025002
277.159454 1037.119995
277.804565 41.31522
278.032074 43.778061
278.158295 33.150002
279.136536 98.053261
285.186951 198.787201
295.167297 766.885315
295.646362 19.56818
300.862732 16.28125
307.168243 48.3125
309.184875 39.444771
311.162384 117.246597
317.148315 101.931198
320.259552 17.045
321.181946 40.112499
325.179962 75.015846
329.150879 33.36364
337.174011 70.206627
337.621155 11.40833
339.190948 60.155769
343.163635 29.009609
351.194244 124.785698
355.189056 86.951218
367.19223 20.78241
369.201508 38.791672
373.191376 58.077591
381.203918 235.391098
387.217682 36.032139
399.189941 32.153851
411.213867 174.120407
412.673157 38.06377
419.097992 32.485291
433.200256 313.322388
433.463715 26.778851
434.327423 20.0
434.902405 17.4
435.621918 13.78125
439.166351 25.35
440.231079 25.1
444.220734 58.85257
463.204651 157.028793
472.06131 16.245001
481.193665 22.45833
481.636627 18.164471
482.68222 23.10227
491.244995 87.723213
493.21991 889.080872
493.354431 26.0625
493.632751 17.405001
493.796661 12.125
494.971497 72.085114
495.569153 49.30769
496.249939 12.5
552.062622 17.654409
553.23938 23.160721
555.236633 568.328125
555.327026 21.007351
556.236145 75.881104
579.039551 18.03125
593.274231 43.900002
593.963745 18.14286
607.878601 18.405001
611.781982 11.66667
615.255371 1608.776001
615.47876 34.026161
616.19397 55.92046
616.255127 110.726601
616.378479 46.46154
616.904602 23.69231
626.348938 10.125
675.291016 16.29167
675.489197 181.640594
675.598572 12.0
676.25 34.025002
676.514832 36.695511
676.81427 22.96196
END IONS
