BEGIN IONS
PEPMASS=428.329
CHARGE=1
MSLEVEL=2
SOURCE_INSTRUMENT=LC-ESI-qTof
FILENAME=f.philipwi/0_WilliamsFreshwaterCyanosStandardsConvertedTo_mzXML_v2/PW-37_P1-E-1_Dendroamide_C_536amu_01_15552_Scan605-616.mzXML;
SEQ=*..*
IONMODE=Positive
ORGANISM=GNPS-LIBRARY
NAME=Dendroamide C M+H
PI=Philip Williams
DATACOLLECTOR=Williams
SMILES=CC1C2=NC(=C(O2)C)C(=O)NC(C3=NC(=CS3)C(=O)NC(C4=NC(=CS4)C(=O)N1)CCS(=O)C)C
INCHI=
INCHIAUX=
PUBMED=
SUBMITUSER=philipwi
TAGS=
LIBRARYQUALITY=3
SPECTRUMID=CCMSLIB00000424852
SCANS=611
102.996048 48.0
113.334473 32.0
133.094086 124.0
133.322144 108.0
137.445633 52.0
144.085114 120.0
144.59053 120.0
145.088394 140.0
147.123199 92.0
149.101334 200.0
151.633789 36.0
152.529907 124.0
157.385818 32.0
158.10051 212.0
159.115356 220.0
159.761719 140.0
160.035767 40.0
161.263794 44.0
162.098618 64.0
163.163498 128.0
167.060837 124.0
167.152802 84.0
168.151474 144.0
168.308548 40.0
169.103622 140.0
170.116135 76.0
170.340683 48.0
171.1185 360.0
171.382187 40.0
171.741196 52.0
172.087372 124.0
172.988113 36.0
173.108917 92.0
173.87793 36.0
174.100174 212.0
175.150101 260.0
177.171432 88.0
178.471939 84.0
178.565613 36.0
180.158234 100.0
181.095795 76.0
183.11792 272.0
184.115448 204.0
185.133942 348.0
186.057922 92.0
186.139969 160.0
186.496689 36.0
187.132706 120.0
187.350754 40.0
187.839661 100.0
188.086548 96.0
189.126083 144.0
190.144318 112.0
191.253433 36.0
191.959305 40.0
192.104599 88.0
193.100266 108.0
193.428146 96.0
194.093613 100.0
194.175858 92.0
195.120193 204.0
195.793488 72.0
196.123489 220.0
197.134277 288.0
198.120438 100.0
198.774872 40.0
198.864761 40.0
199.044586 48.0
199.148071 252.0
200.062088 44.0
200.148743 92.0
201.144592 172.0
201.570602 52.0
202.168335 28.0
203.187561 144.0
203.693848 124.0
204.057907 104.0
206.125549 88.0
206.743744 44.0
208.1203 264.0
208.277191 44.0
209.132645 864.0
209.373352 48.0
209.696289 28.0
210.102631 164.0
211.143875 340.0
211.32402 40.0
212.12117 196.0
213.158081 336.0
214.183578 136.0
215.157272 140.0
215.469528 40.0
215.860825 52.0
216.168869 100.0
216.74205 156.0
217.201828 124.0
218.175385 132.0
219.080872 40.0
219.173691 352.0
219.415421 32.0
220.020126 36.0
220.109863 96.0
220.180893 64.0
220.313324 108.0
220.805603 60.0
221.582977 80.0
222.143158 116.0
222.960968 28.0
223.144394 272.0
223.484772 128.0
224.11908 180.0
224.887756 32.0
225.021606 28.0
225.160278 132.0
225.289429 36.0
225.46167 40.0
226.129913 364.0
227.169449 356.0
228.120728 76.0
228.30368 44.0
229.154816 156.0
229.663742 28.0
229.972961 40.0
230.181152 196.0
231.1035 104.0
231.173874 128.0
231.929764 24.0
232.108109 76.0
233.163254 220.0
234.133667 124.0
235.136261 368.0
236.113037 108.0
237.165665 232.0
238.13652 164.0
239.166763 120.0
240.174072 228.0
240.33371 36.0
241.186615 108.0
241.649811 36.0
242.152771 104.0
243.183899 196.0
243.426788 36.0
243.506348 64.0
244.1633 84.0
244.442261 92.0
244.522003 148.0
245.180817 240.0
246.860016 44.0
248.140472 140.0
249.158829 136.0
250.115616 108.0
251.179932 360.0
251.721085 36.0
251.903152 36.0
252.141479 200.0
252.449768 40.0
252.520676 60.0
252.76384 32.0
252.956421 60.0
253.047684 28.0
253.191193 292.0
254.176224 192.0
255.19072 196.0
255.701141 52.0
256.197815 148.0
257.188782 348.0
258.04068 32.0
258.122589 56.0
258.747681 40.0
259.169952 192.0
259.291412 132.0
259.38382 92.0
260.04126 40.0
260.142029 80.0
260.209198 128.0
261.177551 96.0
262.018616 112.0
262.165436 96.0
262.617401 36.0
262.96875 40.0
263.179962 176.0
264.181335 232.0
264.708221 136.0
265.196533 444.0
266.208252 260.0
267.078094 72.0
267.177094 244.0
268.152161 104.0
268.235657 100.0
269.183716 64.0
270.160034 80.0
271.32428 120.0
272.210388 200.0
273.027924 88.0
273.222687 164.0
274.171448 88.0
274.247314 112.0
274.356659 40.0
275.14856 76.0
275.540466 132.0
276.191376 92.0
276.408813 40.0
277.188019 84.0
278.043274 76.0
278.195129 268.0
278.489868 40.0
279.213715 56.0
279.874481 100.0
280.218506 80.0
280.931213 48.0
281.198395 104.0
282.070221 56.0
282.187927 3084.0
282.514679 20.0
282.729004 56.0
283.072113 104.0
283.191284 1008.0
283.469055 48.0
284.00592 48.0
284.231567 32.0
285.22345 116.0
286.158478 60.0
286.6763 56.0
287.000183 36.0
287.140594 96.0
288.124359 84.0
288.351624 96.0
289.229065 64.0
290.205566 92.0
290.890106 44.0
291.210083 196.0
292.171051 1044.0
293.235321 192.0
293.3414 40.0
293.548889 80.0
294.158325 88.0
294.948486 44.0
295.204193 216.0
295.792053 68.0
297.120056 44.0
297.263306 108.0
298.2052 84.0
298.594238 108.0
298.781525 32.0
299.202271 324.0
300.164642 52.0
300.242493 148.0
304.01593 40.0
304.193787 56.0
305.196381 76.0
305.97522 52.0
306.142517 64.0
306.23175 72.0
307.220886 100.0
307.482361 32.0
307.907257 96.0
308.22052 104.0
308.645935 64.0
309.203125 192.0
310.184235 336.0
310.316803 128.0
310.856049 32.0
311.223022 208.0
311.339508 84.0
311.474487 68.0
312.174805 168.0
313.217072 100.0
314.19873 184.0
314.790771 44.0
315.152771 44.0
316.194733 100.0
317.806335 32.0
319.213348 112.0
320.208618 68.0
321.430298 32.0
322.184998 48.0
322.963531 172.0
323.158295 64.0
323.272888 100.0
323.685638 164.0
324.207275 68.0
324.305206 64.0
324.500397 40.0
324.58078 128.0
324.776031 40.0
325.251373 84.0
326.161957 132.0
326.271149 92.0
327.21405 524.0
328.216461 160.0
329.564423 120.0
331.252625 40.0
333.088226 64.0
333.192932 56.0
334.112793 156.0
334.258453 56.0
335.285309 76.0
336.260132 64.0
336.985229 52.0
337.244202 64.0
337.383209 40.0
338.239044 156.0
339.269653 84.0
339.376617 32.0
340.222626 132.0
340.775482 40.0
341.246338 92.0
342.252777 76.0
343.215668 180.0
343.830017 88.0
344.669739 40.0
345.084076 92.0
346.981293 96.0
347.242584 64.0
348.229187 48.0
349.248108 76.0
350.281525 480.0
351.264648 268.0
351.902588 36.0
351.986298 40.0
352.16272 96.0
352.274689 176.0
353.18399 192.0
353.28006 192.0
353.686554 48.0
354.304779 116.0
354.946442 32.0
355.277618 176.0
355.787598 100.0
357.243958 104.0
358.228119 108.0
360.250275 72.0
361.230927 40.0
362.265747 252.0
363.255951 292.0
364.290466 56.0
364.777283 40.0
365.252258 96.0
366.282745 236.0
367.26767 560.0
367.680603 104.0
367.961792 32.0
368.263702 264.0
369.189636 96.0
369.229889 52.0
369.266418 136.0
370.183502 76.0
370.304565 96.0
370.804077 28.0
371.301361 172.0
371.712982 28.0
373.216766 180.0
374.207367 64.0
374.495667 52.0
378.304718 152.0
379.061401 24.0
380.266022 236.0
380.813324 108.0
381.273102 80.0
381.510254 52.0
382.313995 108.0
382.619202 96.0
383.292816 48.0
384.291504 556.0
385.290771 428.0
387.232208 84.0
388.012146 100.0
388.162842 104.0
389.143036 80.0
389.407166 48.0
390.376343 44.0
390.691254 60.0
391.053925 36.0
391.283691 204.0
392.040588 40.0
392.309296 160.0
392.482483 100.0
393.305878 104.0
393.632507 28.0
393.936096 48.0
394.151215 112.0
394.311066 268.0
395.316376 32.0
396.280182 64.0
397.003815 40.0
397.29599 68.0
398.303467 364.0
399.30072 268.0
399.560852 24.0
399.713776 40.0
400.159943 36.0
400.312958 248.0
400.823303 48.0
402.215576 48.0
402.445709 32.0
403.277344 48.0
404.285004 96.0
405.251129 176.0
406.173004 96.0
406.284973 148.0
407.281158 152.0
408.092041 24.0
408.297638 1868.0
408.594391 60.0
408.839264 28.0
409.045502 48.0
409.309448 504.0
409.694366 116.0
409.858124 36.0
410.090454 48.0
410.315338 1704.0
410.710297 40.0
410.981628 48.0
411.072113 108.0
411.20932 120.0
411.315033 416.0
411.472839 40.0
412.070435 40.0
412.325592 2320.0
412.630951 44.0
412.857574 36.0
413.02597 64.0
413.225891 84.0
413.330658 316.0
413.437378 32.0
413.946289 60.0
414.140839 116.0
414.349701 212.0
414.50415 32.0
414.996033 36.0
415.737976 40.0
415.997955 28.0
417.012695 76.0
419.698547 64.0
420.168823 128.0
421.515717 144.0
421.816803 68.0
422.248932 36.0
423.166351 96.0
423.316437 40.0
423.666229 36.0
423.86972 84.0
424.112183 48.0
424.298035 260.0
424.435303 40.0
424.456543 76.0
424.59906 48.0
424.747253 116.0
424.916382 100.0
425.063293 40.0
425.30069 1228.0
425.58667 32.0
425.720642 60.0
425.828918 128.0
425.922943 156.0
426.311646 34192.0
426.528015 256.0
426.566772 72.0
426.618774 216.0
426.728455 144.0
426.842896 76.0
427.031555 104.0
427.312134 8476.0
427.582947 96.0
427.971771 308.0
428.095367 424.0
428.19165 380.0
428.329132 148240.0
428.55127 192.0
428.71463 164.0
428.848999 256.0
429.02121 284.0
429.330811 48360.0
429.512512 312.0
429.665985 104.0
429.766937 128.0
429.860748 180.0
430.002838 148.0
430.132385 272.0
430.341583 60596.0
430.641785 256.0
430.781067 184.0
430.853668 76.0
430.890991 84.0
430.978027 120.0
431.083435 120.0
431.182678 164.0
431.344116 10156.0
431.529358 156.0
431.641663 104.0
431.794708 44.0
431.837097 48.0
431.886444 140.0
431.983582 128.0
432.086884 40.0
432.352203 8280.0
432.639191 108.0
432.785217 48.0
432.959229 52.0
433.158936 84.0
433.365875 316.0
433.536926 52.0
433.687378 116.0
433.794739 52.0
433.951508 80.0
434.003876 32.0
434.341461 72.0
434.500488 44.0
434.612457 64.0
434.897858 64.0
434.997101 44.0
435.058289 40.0
435.122467 68.0
435.249725 36.0
435.408569 68.0
435.475861 52.0
435.663879 184.0
435.783203 40.0
435.985291 112.0
436.086761 44.0
436.234406 44.0
436.478516 60.0
436.68985 40.0
437.073578 88.0
437.228668 44.0
437.468384 52.0
437.77951 40.0
437.91452 56.0
438.061737 40.0
438.240448 56.0
438.290955 64.0
438.327179 36.0
438.500702 64.0
438.607483 44.0
438.941315 36.0
439.045715 44.0
439.168365 40.0
439.462311 40.0
439.650604 44.0
439.75531 52.0
440.014343 108.0
440.465118 52.0
440.692566 72.0
440.98703 44.0
441.112579 116.0
441.482452 44.0
442.38028 44.0
442.635071 104.0
442.740936 44.0
442.970398 60.0
443.185089 36.0
443.311005 84.0
443.507233 44.0
443.628052 40.0
443.731476 104.0
443.862671 40.0
444.192139 32.0
444.299622 32.0
444.474304 56.0
444.646759 132.0
444.850677 48.0
445.025482 36.0
445.119629 56.0
445.281006 40.0
445.684631 44.0
445.84613 40.0
446.182709 32.0
446.371216 36.0
446.613678 40.0
446.856201 36.0
447.15271 60.0
447.584137 36.0
447.813446 56.0
447.967194 40.0
448.35318 40.0
448.731201 60.0
448.920258 96.0
449.055328 156.0
449.528229 24.0
449.649872 36.0
449.933777 48.0
450.055481 40.0
450.231293 48.0
450.664215 96.0
450.934906 56.0
451.910065 64.0
452.181122 72.0
452.996277 36.0
453.388336 92.0
454.923401 56.0
455.086548 132.0
455.573303 56.0
456.202332 44.0
456.815216 28.0
457.251282 88.0
457.701233 48.0
458.656342 36.0
459.885834 116.0
460.145599 40.0
461.103271 72.0
463.062744 28.0
463.419464 32.0
463.542969 48.0
464.54538 80.0
464.856598 68.0
467.393738 36.0
467.779694 76.0
469.435577 176.0
470.430511 64.0
471.827972 148.0
473.227509 44.0
474.073761 68.0
477.786774 108.0
479.57193 160.0
480.605499 36.0
481.108734 108.0
482.451935 40.0
485.747864 116.0
486.366241 48.0
487.435242 172.0
489.083221 64.0
490.595398 44.0
490.734009 40.0
492.543182 40.0
495.603699 64.0
501.18219 32.0
501.590088 120.0
501.867401 48.0
505.916901 140.0
506.605347 140.0
507.064575 120.0
507.409119 188.0
507.983643 140.0
510.184204 28.0
511.639465 128.0
514.454956 192.0
520.443604 156.0
522.714722 96.0
530.761108 156.0
532.569031 84.0
536.075928 116.0
536.636902 104.0
540.680237 120.0
546.024963 120.0
549.321838 92.0
550.562561 144.0
559.196533 40.0
559.920349 108.0
560.191895 152.0
562.956299 84.0
568.262329 48.0
569.083191 88.0
571.04657 128.0
571.595093 32.0
573.379578 84.0
573.578003 108.0
574.311035 96.0
577.49292 112.0
578.918457 88.0
579.301941 52.0
579.700928 112.0
582.836121 64.0
584.62262 32.0
588.540405 152.0
588.915283 68.0
590.98999 104.0
592.245911 28.0
595.757019 88.0
596.862244 100.0
598.327026 92.0
598.966492 92.0
599.2005 100.0
601.277649 132.0
605.097656 104.0
608.567993 96.0
609.118469 64.0
612.489929 72.0
618.119019 76.0
622.596313 72.0
624.299377 24.0
624.426819 40.0
626.27594 116.0
627.45697 156.0
637.959351 44.0
643.121948 76.0
645.273804 48.0
645.565247 204.0
646.391541 72.0
650.563416 116.0
652.597351 124.0
656.413452 48.0
657.573486 32.0
661.43689 44.0
663.028076 92.0
664.752686 44.0
666.249146 44.0
668.703003 116.0
669.313049 104.0
670.500977 108.0
674.484863 136.0
676.124817 48.0
683.437622 44.0
685.171814 72.0
685.639099 112.0
686.156616 148.0
689.316162 112.0
691.158386 76.0
698.737122 104.0
707.526672 152.0
709.155396 88.0
710.616028 96.0
713.609863 140.0
714.717163 96.0
715.398987 108.0
715.978821 96.0
719.411316 32.0
720.848267 88.0
722.235229 64.0
722.492188 96.0
726.902405 92.0
728.639282 152.0
733.03363 208.0
734.363159 152.0
736.818176 172.0
739.381287 84.0
743.460205 44.0
748.491821 84.0
755.256226 68.0
760.011169 52.0
771.777893 192.0
772.787659 116.0
779.678528 36.0
780.746826 144.0
780.960571 152.0
782.43988 72.0
787.744568 64.0
788.299316 104.0
788.460388 60.0
790.269287 100.0
792.636475 132.0
793.498169 84.0
794.252502 108.0
796.157898 88.0
797.399475 120.0
798.029602 64.0
799.182495 72.0
799.849426 120.0
800.011658 124.0
801.761536 80.0
808.870789 176.0
811.102234 32.0
811.410889 76.0
821.260376 160.0
826.460388 32.0
827.321899 100.0
838.581116 44.0
851.831604 96.0
854.438232 76.0
857.347473 104.0
858.318359 52.0
860.429993 76.0
882.824951 52.0
897.488281 44.0
909.079041 56.0
913.11969 96.0
918.733643 44.0
926.109924 96.0
928.012024 80.0
931.899841 80.0
933.165161 176.0
937.6297 72.0
939.993042 40.0
961.574646 68.0
989.78833 24.0
1000.768555 92.0
1002.846741 24.0
1009.134583 80.0
1022.564148 120.0
1023.053406 68.0
1049.916748 64.0
1107.295288 76.0
1157.986206 136.0
1182.452515 64.0
1293.559814 64.0
1300.171143 36.0
1385.13562 156.0
1407.81311 92.0
END IONS
