BEGIN IONS
PEPMASS=765.31
CHARGE=1
MSLEVEL=2
SOURCE_INSTRUMENT=LC-ESI-Orbitrap
FILENAME=Cpd_6_765.mgf
SEQ=*..*
IONMODE=Positive
ORGANISM=GNPS-LIBRARY
NAME=euphodendroidin L M+Na
PI=LITAUDON/TOUBOUL
DATACOLLECTOR=Esposito
SMILES=C[C@@]1(OC(C)=O)C[C@](O)(C([C@@H](C)/C=C/C(C)(C)[C@H](OC(C)=O)[C@H](OC(C)=O)[C@@H](OC(C2=CC=CC=C2)=O)C([C@@H]3OC(C(C)C)=O)=C)=O)[C@]3([H])[C@H]1OC(C)=O
INCHI=
INCHIAUX=
PUBMED=N/A
SUBMITUSER=lfnothias
TAGS=
LIBRARYQUALITY=1
SPECTRUMID=CCMSLIB00000840539
SCANS=1
200.585159 6047.865234
234.263306 3081.987061
237.129013 3647.073975
247.146255 4931.397461
250.135696 5108.310547
251.14325 13639.382812
255.173294 3716.717529
265.1604 36643.707031
269.153137 6176.920898
275.144409 7314.512695
283.169128 31373.302734
293.155579 38943.597656
307.042816 3042.393311
311.165955 93302.414062
311.888977 4011.968994
325.18222 10436.791992
329.175873 23166.585938
333.147034 3882.696533
335.164246 5771.652344
345.579071 3193.220459
353.173553 52011.949219
371.183716 50385.160156
375.160492 8339.037109
381.207153 6302.095703
385.049469 3543.10083
385.203674 9969.899414
389.199524 6680.972656
393.169464 9331.766602
413.197998 8065.69043
431.208527 11289.616211
431.682587 4628.567383
435.180817 17903.646484
441.225403 4495.033203
452.168884 2947.835693
453.187836 43326.382812
463.208008 10921.880859
466.129822 3265.505615
473.213928 4344.473633
475.219574 4470.525391
481.217773 3663.355225
487.314026 4188.658203
495.196442 4672.6875
497.192749 9346.841797
501.247192 3705.736084
513.211426 4165.050781
523.231384 101306.867188
557.218506 32107.005859
563.049011 3638.057373
563.979004 5584.393555
583.255249 193521.59375
585.250916 39144.753906
589.511108 3013.838623
589.846558 3220.400635
604.063843 2979.87085
617.234009 96834.179688
623.292725 8121.015625
635.244995 4976.118164
643.269531 47886.738281
644.689758 3509.82251
645.271606 673369.125
661.295471 8159.649414
677.257324 63966.570312
683.304565 138083.921875
700.95752 6807.333008
703.206848 3914.371338
703.742676 4052.328857
703.770874 2988.387939
703.799072 4508.99707
703.827332 3099.928467
703.85553 4649.851562
703.940186 4490.193359
703.968445 3862.598389
704.024902 5305.011719
704.137817 7665.786133
704.166077 5592.8125
704.222595 7361.75293
704.279053 6477.913086
704.307312 5464.594727
704.335571 7520.69043
704.363831 5727.551758
704.39209 7498.963867
704.420349 7899.640625
704.476868 9320.567383
704.505127 7107.680664
704.533386 9167.204102
704.561646 8137.145508
704.589905 9426.779297
704.618164 9951.631836
704.646423 9053.40918
704.674744 11093.384766
704.703003 11698.461914
704.731262 10721.557617
704.759521 13579.813477
704.787842 12748.847656
704.816101 14449.998047
704.872681 18165.470703
704.90094 16123.896484
704.92926 18768.082031
704.95752 21939.265625
704.98584 17976.25
705.014099 27859.730469
705.042419 24440.103516
705.070679 28529.330078
705.098999 29513.740234
705.127319 38582.71875
705.155579 33629.269531
705.183899 43977.757812
705.282959 6536506.0
705.38208 25997.84375
705.4104 41520.117188
705.438721 36164.277344
705.467041 36354.953125
705.495361 28155.609375
705.523682 28550.763672
705.580322 27968.960938
705.636963 21447.113281
705.665283 16805.154297
705.693665 15823.1875
705.721985 16903.158203
705.778625 13287.931641
705.807007 11347.332031
705.835327 14265.342773
705.892029 11689.867188
705.920349 9752.331055
705.94873 10450.716797
706.005432 10550.758789
706.062134 9526.680664
706.118835 10428.779297
706.175537 7400.185547
706.203918 7297.56543
706.2323 5721.368164
706.260681 7102.445312
706.289001 6894.375977
706.345764 5909.802734
706.374146 5687.460938
706.402527 4636.745117
706.430908 5726.806641
706.45929 5031.859375
706.487671 5608.279297
706.544434 4607.944336
706.572815 5091.016602
706.629578 4934.773438
706.68634 5013.560547
706.714783 3889.859131
706.743164 4138.296875
709.648621 7735.760742
710.134583 7063.357422
721.290344 3995.914795
END IONS
