BEGIN IONS
PEPMASS=602.917
CHARGE=1
MSLEVEL=2
SOURCE_INSTRUMENT=LC-ESI-Orbitrap
FILENAME=f.lfnothias/1901_fungal_symbiont_annotation_confirmation/Pure_compounds/Pure_compounds_mzML/LeucinostatinAandB_1uL.mzML;
SEQ=*..*
IONMODE=Positive
ORGANISM=GNPS-LIBRARY
NAME=Leucinostatin B M+H reference compound M+H
PI=Dorrestein
DATACOLLECTOR=lfnothias
SMILES=CCC(C)/C=C/C(=O)N1CC(CC1C(=O)NC(CC(C)CC(CC(=O)CC)O)C(=O)NC(C(C(C)C)O)C(=O)NC(C)(C)C(=O)NC(CC(C)C)C(=O)NC(CC(C)C)C(=O)NC(C)(C)C(=O)NC(C)(C)C(=O)NCCC(=O)NC(C)CNC)C
INCHI=InChI=1S/C61H109N11O13/c1-20-37(9)22-23-48(76)72-33-39(11)30-46(72)54(81)66-45(29-38(10)28-42(74)31-41(73)21-2)52(79)68-49(50(77)36(7)8)55(82)70-60(15,16)57(84)67-43(26-34(3)4)51(78)65-44(27-35(5)6)53(80)69-61(17,18)58(85)71-59(13,14)56(83)63-25-24-47(75)64-40(12)32-62-19/h22-23,34-40,42-46,49-50,62,74,77H,20-21,24-33H2,1-19H3,(H,63,83)(H,64,75)(H,65,78)(H,66,81)(H,67,84)(H,68,79)(H,69,80)(H,70,82)(H,71,85)/b23-22+
INCHIAUX=JLDCSWRYRVBFRU-GHVJWSGMSA-N
PUBMED=
SUBMITUSER=lfnothias
TAGS=
LIBRARYQUALITY=3
SPECTRUMID=CCMSLIB00005435706
SCANS=2135
70.656059 98787.257812
72.081131 260438.6875
74.331169 99386.617188
81.069969 269531.28125
83.085617 285017.6875
84.080864 19382720.0
85.084343 544305.5
86.096451 2484187.0
87.099983 146506.171875
89.107643 121789.851562
93.069748 373930.84375
95.085548 364374.59375
96.080757 117459.4375
100.075745 542978.6875
102.091293 707694.6875
102.163025 100208.65625
103.086319 157863.03125
111.080368 20020538.0
112.0756 1599499.125
112.083809 980138.8125
113.107277 595281.9375
114.091438 232130.734375
115.086731 145613.5
123.116753 1451348.25
125.107155 1462243.0
126.091385 1333580.25
126.110405 142564.890625
129.102173 756408.125
142.13385 4519906.0
143.117844 495532.15625
143.138077 160266.90625
160.144485 1305463.875
161.386032 105266.796875
168.138443 811580.125
169.121948 754106.9375
171.112854 197798.5
171.149048 873681.375
180.100983 108421.976562
187.143845 2037376.875
188.148697 204533.9375
192.707306 99748.265625
194.153809 34174812.0
195.157257 2925342.0
197.128067 295959.1875
199.143478 1688059.125
199.180527 1460196.0
200.147903 106315.265625
200.183563 149668.40625
207.14978 173426.484375
215.139084 3123812.75
216.142487 294806.34375
222.148788 19326298.0
223.152481 1906060.0
225.160141 339424.75
227.174194 1359939.375
235.144348 636048.5
239.175888 153350.734375
239.983032 106153.632812
245.197113 1681876.0
246.200592 166047.234375
253.15361 133060.265625
279.206268 175483.171875
284.200073 176547.6875
297.218475 154338.53125
307.199951 328677.96875
310.213684 235495.71875
312.227875 3105048.0
313.232513 295038.90625
320.197296 313389.75
325.213409 546202.25
326.216553 120979.320312
328.222504 1238801.625
329.224518 198490.34375
330.250275 857074.125
331.253143 161701.109375
338.207245 230407.390625
343.222351 271974.0625
382.273773 127333.820312
392.254974 212031.5625
395.267578 138169.78125
397.281555 636374.0625
410.264923 527597.125
413.275757 166113.296875
417.276825 555239.875
418.275024 133733.75
423.296295 166745.484375
428.275635 198618.21875
435.285095 627789.0625
436.290253 189729.6875
441.30542 194259.109375
443.335297 1182930.875
444.34082 170176.234375
468.09903 132601.90625
492.308716 349987.6875
493.307922 131214.90625
525.373901 145401.515625
526.284363 136050.265625
526.362976 193610.96875
528.345764 157718.953125
538.405884 324839.4375
546.352905 1926149.625
547.355896 484242.59375
556.417542 8286040.5
557.421143 1759267.75
564.362915 882108.125
565.365662 203724.609375
584.906799 611912.1875
585.408936 666864.8125
593.910889 1062576.5
594.411865 1258299.125
613.392395 148676.546875
631.405701 1887081.75
632.408936 615780.5
641.473083 839897.8125
642.487366 125131.492188
649.417664 196592.921875
650.420471 154839.78125
654.440063 145804.21875
671.365784 126325.390625
719.184814 133835.40625
770.552429 678388.1875
771.552673 341639.15625
947.640564 144277.59375
965.667664 288900.3125
983.683105 364047.78125
984.697571 229833.90625
END IONS
