BEGIN IONS
PEPMASS=513.27
CHARGE=1
MSLEVEL=2
SOURCE_INSTRUMENT=LC-ESI-qToF
FILENAME=P2_C12_conc_GE12_01_2431.mzXML
SEQ=*..*
IONMODE=Positive
ORGANISM=GNPS-LIBRARY
NAME=1-Alaninechlamydocin_130134 M+H
PI=Cichewicz
DATACOLLECTOR=Luzzatto
SMILES=O=C(N1[C@H](CCC1)C(N[C@@H](CCCCCC([C@@H]2CO2)=O)C(N[C@H]3C)=O)=O)[C@H](CC4=CC=CC=C4)NC3=O
INCHI=N/A
INCHIAUX=N/A
PUBMED=
SUBMITUSER=tal_lk
TAGS=
LIBRARYQUALITY=2
SPECTRUMID=CCMSLIB00000478539
SCANS=1059
98.060745 432.0
103.057907 388.0
105.070747 268.0
106.067627 504.0
107.083961 348.0
109.066994 528.0
110.063789 452.0
115.088066 428.0
117.068199 284.0
120.082962 13232.0
121.0868 1312.0
122.097443 1256.0
123.081139 468.0
124.075989 372.0
124.117119 280.0
125.07885 304.0
126.055756 684.0
131.053986 276.0
134.096588 1192.0
135.081757 508.0
146.096878 4036.0
147.099487 364.0
148.114349 704.0
152.107803 6360.0
153.110794 400.0
170.118637 27156.0
171.122543 4036.0
172.112991 756.0
178.12645 256.0
189.137497 596.0
191.118317 4320.0
192.121552 736.0
196.138229 488.0
198.11528 576.0
199.120605 360.0
200.107132 344.0
201.14032 732.0
205.13414 360.0
215.154984 636.0
216.158096 292.0
217.134567 12212.0
218.136978 2212.0
219.114166 2128.0
220.118912 324.0
223.144196 748.0
228.101883 300.0
241.154495 2104.0
243.149734 5372.0
244.154968 524.0
245.128815 6744.0
246.132263 1560.0
249.160263 740.0
250.161591 504.0
251.137558 512.0
251.176071 420.0
267.170898 33144.0
268.173431 4972.0
269.148071 1340.0
269.177399 940.0
270.146973 376.0
271.143829 2184.0
272.156616 268.0
277.155273 420.0
288.175537 720.0
294.17511 600.0
295.165375 11308.0
296.167084 2456.0
297.176453 400.0
316.165222 7148.0
317.169617 1080.0
318.170044 488.0
326.144958 532.0
336.181946 400.0
338.203674 552.0
339.207153 404.0
343.200409 564.0
348.19516 472.0
366.201721 13472.0
367.205231 3224.0
368.206665 568.0
370.210938 356.0
371.195465 956.0
373.175507 588.0
380.190826 256.0
396.227875 828.0
397.204926 364.0
398.20578 304.0
399.209229 376.0
414.238495 812.0
416.218445 3424.0
417.214691 748.0
418.217957 320.0
424.224213 1856.0
425.227051 668.0
440.255646 432.0
442.232544 10640.0
443.233887 2504.0
444.22937 776.0
445.214508 272.0
460.029755 288.0
467.265686 876.0
468.253174 1056.0
469.23819 284.0
477.252655 356.0
485.275269 26888.0
486.27948 7732.0
487.278412 1432.0
488.289276 352.0
489.279633 344.0
495.257874 1796.0
496.249969 440.0
513.270325 66436.0
513.391052 352.0
514.272888 23840.0
515.275879 4092.0
516.27948 356.0
END IONS
