BEGIN IONS
PEPMASS=896.511
CHARGE=1
MSLEVEL=2
SOURCE_INSTRUMENT=LC-ESI-qToF
FILENAME=P2_C1_conc_GE1_01_2419.mzXML
SEQ=*..*
IONMODE=Positive
ORGANISM=GNPS-LIBRARY
NAME=_130099 M+Na
PI=Cichewicz
DATACOLLECTOR=Luzzatto
SMILES=OC1=CC=C(CC(C(NC(C(C)C)C(OC(C(CCCCCCCCCC)C)CC(NC(C(NC(C(NC(C(NC2CCC(N)=O)=O)C)=O)C)=O)C(O)C)=O)=O)=O)NC2=O)C=C1
INCHI=N/A
INCHIAUX=N/A
PUBMED=
SUBMITUSER=tal_lk
TAGS=
LIBRARYQUALITY=2
SPECTRUMID=CCMSLIB00000478518
SCANS=2272
136.073898 1344.0
200.103607 300.0
223.205139 628.0
236.121216 456.0
264.597321 432.0
271.137054 480.0
280.660645 508.0
281.151306 472.0
293.659332 252.0
294.654419 428.0
295.117798 560.0
296.270386 396.0
302.671295 396.0
304.155914 388.0
306.241425 656.0
311.132568 508.0
316.670288 1224.0
317.171051 1112.0
323.629669 1348.0
324.136078 488.0
324.250977 688.0
325.672363 988.0
326.65921 496.0
345.639069 436.0
346.136475 544.0
358.628204 584.0
362.191193 1092.0
362.687958 732.0
366.099426 316.0
375.190948 496.0
375.708313 360.0
376.680023 472.0
377.18335 624.0
377.281219 560.0
384.203033 2844.0
384.70517 1444.0
385.194244 6844.0
385.694489 3664.0
386.194153 1080.0
386.708252 408.0
389.683502 568.0
391.196136 280.0
392.187531 496.0
395.294891 296.0
398.198029 1372.0
398.699219 1120.0
399.196442 524.0
406.715973 660.0
407.20639 20956.0
407.707489 10688.0
408.209534 2168.0
408.710938 572.0
409.203278 748.0
409.705292 372.0
411.715637 404.0
425.722137 780.0
426.212189 644.0
426.725769 452.0
428.200256 408.0
431.18277 516.0
433.249023 260.0
433.738647 372.0
434.237 492.0
434.602417 256.0
434.726257 12964.0
435.229248 6416.0
435.729797 1944.0
436.226105 620.0
436.725281 772.0
442.737305 380.0
447.736938 2524.0
448.237183 1468.0
448.302002 716.0
448.735107 944.0
449.740417 260.0
450.235321 288.0
455.200623 284.0
456.161987 352.0
456.741272 52404.0
456.907928 300.0
456.975983 496.0
457.104767 284.0
457.192719 284.0
457.241608 27848.0
457.334747 272.0
457.742828 8380.0
458.245605 2456.0
458.604401 304.0
458.742615 1616.0
459.244751 928.0
459.742096 684.0
460.261017 360.0
460.31485 280.0
465.209351 284.0
466.329834 468.0
473.132385 316.0
474.187531 376.0
477.282898 548.0
487.322205 348.0
490.151733 352.0
502.231567 668.0
529.175293 384.0
543.18396 992.0
544.188538 320.0
555.208557 280.0
556.223083 392.0
573.263062 776.0
574.253906 336.0
585.265015 252.0
588.309448 1132.0
588.37262 736.0
589.229065 376.0
589.309998 256.0
589.36377 796.0
590.234131 300.0
590.345093 960.0
591.360718 316.0
606.3078 440.0
607.308899 376.0
616.370911 472.0
617.344849 416.0
634.375061 1784.0
635.375488 408.0
646.24823 1032.0
647.262024 296.0
654.267212 408.0
673.259155 436.0
700.281982 576.0
701.287903 520.0
746.460693 332.0
751.431824 416.0
752.352356 316.0
752.443054 308.0
753.416809 1180.0
754.422729 816.0
769.38092 4056.0
770.384949 1616.0
771.383789 1008.0
773.379089 332.0
777.454041 292.0
779.434143 1436.0
795.401001 472.0
796.421814 380.0
797.440613 9040.0
798.446899 2964.0
799.451294 1140.0
813.4328 336.0
824.489807 276.0
834.468628 380.0
836.476318 272.0
852.482361 4476.0
853.483765 2548.0
854.482605 544.0
855.495544 476.0
857.515015 380.0
862.502319 484.0
868.444275 1648.0
869.446899 1248.0
870.466003 444.0
872.482971 420.0
874.530945 732.0
875.520508 820.0
876.530518 448.0
877.541077 288.0
878.493225 2272.0
879.495789 1500.0
880.488464 1168.0
882.458374 276.0
892.466309 296.0
893.30603 456.0
893.503601 29136.0
893.67627 300.0
893.851074 428.0
894.005981 30344.0
894.214661 360.0
894.274475 320.0
894.508362 25768.0
894.728088 292.0
895.009888 11112.0
895.3703 312.0
895.511047 4172.0
895.746033 336.0
895.862549 308.0
896.002441 1724.0
896.181091 552.0
896.283752 728.0
896.364258 464.0
896.510803 199256.0
896.826538 356.0
896.924072 508.0
896.991211 300.0
897.053284 324.0
897.138 676.0
897.304016 540.0
897.384521 416.0
897.51355 89648.0
897.748413 292.0
897.902039 400.0
898.002869 724.0
898.106201 336.0
898.167725 356.0
898.223389 528.0
898.324707 256.0
898.372803 340.0
898.417358 336.0
898.515564 25168.0
898.83075 368.0
898.940979 360.0
899.048157 356.0
899.194885 328.0
899.418701 312.0
899.51886 5520.0
899.801514 292.0
899.877502 252.0
899.939209 300.0
900.34967 328.0
900.526917 1192.0
901.013733 284.0
901.858826 352.0
902.23291 504.0
902.756409 384.0
902.859131 256.0
904.040527 260.0
918.483032 260.0
919.503845 352.0
END IONS
