BEGIN IONS
PEPMASS=712.5
CHARGE=1
MSLEVEL=2
SOURCE_INSTRUMENT=LC-ESI-Ion Trap
FILENAME=f.yuhaobing/sponge samples/MC-712.mzXML;
SEQ=*..*
IONMODE=Positive
ORGANISM=GNPS-LIBRARY
NAME=microcolin C (desacetylmicrocolin B) M+Na
PI=Gerwick
DATACOLLECTOR=Haobing Yu
SMILES=CN(C([C@H](C)C[C@H](C)CCCC)=O)[C@@H](CC(C)C)C(N[C@@H]([C@@H](C)O)C(N(C)[C@@H](C(C)C)C(N1[C@H](C(N2C(C=C[C@@H]2C)=O)=O)CCC1)=O)=O)=O
INCHI=
INCHIAUX=
PUBMED=19431099
SUBMITUSER=yuhaobing
TAGS=
LIBRARYQUALITY=3
SPECTRUMID=CCMSLIB00005435658
SCANS=663
244.955414 273256.0
274.020386 806835.0
302.463623 183440.0
317.309204 194762.0
318.034363 149439.0
330.090454 5327345.0
330.910095 9.0
344.805115 785871.0
345.407837 35.0
348.447998 247747.0
355.369751 195799.0
357.568848 265996.0
359.224731 489804.0
361.006104 559978.0
361.850647 10.0
377.171753 567465.0
377.799866 26.0
385.842896 142082.0
387.049194 2432512.0
387.741821 370039.0
397.223389 1134274.0
397.866577 9.0
401.497803 533272.0
405.176025 872093.0
405.959717 244721.0
423.071838 345868.0
431.114258 2945484.0
432.001343 62080.0
436.067017 499645.0
441.360413 1584980.0
442.371155 223271.0
457.353699 204352.0
474.161865 1815024.0
475.403809 484413.0
523.158325 1337957.0
525.38916 559134.0
540.096924 221796.0
543.834473 1229450.0
567.162842 182207.0
568.496216 279368.0
571.53125 142494.0
587.435913 7031109.0
588.603638 307922.0
615.276855 3059911.0
615.913574 599162.0
622.73584 612412.0
637.534058 412377.0
650.456543 1535499.0
651.397827 2672023.0
667.764038 3421490.0
668.481445 174109184.0
669.470703 23626624.0
670.097412 597.0
683.97644 132925.0
694.231323 3076503.0
694.941406 83.0
712.388184 6587189.0
713.536255 1537032.0
END IONS
