BEGIN IONS
PEPMASS=593.913
CHARGE=2
MSLEVEL=2
SOURCE_INSTRUMENT=LC-ESI-Orbitrap
FILENAME=f.lfnothias/1901_fungal_symbiont_annotation_confirmation/Pure_compounds/Pure_compounds_mzML/LeucinostatinAandB_1uL.mzML;
SEQ=*..*
IONMODE=Positive
ORGANISM=GNPS-LIBRARY
NAME=Leucinostatin_B2 observed in leucinostatin A/B standard dereplicator annotation M+2H
PI=Dorrestein
DATACOLLECTOR=lfnothias
SMILES=N1(C(C(=O)NC(C(=O)NC(C(=O)NC(C(=O)NC(C(=O)NC(C(=O)NC(C(=O)NC(C(=O)NCCC(=O)NC(CNC)C)(C)C)(C)C)CC(C)C)CC(C)C)(C)C)C(C(C)C)O)CC(C/C=C/C(=O)CC)C)CC(C1)C)C(=O)/C=C/[C@@H](CC)C
INCHI=
INCHIAUX=
PUBMED=
SUBMITUSER=lfnothias
TAGS=
LIBRARYQUALITY=3
SPECTRUMID=CCMSLIB00005435714
SCANS=2544
84.080864 89725.117188
85.083992 2288.41748
86.096474 11129.130859
93.069939 1964.626709
95.426323 1655.396851
100.075691 1817.198853
102.090607 1955.795776
111.080391 87706.734375
112.075607 6277.021973
112.083115 4023.178955
113.107666 2086.117188
115.085411 1587.283325
125.096718 3133.503418
125.107162 7756.987793
126.091217 6129.528809
129.102081 2837.620605
133.369263 1688.260132
142.133881 22350.888672
151.526917 1820.375244
160.144836 4097.762695
168.138138 10661.768555
171.149185 4347.986816
187.144028 12842.415039
188.088455 2054.573486
194.15387 164603.171875
195.157593 14359.038086
199.144562 9111.871094
199.160599 1832.573853
199.18045 4598.08252
209.22261 1872.782471
214.156235 2331.114746
215.138702 13603.077148
222.148849 97009.34375
223.151611 5319.342773
225.124603 1746.408081
225.158524 2939.352051
227.175598 5330.559082
235.143707 5203.580078
245.197083 7241.998535
307.201599 4807.503906
309.215576 1841.706177
312.227692 14708.472656
320.194885 3008.824219
328.222137 5187.270508
330.251129 2615.665283
344.783112 1845.681641
367.133636 1783.376465
392.253357 3775.23877
397.280914 4164.143555
410.265808 1956.963257
417.275299 12421.375
441.307953 2904.132324
443.334198 6741.260742
522.916504 1870.998779
528.340515 5561.32959
529.345825 2884.132812
535.731995 1882.17041
556.417603 31902.302734
557.419189 7517.856445
584.905518 3004.967041
585.40564 4030.940674
613.394958 6820.472656
641.472717 4612.466797
770.375305 2152.910889
770.540527 4687.524902
891.525269 1967.817993
965.679565 3259.791992
1196.525269 1944.579956
END IONS
