BEGIN IONS
PEPMASS=637.262
CHARGE=1
MSLEVEL=2
SOURCE_INSTRUMENT=LC-ESI-qTof
FILENAME=f.Esposito/E-dendroides-ref/euphodendroidin V.mgf;
SEQ=*..*
IONMODE=Positive
ORGANISM=GNPS-LIBRARY
NAME=euphodendroidin V M+Na
PI=Litaudon and Paolini
DATACOLLECTOR=Esposito
SMILES=C[C@@]1(O)C[C@](O)(C([C@@H](C)/C=C/C(C)(C)[C@H](OC(C)=O)[C@H](OC(C)=O)[C@@H](OC(C2=CC=CC=C2)=O)/C(C)=C/3)=O)C3([H])[C@H]1OC(C)=O
INCHI=
INCHIAUX=
PUBMED=
SUBMITUSER=Esposito
TAGS=
LIBRARYQUALITY=3
SPECTRUMID=CCMSLIB00004680120
SCANS=1
51.030128 27.0375
55.025852 37.467209
55.062138 123.130302
55.067368 15.06635
55.077461 13.28885
57.041634 38.205818
57.078224 17.401251
58.04475 24.011129
67.062576 138.5298
67.069405 38.992561
67.078804 17.041161
69.041985 291.221497
69.047638 60.572689
69.058434 25.156401
69.064949 18.650299
69.078232 213.507507
69.086258 23.31287
69.093399 18.908739
69.101303 15.1308
71.02169 24.05402
71.0588 29.47072
71.094307 15.39383
77.04731 82.470322
77.050026 16.509001
77.055328 10.48682
77.069153 11.27976
79.062088 82.367973
79.069283 23.532579
79.080154 11.55222
81.078659 132.060501
81.084976 19.69096
82.082375 11.61519
83.019859 206.213806
83.027946 55.13483
83.036308 30.886101
83.05809 1082.248047
83.066383 218.267197
83.075935 125.469597
83.083511 40.61121
83.088226 27.796961
83.095451 136.065704
83.107033 21.30724
83.113022 35.93914
83.121834 10.22548
85.037079 181.898193
85.042763 10.37
85.047966 17.21419
85.057503 28.57851
85.074028 175.269394
85.081291 27.71718
85.092438 31.838779
85.100243 12.80704
87.053833 21.96213
91.062828 53.995811
93.078911 225.477295
93.088509 22.1758
93.097137 22.78244
95.058929 127.653297
95.06665 27.851179
95.078354 10.11712
95.094635 297.752106
95.104256 40.641079
95.112686 36.514091
95.12159 16.98447
96.100334 17.04063
97.074127 50.18573
97.110802 89.398499
99.053619 69.54837
99.089218 19.543341
101.0681 36.501801
103.047676 10.04321
105.043228 615.608398
105.051407 103.619102
105.061462 67.226028
105.072601 13.06334
105.079796 264.379913
105.088852 64.443573
105.099342 28.129539
105.106796 19.433559
105.114708 12.03149
107.059738 67.947678
107.095047 338.462799
107.104935 44.03875
107.11483 36.81604
107.122688 11.40209
107.12751 12.70107
109.074394 287.724213
109.084694 63.458851
109.094139 36.468948
109.110886 469.086609
109.120064 102.175301
109.131073 40.930279
109.136925 26.932211
109.146309 12.33298
110.113319 10.10762
111.053497 26.936399
111.090912 131.928696
111.109772 24.638889
113.034256 18.37826
113.069763 125.132301
113.078056 22.74239
113.09864 11.6199
115.049156 14.425
117.079132 96.320618
117.087898 12.19375
117.100731 11.65372
117.110062 10.94481
119.059013 91.502769
119.079559 16.260111
119.095238 491.019897
119.104805 84.353722
119.116142 51.490391
119.124802 31.323099
119.254837 11.62857
121.036476 31.48196
121.073997 141.937302
121.085327 12.43106
121.096207 14.01898
121.11129 275.017792
121.120239 31.947491
121.134621 36.155979
121.146622 14.06118
122.082092 25.73558
122.113831 25.220051
123.054108 179.001495
123.063606 29.03039
123.077347 15.82667
123.090233 619.522827
123.100456 106.542503
123.112 72.486977
123.123535 48.95924
123.128944 10.17288
123.13665 23.43041
123.145874 15.1867
123.156174 12.11789
125.031395 49.48732
125.044624 20.417391
125.070099 100.097702
125.079895 16.786591
125.09211 12.54988
125.105988 290.049713
125.115662 72.48938
125.127892 25.41839
125.137077 12.28821
128.070465 30.96501
129.079346 95.406227
129.091293 22.317011
130.087799 19.084129
131.058594 100.496696
131.068817 19.22381
131.095581 151.340698
131.108505 22.92977
131.118027 14.81372
132.099442 12.71835
133.074707 109.567398
133.084824 37.397011
133.110718 557.206482
133.122421 42.91296
133.133148 65.649551
133.145813 46.851501
133.161118 16.06076
135.054001 76.429993
135.090286 618.751282
135.100006 73.133957
135.10997 33.210579
135.115295 32.93288
135.127213 187.839905
135.137207 52.872028
135.150436 20.79785
135.160873 20.47019
136.09903 21.020519
137.068924 122.044998
137.077438 33.982922
137.106384 257.1185
137.116867 15.8252
137.130035 27.550529
137.144073 29.08478
137.156784 14.05208
139.086014 81.537643
139.121231 49.998901
139.135941 25.71452
141.077805 11.82663
141.100006 12.25216
142.087326 41.30975
143.095673 314.030212
143.106262 68.736511
143.11879 24.46117
143.128494 18.41011
144.104431 32.996281
144.113953 17.56179
145.036087 33.354691
145.074707 36.636108
145.11113 352.256012
145.121017 80.826286
145.133636 35.9398
145.142929 19.723761
145.164536 13.83616
146.083664 23.415621
146.120895 16.897341
147.090805 870.618225
147.101196 139.664505
147.113953 71.374283
147.12709 156.973907
147.143768 27.20472
147.155746 22.028311
147.163208 17.787951
147.173843 10.72549
148.094818 20.71838
148.127197 19.2789
149.069778 87.168587
149.077652 26.817881
149.092377 17.409321
149.106552 291.148712
149.119507 24.498461
149.126236 11.08134
149.142365 112.960197
149.163589 13.18921
149.17775 12.36419
149.366013 17.35956
151.050201 13.0087
151.085724 208.622299
151.09729 25.49575
151.108093 16.35944
151.12265 134.187897
151.148682 14.25844
152.091095 11.09395
153.064209 39.152481
153.079346 46.01561
153.08667 12.94946
153.100647 86.72554
153.110764 21.5425
155.080368 55.721439
155.095703 58.501881
155.105652 15.12895
155.115875 23.007059
156.102036 53.303951
156.111908 15.22167
157.059021 19.330721
157.07225 38.11293
157.110626 250.8414
157.12326 59.221409
157.134354 25.917379
157.143539 11.8611
158.119446 48.215698
159.09053 261.434113
159.099915 47.19241
159.115387 27.99288
159.126831 486.191986
159.137253 88.644173
159.150909 56.171101
159.163147 33.948101
159.182831 15.81573
160.097946 29.32415
160.132263 49.527119
161.068695 26.784241
161.106674 788.142029
161.117752 77.740807
161.130402 92.092651
161.142654 317.118805
161.153503 78.77623
161.165894 31.84284
161.175247 27.30677
161.183716 18.37488
162.109085 11.957
162.146072 33.236149
163.08551 139.449707
163.098572 16.365629
163.109482 10.85474
163.122025 188.774399
163.136948 17.15357
163.147141 18.552719
163.159149 65.504509
163.176392 11.63874
165.06514 12.63111
165.086609 19.56953
165.100693 497.966003
165.112396 52.295799
165.124695 63.873131
165.136337 64.135483
165.146027 21.0254
165.159317 14.36105
165.175491 14.39554
167.080704 33.0229
167.095627 52.112831
167.106827 14.26162
167.118057 61.417389
167.129944 10.01421
167.141953 10.89575
169.074707 28.632561
169.094772 20.287279
169.111755 236.171997
169.12529 37.14159
169.136627 23.60078
169.146515 13.3859
170.118866 46.236889
170.134415 11.18452
170.144424 11.12484
171.090149 237.849792
171.101883 52.688961
171.115677 14.9207
171.126984 501.606995
171.138184 91.381958
171.153793 60.579342
171.166336 30.424761
171.182297 19.55439
171.19426 10.68841
172.135803 122.339203
172.157806 17.122419
173.068756 52.78231
173.081879 15.07917
173.106018 335.048187
173.118484 77.355453
173.129959 10.28179
173.142593 1740.91394
173.154037 225.784302
173.168045 165.771606
173.178329 67.425217
173.187088 22.1754
173.199417 37.125099
173.21788 35.620232
173.232758 11.40637
173.377029 10.53803
173.465958 14.78967
173.552841 10.6412
174.07724 42.66177
174.087799 13.53956
174.115021 65.221367
174.14888 53.244949
174.160828 13.201
175.08638 149.875504
175.095642 26.70117
175.10878 16.81201
175.122879 177.204697
175.138031 36.050751
175.157745 96.391167
175.171585 14.75972
176.093445 28.35972
176.126266 42.360161
176.135834 10.0825
176.149185 17.00112
177.10144 462.245605
177.11293 100.090797
177.126343 26.565229
177.138 276.944489
177.148544 25.027109
177.161377 27.32832
177.175827 22.86141
179.042862 12.34408
179.0802 83.140579
179.09549 58.060459
179.10408 20.98806
179.116928 333.348694
179.128296 30.03702
179.139297 59.341179
179.153717 66.047661
179.175446 17.06554
180.105728 11.50208
181.096375 40.496231
181.110092 27.248211
181.122803 10.32368
181.134003 18.60338
182.118851 53.36274
183.091095 23.02907
183.127838 326.322296
183.138062 23.61338
183.142014 38.21743
183.155853 30.442011
183.1707 17.207701
184.134613 44.25721
185.090668 15.53353
185.106964 148.1539
185.119797 24.187599
185.142609 362.381714
185.155991 22.21769
185.16806 50.172741
185.183807 28.143801
185.199112 11.56299
185.449524 10.91392
186.114166 28.823549
186.151001 17.71633
187.049667 28.968651
187.088181 48.539921
187.12207 253.860794
187.134537 24.754499
187.146973 24.208771
187.160675 212.992203
187.185608 15.90378
187.559387 11.31458
188.093826 20.403219
188.16774 12.33139
189.101364 1526.178955
189.11409 286.52951
189.127075 90.836861
189.138031 404.692413
189.151169 53.475761
189.162735 53.113468
189.174469 46.287941
189.184448 32.86945
189.198975 18.678181
189.218155 16.18503
190.10614 34.121029
190.145966 17.553329
191.080093 38.67696
191.09201 19.668329
191.117065 111.644302
191.127594 23.83107
191.15332 124.959702
191.165039 21.28713
191.187393 15.42774
193.096024 68.196228
193.112274 125.868103
193.13295 90.58667
193.145798 21.33436
193.159607 10.66982
194.118988 78.184387
194.133316 18.307091
194.150192 12.9826
195.094543 30.694151
195.113007 44.56131
195.127686 154.997803
195.13913 23.81208
195.1548 22.09874
195.168488 10.64377
196.098938 32.612591
196.135742 54.185188
196.150253 10.96083
197.094162 10.22228
197.106094 105.678299
197.116196 16.258181
197.126999 17.6425
197.143311 436.526489
197.162949 86.734169
197.183655 28.575211
198.115311 13.52893
198.152283 26.279079
199.087173 78.357094
199.099213 10.38969
199.121582 278.898193
199.13591 61.361488
199.146698 11.66536
199.158432 223.337494
199.171036 41.16703
199.18428 30.12344
199.556229 11.87996
200.127365 27.428459
200.164459 16.30629
201.061401 24.09185
201.071045 12.20278
201.103394 107.667099
201.138565 197.863907
201.152054 23.421841
201.164062 13.47133
201.176086 93.142952
201.200226 14.69806
202.109421 23.590031
202.148514 17.19338
203.082336 34.823681
203.094147 10.60343
203.117828 187.337799
203.135086 44.872379
203.153656 98.284317
203.167297 15.93365
203.183258 13.6251
203.1996 10.468
203.837631 10.24123
205.094864 40.404819
205.112869 17.797991
205.123596 12.11514
205.132507 89.693176
205.148468 23.410721
205.164764 25.088091
207.11264 432.897797
207.126465 156.059906
207.138474 57.814178
207.149658 70.951599
207.16156 15.21951
207.175095 18.92873
207.194763 13.09974
207.220718 11.12127
208.138947 19.769489
209.001221 18.22625
209.067215 15.58904
209.105316 19.661711
209.129959 17.30666
209.143387 377.924988
209.155075 72.226028
209.170151 42.713161
209.186996 21.804079
210.114197 28.367319
210.15123 73.541283
210.163605 17.158569
211.122452 409.527191
211.135849 89.043518
211.158875 639.103027
211.171539 136.706802
211.186646 75.42215
211.198593 33.729561
212.130051 38.352119
212.162979 21.085369
213.101013 70.669937
213.117142 10.92565
213.138428 251.032501
213.152847 53.337872
213.170624 64.947899
213.185425 19.98213
213.200409 14.09009
214.139481 30.09832
215.118011 90.031143
215.130753 15.15974
215.154343 201.729401
215.168747 31.02614
215.190491 42.25322
216.129288 13.94853
217.097488 152.105499
217.112152 52.007149
217.133774 215.3918
217.148849 57.235981
217.16597 51.503239
218.099564 21.509871
218.138504 25.978689
219.112549 19.407249
219.129135 41.354931
219.148819 68.962151
219.162186 10.05917
220.134293 44.614281
220.147171 13.69667
221.14357 68.497383
221.156799 37.650539
222.114456 41.208019
222.148926 52.319401
223.122345 77.403702
223.138641 24.247101
223.159088 170.124603
223.172516 40.232029
223.188293 22.126699
223.201416 11.98759
224.129791 91.814308
224.143875 29.056089
224.168228 53.686798
224.181519 12.13625
225.103256 16.364611
225.123367 50.94104
225.138016 491.615204
225.149673 59.359489
225.174759 319.69931
225.188049 73.747879
225.204636 43.365891
225.222046 18.264811
226.147903 28.511909
227.118591 34.574089
227.154114 420.268799
227.166306 78.589546
227.182526 59.894932
227.195877 20.565981
228.086868 22.46324
228.162003 12.88
229.094559 71.690872
229.109375 19.538071
229.133331 402.868011
229.147217 56.321281
229.168243 193.517303
229.180588 57.681389
229.201904 37.790501
229.217743 15.62939
230.105789 23.60104
230.13446 14.90449
230.143814 29.169559
231.113129 124.202698
231.127182 33.231071
231.149353 135.599594
231.164978 39.129822
231.183853 22.447149
233.126968 37.58942
233.147507 38.648258
233.165466 69.603729
233.18309 26.63205
234.15184 79.634407
234.16629 14.35237
235.108185 39.474129
235.122635 35.57159
235.141876 29.708891
235.157013 105.109497
235.175522 35.70499
235.191727 16.92197
236.128143 20.27544
236.170227 25.8897
237.137726 448.492096
237.151398 51.562431
237.170959 82.081879
237.186203 23.44112
237.205154 13.55569
238.107864 18.652571
238.147263 164.886093
238.165695 13.62125
238.181656 21.3641
239.118698 163.062698
239.134949 40.911861
239.154434 557.486572
239.166748 81.898804
239.190521 380.477112
239.204849 52.773121
239.221588 35.740551
239.239685 18.24519
240.126785 28.31806
240.141327 12.18026
240.158707 40.135551
241.135361 78.310127
241.150452 12.92574
241.169037 108.776703
241.184494 24.395491
241.204361 90.567657
241.220657 25.31563
242.100388 11.13878
242.180313 15.2258
243.077408 12.68167
243.148285 194.341995
243.166519 15.99877
243.184448 268.791107
243.198196 56.442379
243.216797 23.774349
243.235489 15.95627
244.121201 20.481951
244.13681 22.27775
244.160522 26.970131
244.189941 25.0569
245.124939 27.96349
245.164566 24.1425
247.12352 71.094597
247.145203 45.685341
248.111115 16.178711
249.122864 41.640659
249.140198 36.5285
249.159256 38.87598
249.175095 584.436218
249.188293 61.821079
249.204086 74.918228
249.22229 40.55373
249.265228 10.32568
251.154663 107.646599
251.175339 12.22833
251.192017 49.91552
251.206818 24.21657
251.223755 12.46178
251.836502 12.08552
252.162521 92.631302
252.173828 29.4725
252.188751 15.29035
253.134689 81.197113
253.169495 454.017487
253.18367 117.368698
253.201157 49.608959
253.217926 31.027069
253.24144 14.54553
254.173508 11.55333
255.149734 262.8078
255.165329 30.37965
255.183624 44.58252
255.201828 11.48456
256.15744 53.614559
257.128937 84.919197
257.14328 12.82713
257.165222 194.468704
257.181213 63.501431
257.200928 127.530403
257.217133 22.529209
257.238281 17.41753
257.425323 12.30066
257.49234 10.43442
258.139465 34.249359
259.106567 14.80702
259.14389 29.89645
259.15976 59.88855
259.174042 12.04167
259.216034 17.181179
260.11557 18.65753
261.08313 10.16694
261.119507 11.1407
261.136566 32.483841
261.149139 16.965441
262.14682 110.3862
262.176941 13.02994
263.151794 14.9955
265.118866 10.38125
265.141113 11.7194
265.171692 35.60358
266.138428 14.30444
266.170258 15.50357
267.13443 165.816101
267.149139 28.61536
267.185608 1337.656006
267.200775 212.746704
267.217377 122.8013
267.229462 59.307659
267.241333 29.73802
267.258087 24.87674
267.280182 20.92535
268.188538 13.85653
269.130402 14.77285
269.167084 66.939163
269.199921 19.520941
271.143829 56.778919
271.180023 180.8564
271.196106 37.162861
271.209808 22.744261
273.121857 12.11711
273.157928 20.94668
275.139557 29.33308
277.117767 34.441368
277.131012 16.863449
277.168793 281.020905
277.185516 39.811352
277.208099 31.97081
278.173431 11.32665
279.112122 19.496201
279.149902 27.53021
280.158173 53.390171
280.174774 12.46503
280.190247 15.41513
281.164459 22.80418
281.207214 11.67851
283.179993 62.463341
285.157959 15.71361
285.197632 1314.280029
285.226257 129.500702
285.245392 48.978619
285.268494 18.64739
285.294525 19.18865
286.198792 31.11525
287.210388 14.84545
291.135742 16.10043
291.181946 25.926979
295.129456 16.901779
295.179962 826.268921
295.19458 190.264008
295.21283 76.02803
295.228607 29.481779
295.25769 13.58857
295.461792 11.10281
295.500946 11.64186
295.584839 15.37376
295.841003 11.13375
296.180481 16.104179
297.194397 28.417971
299.175079 11.42653
301.157013 35.624599
303.167297 24.420179
303.206207 172.587601
303.220428 62.925629
303.243408 19.48151
304.177887 10.11838
307.164612 19.1374
307.178162 91.038986
307.194672 23.42618
307.212555 13.94409
309.194183 85.641533
309.219025 26.40239
313.161072 14.50714
313.192596 936.131287
313.22052 96.240929
313.242706 43.099602
313.267639 11.74881
313.480621 22.276739
314.194244 44.912708
317.156494 18.85508
317.173187 14.86845
317.188171 10.8875
319.161926 10.62197
319.180878 13.54752
321.183685 11.18651
325.148407 16.231541
325.188629 75.210991
325.211365 11.3888
327.207458 96.620728
327.240784 11.42217
329.187103 18.890369
331.201294 313.173004
331.220306 53.543201
331.234619 20.00824
333.198456 20.72476
335.172302 471.434113
335.189392 118.291397
335.20697 59.094719
335.223877 22.606079
335.244781 13.25018
336.170715 15.53629
337.185822 189.225906
337.201447 30.628811
337.219849 20.70434
338.044403 10.6494
345.217072 346.875092
345.23465 16.303671
345.255615 55.40659
345.283539 21.16378
345.694275 17.875931
349.18811 12.11361
349.21109 11.76447
351.204468 33.533249
351.222778 13.76944
353.183105 214.881393
353.200043 52.87019
353.219849 28.93511
353.40625 10.27778
354.180969 15.52104
355.202332 101.427803
355.218109 30.866831
355.239441 13.45121
357.218719 20.980261
363.227997 157.9935
363.264465 19.299891
367.198395 71.641502
367.226196 23.7397
373.211853 97.139862
373.258606 11.19078
374.21698 19.294451
377.183624 26.2691
381.181458 18.29299
383.228668 123.338799
383.24707 42.042332
383.274811 11.40555
391.221497 56.70504
393.213226 10.81
395.194122 1542.477051
395.22522 231.802597
395.250854 76.493423
395.27533 28.786011
395.30072 16.17495
395.314575 12.23095
395.557922 18.16906
395.661957 13.31618
395.902496 10.00284
396.196503 87.389076
396.216003 17.216829
396.233856 15.27389
396.26297 11.87609
397.208008 226.772598
397.227112 59.72105
397.247711 29.011
409.212372 56.958099
411.228027 86.013496
411.260376 12.63544
413.204041 368.025085
413.220673 60.617962
413.245483 32.44836
413.26886 19.70278
427.219025 244.436005
427.244019 98.236351
427.290222 11.05229
428.220245 24.35446
433.228088 16.92156
437.204468 48.146832
439.199066 11.36128
441.22757 11.37656
453.234344 19.773649
455.194427 32.173149
455.214722 1897.061035
455.241394 331.710785
455.27002 37.563339
455.28537 19.243311
455.313629 39.643471
455.339935 10.5101
455.53479 22.86322
455.679413 12.44474
455.716675 20.627741
455.756348 10.97392
455.953461 16.085859
456.07309 14.49375
456.114594 13.09684
456.219482 29.7593
456.345551 10.5961
457.205414 67.519493
457.229858 97.240578
457.26123 31.163179
457.28244 10.05426
469.227448 48.111629
473.225006 178.467697
473.248505 53.331169
473.275269 16.23428
487.239319 128.403198
487.249786 104.952698
487.28302 27.565941
487.318573 11.23018
488.242706 12.03389
497.225983 16.780951
515.208435 16.762501
515.234802 3576.529053
515.252991 337.954712
515.27655 321.656799
515.295837 21.675301
515.321411 21.9053
515.341003 58.114948
515.367737 38.07169
515.416992 20.48208
515.48175 20.66004
515.512878 14.64248
515.560547 12.83147
515.585876 21.37756
515.605225 23.107719
515.643188 24.67255
515.694336 23.885071
515.740234 22.58909
515.779785 30.110901
515.8172 28.599541
515.842834 14.32871
515.863708 18.811581
515.895508 22.48234
515.941772 18.510599
515.979309 28.60988
516.019409 18.40535
516.062073 11.74736
516.087341 19.204531
516.113464 11.73718
516.152832 13.66955
516.193298 14.42871
516.233521 85.801048
516.251099 48.347061
516.278992 14.09176
516.298279 16.58033
516.539795 14.46402
516.683716 12.80757
516.898621 21.25663
517.233032 156.297302
517.27417 35.820381
532.259583 11.35984
535.240662 13.25194
577.251892 440.712799
577.296387 40.96022
577.32843 13.19823
637.268372 305.269897
637.29425 82.178703
637.321838 34.728519
637.356689 17.3286
638.269531 18.36932
END IONS
