BEGIN IONS
PEPMASS=695.283
CHARGE=1
MSLEVEL=2
SOURCE_INSTRUMENT=LC-ESI-qTof
FILENAME=15b-O-acetoxy-7b_14b-O-dibenzoyloxy-5a-hydroxy-3b-O-propanoyloxymyrsinol.mgf
SEQ=*..*
IONMODE=Positive
ORGANISM=GNPS-LIBRARY
NAME=15-O-acetyl-7,14-O-dibenzoyl-5-hydroxy-3-O-propanoylmyrsinol M+Na
PI=LITAUDON/TOUBOUL
DATACOLLECTOR=Esposito
SMILES=C[C@H]1C[C@@]2(OC(C)=O)[C@]([C@@H](O)[C@@]([C@H](OC(C3=CC=CC=C3)=O)C=C[C@@H]4C(C)=C)(CO5)[C@]4([H])[C@]5(C)[C@@H]2OC(C6=CC=CC=C6)=O)([H])[C@H]1OC(CC)=O
INCHI=
INCHIAUX=
PUBMED=N/A
SUBMITUSER=lfnothias
TAGS=
LIBRARYQUALITY=1
SPECTRUMID=CCMSLIB00000840359
SCANS=1
67.054848 42.875
68.993156 191.648407
69.068909 82.042809
79.052483 162.702606
91.052406 274.876709
91.078789 16.125
95.04715 39.802631
95.511543 26.455641
97.025803 316.648285
104.057861 48.041672
105.032455 500.033295
105.067825 85.96154
105.086342 23.289289
107.084671 667.763306
107.144127 17.01923
107.573715 28.67045
109.105598 39.01786
111.885277 20.694441
112.081848 129.521698
116.060349 174.798401
117.068993 59.153851
119.08522 160.108093
121.329506 24.025
125.019875 212.461502
126.382393 19.04167
129.069656 150.446793
131.085312 1927.312988
131.152527 19.21121
131.537003 18.777781
133.101654 637.062805
133.303207 17.654409
133.413605 30.066669
133.538773 28.165541
135.080582 1206.04895
135.289017 17.674999
135.451584 47.089291
136.080719 38.0
137.095978 152.373093
143.04454 83.181824
143.083832 222.9422
145.100647 94.455643
149.42923 39.336109
155.045349 53.336109
155.084946 55.727268
157.097549 18.005951
157.36763 20.132351
157.940308 17.654409
159.078934 120.6875
159.116409 81.003571
162.096329 72.675667
163.075485 332.440094
167.079437 86.913803
168.177216 14.2
169.059769 46.075001
169.098953 66.75
169.141846 19.225
169.480698 26.0
171.076248 100.845001
171.115982 92.125
173.01918 78.692307
173.030899 41.28017
173.09668 188.432205
175.110565 238.121201
176.115021 156.561096
177.94136 19.375
178.072952 60.111111
183.116135 113.415199
185.057663 185.223999
185.093109 17.10227
186.062317 57.80278
187.074081 676.550415
187.510452 19.26667
188.073532 55.441181
193.101212 522.102722
193.315659 84.942307
193.355988 28.844999
195.11795 124.013901
195.645966 15.0
205.079803 106.2491
206.107025 25.08333
209.119522 447.974609
210.14061 19.90132
215.180405 157.9702
218.249237 69.4944
219.116699 42.723209
220.12561 294.222412
221.128876 294.694489
223.611099 15.04891
225.125244 176.685898
225.163773 105.136398
232.116852 92.122551
232.149918 14.16071
233.131912 126.150002
234.137192 166.563095
235.149323 286.100006
235.233795 23.875
237.159851 30.67045
237.647598 18.005951
237.695923 33.333328
237.759689 21.0
239.181259 99.685188
239.582352 18.036289
243.09581 49.92046
243.813889 23.04167
244.123474 306.122711
247.150543 52.26535
247.858139 57.78125
249.091049 21.6
249.164413 322.505615
250.141357 23.907261
253.124512 120.432899
253.156921 263.099396
253.576859 41.026161
253.991211 31.125
257.108063 30.157049
259.148132 227.290802
260.10199 254.680801
260.155853 30.39674
261.114319 82.375
265.083405 461.111786
265.15799 378.716309
267.175751 380.881805
273.764435 30.53261
274.130951 48.727268
275.453979 74.088768
275.494904 22.164471
275.587158 30.529409
277.15979 185.4375
277.31723 20.00403
283.099762 65.047623
285.180359 116.0
289.156982 1994.331055
289.251831 16.0
289.49115 47.310341
289.660919 47.0
289.759491 85.73391
289.85257 29.80357
290.156433 80.972816
290.998383 37.0
291.252747 35.63636
293.097565 104.088997
293.49588 16.05357
295.168579 382.440094
296.167023 17.160721
304.142059 32.796051
304.611938 23.183821
309.059937 17.654409
311.161713 176.544098
317.097839 22.013889
317.151489 3677.177979
317.227203 36.390629
317.549988 19.005951
317.698853 18.05921
318.153076 298.141388
318.20282 27.240391
318.289703 19.339279
318.585876 20.625
326.671417 32.69397
339.120544 314.012512
339.185394 21.0
339.497681 37.2663
351.18866 35.242649
369.17511 28.326611
391.188324 3279.763916
391.268616 30.008329
391.304352 16.008329
391.330688 37.440479
391.511353 28.28017
391.553131 40.612499
391.583313 79.670464
391.674622 21.125
391.712402 19.008329
391.877014 33.0625
392.150208 41.30867
392.190002 277.446198
392.51535 31.089279
393.467499 35.041672
394.890839 15.4
405.977539 33.0947
406.777313 27.055559
410.175476 81.103813
439.186646 451.794708
439.947784 22.28125
439.976013 47.516129
451.208557 21.875
452.295563 35.041672
481.331787 138.176498
485.2341 24.245689
494.906921 17.04167
498.186218 95.333344
508.914429 61.247952
510.492035 24.85227
512.152527 37.654072
513.225159 13984.919922
513.324524 176.611801
513.398071 50.681599
513.483887 88.612808
513.572632 23.240391
513.621277 27.480261
513.651672 62.5984
513.725159 124.573402
513.745605 72.111107
513.870361 16.013889
513.922058 24.5
513.973816 54.55172
514.026672 47.48214
514.069092 16.04167
514.111938 55.0625
514.187866 46.63636
514.228699 915.267883
514.408142 81.404549
514.527527 69.453697
514.611023 33.200001
515.067871 23.66667
516.20166 22.02083
516.271912 19.0947
516.883484 14.375
517.039368 19.69231
517.428345 21.33333
519.146301 17.111111
524.703918 48.129028
552.280945 19.00338
565.543823 31.760139
570.16748 40.39674
570.356873 46.760422
570.603455 26.015631
572.005859 20.04167
573.12854 81.007584
573.246338 12140.570312
573.373474 66.25
573.442322 29.17308
573.488159 31.27273
573.528809 49.003571
573.567322 97.072578
573.658508 28.01786
573.691833 54.002659
573.724304 30.35
573.767639 58.441181
573.799194 40.125
573.887878 96.284477
574.017578 98.296303
574.066162 45.083328
574.12677 48.400002
574.251099 671.520203
574.367065 53.07692
574.784912 14.05
574.918335 14.69444
574.959595 14.00595
575.084778 29.3689
575.36853 28.149389
575.401978 48.247952
575.578186 21.08654
575.619507 35.065788
576.199463 84.173782
600.22699 32.894741
635.260986 350.42041
641.442932 31.85227
689.565369 17.148809
695.28894 96.25
696.279785 21.013889
END IONS
