BEGIN IONS
PEPMASS=430.161
CHARGE=1
MSLEVEL=2
SOURCE_INSTRUMENT=LC-ESI-qTof
FILENAME=f.natprod/Mobley Cell Supernatant/Mobley Cell Supernatant/35.mzXML;
SEQ=*..*
IONMODE=Positive
ORGANISM=GNPS-LIBRARY
NAME=Dereplicator+ Identification - Serratiochelin M+H
PI=Ashootosh Tripathi/ UMich NPDC
DATACOLLECTOR=
SMILES=C[C@H]1OC(=N[C@@H]1C(=O)NCCCNC(=O)C1=C(O)C(O)=CC=C1)C1=C(O)C(O)=CC=C1
INCHI=
INCHIAUX=
PUBMED=
SUBMITUSER=natprod
TAGS=
LIBRARYQUALITY=3
SPECTRUMID=CCMSLIB00005436028
SCANS=300674
101.070557 405.007965
101.107033 410.501648
101.162788 5.0
101.466812 7.625
101.479897 24.066668
109.025925 79.580261
110.068779 8.008333
115.087318 69.023811
116.070282 126.161713
136.0392 166.619843
137.022797 2234.848633
137.064926 15.086538
137.084778 8.025
137.14595 15.291667
137.402603 43.402779
137.523178 8.086538
137.596115 10.011364
139.074127 112.570755
140.118301 118.144051
140.323761 9.075
141.102463 409.226562
141.320038 5.160714
158.129517 321.342651
158.96611 29.027439
166.048889 100.20192
174.21492 17.200001
174.799057 7.017857
179.260208 27.273649
184.106079 27.003788
192.064514 519.696167
192.126465 10.375
194.048782 52.347221
194.081116 1928.342651
194.1306 16.408333
194.155579 14.225
194.177307 13.680555
194.271301 16.005953
195.073074 27.976351
210.076431 31.023935
211.108765 806.048828
211.167831 11.321428
211.181244 11.125
211.276794 19.1875
211.593796 47.889706
220.062195 209.307968
220.103516 11.041667
226.885101 45.635563
232.107086 175.710754
232.536697 11.920455
233.08989 487.195801
233.283524 26.782408
233.314804 26.541666
237.122589 356.570343
237.285004 24.125
237.893082 7.0625
238.106598 25.0
238.77449 15.266304
249.087448 214.102402
249.194763 39.674999
250.115784 308.233124
250.699005 5.025
259.105957 190.580612
266.353882 18.005953
276.13501 751.446228
276.43689 13.008333
277.119324 1086.340332
277.185303 17.004999
277.617554 15.225
294.146362 1012.881836
294.197144 14.007353
294.268372 11.035714
295.1297 30.002907
295.635193 5.0625
384.795258 8.160714
429.771637 26.125
430.159851 67.256409
553.983887 16.9
592.863708 23.432142
END IONS
