BEGIN IONS
PEPMASS=1463.8
CHARGE=1
MSLEVEL=2
SOURCE_INSTRUMENT=LC-ESI-Orbitrap
FILENAME=f.daniel/Andrea_Bsub/170905_Andrea_Bsub_2/Bsub_II_2-2_MSMS_GNPS_input.mgf;
SEQ=*..*
IONMODE=Positive
ORGANISM=GNPS-LIBRARY
NAME=Plipastatin M+H
PI=Pieter Dorrestein
DATACOLLECTOR=Daniel Petras
SMILES=CCCCCCCCCCCCCC(CC(=O)NC(CCC(=O)O)C(=O)NC(CCCN)C(=O)NC1CC2=CC=C(C=C2)OC(=O)C(NC(=O)C(NC(=O)C(NC(=O)C3CCCN3C(=O)C(NC(=O)C(NC(=O)C(NC1=O)C(C)O)CCC(=O)O)C)CCC(=O)N)CC4=CC=C(C=C4)O)C(C)CC)O
INCHI=
INCHIAUX=
PUBMED=
SUBMITUSER=daniel
TAGS=
LIBRARYQUALITY=3
SPECTRUMID=CCMSLIB00004679204
SCANS=2381
84.044594 759993.625
86.096596 851272.9375
86.101463 53919.511719
91.054398 46605.996094
94.502571 29846.494141
96.080742 271910.875
97.076279 64329.105469
100.075439 24590.5
101.071098 414123.90625
102.055077 567672.5
112.783936 27734.707031
115.086739 2189741.5
119.048859 32636.048828
124.076218 30536.695312
126.09166 59293.875
129.06604 105401.640625
130.050079 39735.660156
135.091553 29320.355469
136.075806 1008099.625
140.071426 30300.482422
141.102066 262130.796875
146.368561 26410.566406
153.065933 28019.958984
153.102417 114806.320312
154.086105 53190.183594
169.097244 64390.46875
172.172791 28031.244141
173.093094 34158.957031
181.097549 118721.210938
188.107681 100966.6875
190.777267 25718.830078
192.101379 93362.703125
198.123856 352020.375
201.087402 53480.839844
202.085663 108143.210938
203.102753 63523.105469
208.108551 103447.65625
209.092972 55027.257812
213.088364 58547.148438
219.112411 40127.710938
224.139389 41694.171875
226.119019 1357352.375
227.103653 40074.332031
230.081329 36997.601562
231.097641 157690.078125
233.129425 48157.507812
237.123138 39129.316406
237.221588 43297.78125
241.082428 35101.027344
243.113113 177383.0
246.123993 56362.09375
247.10788 334763.40625
249.16008 385853.75
252.136032 32459.730469
253.575928 32047.328125
254.247635 180693.625
260.139435 51067.863281
264.133911 137343.703125
274.11792 32941.75
278.149872 36371.34375
292.130188 45838.835938
297.156342 55924.277344
298.155823 30917.101562
326.149384 112263.632812
341.317871 28098.027344
344.160919 129008.0625
376.14917 35734.28125
389.182281 163038.296875
523.253174 33441.484375
620.311157 103579.296875
661.41748 35662.847656
801.674683 31235.185547
966.449219 41096.585938
1463.795044 193593.9375
END IONS
