BEGIN IONS
PEPMASS=683.283
CHARGE=1
MSLEVEL=2
SOURCE_INSTRUMENT=LC-ESI-qTof
FILENAME=3b_7b-O-diacetoxy-5a-14b-O-dibenzoyloxy-15b-hydroxy-17_13-oxypremyrsinol.mgf
SEQ=*..*
IONMODE=Positive
ORGANISM=GNPS-LIBRARY
NAME=3,7-O-diacetyl-5,14-O-dibenzoyl-13,17-oxypremyrsinol M+Na
PI=LITAUDON/TOUBOUL
DATACOLLECTOR=Esposito
SMILES=CC1(C)[C@@]2([H])[C@]1([H])C[C@@H](OC(C)=O)[C@@]3(CO4)[C@H](OC(C5=CC=CC=C5)=O)[C@@]6([H])[C@@H](OC(C)=O)[C@@H](C)C[C@]6(O)[C@@H](OC(C7=CC=CC=C7)=O)[C@@]4(C)[C@@]32[H]
INCHI=
INCHIAUX=
PUBMED=N/A
SUBMITUSER=lfnothias
TAGS=
LIBRARYQUALITY=1
SPECTRUMID=CCMSLIB00000840352
SCANS=1
52.08342 35.360291
57.033791 128.446793
57.068996 200.841293
57.595524 16.56818
62.485432 24.65761
67.206978 18.53289
69.032524 105.010696
69.28302 19.125
71.048508 87.125
79.055946 64.198769
81.069374 140.010101
81.571289 23.01923
83.010086 280.906403
83.048912 58.206631
85.064972 121.132202
91.054596 127.0
91.429642 22.36364
93.069061 440.013397
93.308235 30.84091
95.047348 192.620804
95.085777 367.964111
98.0271 28.08013
105.033554 1046.109009
105.068916 115.222397
105.092949 29.13587
107.085518 413.706696
107.746216 42.694229
109.06472 1851.488037
109.099182 122.198502
109.181503 20.18561
112.087631 113.8228
117.068298 34.047619
117.185059 16.0
118.068565 38.938831
119.083809 121.006897
119.103813 20.375
121.064209 93.043114
121.100754 192.9422
121.131966 17.14286
123.313118 34.20454
125.059357 114.098297
125.783928 16.72024
129.068344 432.141205
131.084747 67.289467
133.062241 242.293396
133.100693 376.146698
133.997482 15.79605
135.079391 816.474976
135.147736 23.347219
135.771515 19.285721
137.094254 90.666656
139.075485 105.041702
141.185394 22.11574
143.084763 483.629791
143.144699 20.680559
143.940582 20.01136
144.090546 34.326611
145.026093 890.826294
145.063095 81.280739
145.100464 808.673523
145.510071 25.04167
146.107574 83.097557
147.081665 168.987595
147.11409 156.568298
149.096848 119.0
151.071228 27.191179
151.113571 20.04167
153.06604 34.810001
153.090652 149.313599
153.104218 114.613602
154.413757 73.140823
155.086014 319.903198
155.61261 22.160721
156.760849 31.049999
157.066895 60.763889
157.101761 149.001205
157.157516 23.405001
157.502472 21.00543
157.668671 46.92593
158.06929 73.227272
158.106186 112.148804
159.0811 126.666702
159.118423 475.457092
159.251495 36.125
159.495361 19.595591
160.213104 41.654072
160.563644 19.81818
161.096237 860.136414
163.073364 185.2397
163.111221 147.031693
163.147125 18.225
163.382828 16.004629
163.592896 32.23214
164.114929 102.810699
165.069656 116.654503
166.161484 19.1875
167.084412 221.793503
168.089203 110.524101
169.101593 375.240295
169.43277 30.11842
170.073929 109.128998
170.106247 68.125
171.082672 23.48077
171.117294 517.5
171.350372 46.941181
171.474487 20.521549
173.097092 90.061867
173.13414 310.133301
173.173615 22.56818
175.112152 217.293701
175.858902 22.005951
177.088959 74.48214
177.127029 67.889076
178.077789 85.0
179.087738 368.602112
179.164917 20.560181
180.103088 87.247643
181.101746 440.25
182.107452 92.063049
182.541687 15.875
183.115845 187.889694
185.094452 97.811317
185.13327 304.720001
185.366592 20.225
187.111984 500.200012
189.086823 99.360046
189.127457 2175.711914
189.203766 27.225
189.449661 18.375
190.075439 104.175003
190.129211 36.408329
190.644287 29.761909
191.399963 30.680559
191.713791 23.805
192.106995 72.367416
192.770691 40.337959
193.100662 250.403107
195.116531 807.362305
195.173416 26.084459
195.280991 36.59211
195.431488 30.765631
195.802765 24.08333
196.790833 42.157051
197.098801 132.089996
197.132172 682.077515
197.480133 29.219589
199.110107 185.764008
199.145889 46.3125
201.127045 311.920898
203.06485 35.111359
203.106201 454.231812
203.187851 17.78125
204.089417 176.680298
204.3862 17.066179
205.121506 126.134399
205.721771 23.0
206.083527 76.160263
207.116455 875.778381
207.573151 49.757809
207.599289 22.674999
209.095123 143.368195
209.132828 1567.697998
209.553085 26.760139
209.69046 32.485291
209.719223 61.038792
210.106583 81.5
210.137772 176.189407
211.004654 28.66667
211.110153 200.693893
211.148651 266.006989
211.857559 34.223679
213.12735 592.932312
213.511261 17.0
213.628235 36.297619
213.712219 28.25
215.065552 81.048912
215.616699 52.002911
217.103928 85.92308
219.115707 434.469391
219.615814 28.009609
219.843094 45.160091
220.121246 129.298798
221.132812 334.450287
222.101105 44.625
222.14772 18.125
223.110458 295.104706
223.149429 334.460114
224.117645 100.390198
224.156555 62.347221
225.127792 1406.574951
225.221909 41.065788
225.242584 21.013889
225.320587 20.004311
225.508682 26.54167
226.128937 234.255203
227.143936 454.940094
227.175812 94.185608
227.231384 16.00403
228.181946 67.5
229.120422 96.429764
229.671921 24.148809
230.099228 60.605
231.115341 49.640148
232.121674 113.681
233.130585 226.719101
235.109955 83.391296
235.150391 193.375
235.659973 31.012501
236.120712 74.864288
236.44101 54.654411
236.777878 19.21121
237.127701 1551.546021
237.163071 686.880005
237.324432 54.322369
237.368546 39.245689
237.394241 49.285381
237.447754 18.0
237.528198 26.644739
238.172607 45.3125
238.553772 41.333328
238.827347 29.29167
239.143127 130.802795
239.180511 782.149719
239.389252 38.080132
240.180542 73.111107
240.309326 21.066669
241.123535 274.327209
241.15918 655.000977
241.192001 156.729706
241.479034 47.901321
242.028015 84.001289
242.161896 88.130432
242.182999 40.6875
247.130096 168.8535
248.66745 19.140631
249.130798 132.322006
249.163818 2552.666992
249.250336 21.111839
249.480759 44.172871
249.617783 36.778851
249.749435 45.210529
251.179962 1646.641968
251.24353 64.333344
251.293335 30.55603
251.525269 17.1875
251.596237 22.23077
251.691635 22.05921
251.729156 23.55769
251.827545 22.08013
252.002808 34.480259
252.242004 48.612289
252.312225 16.25
252.529282 35.57095
253.192047 193.883408
253.592392 30.003571
254.1698 127.279999
255.135651 443.850311
255.174957 543.265198
255.402542 19.75
255.591492 27.21121
255.992386 51.632809
256.315369 32.190479
259.171661 117.017303
261.163757 872.377686
261.233398 16.44643
262.159546 30.0
264.15271 35.529411
265.160645 124.1138
265.265442 27.04167
265.932709 27.36742
267.137695 136.579895
267.174591 1882.182007
268.174561 95.93399
269.143494 82.306824
269.190063 1197.870972
269.390137 18.005951
269.434235 50.408779
269.530396 33.137932
269.628357 44.46154
269.879059 47.470589
270.191528 164.421799
271.142334 209.360107
272.40506 34.48214
277.118896 102.421097
279.175171 3928.545898
279.272675 45.44643
279.346466 21.55682
279.371735 37.157051
279.424072 38.375
279.529144 44.656818
279.62793 22.96983
279.97702 18.15
280.176544 344.041687
280.985443 30.11574
285.183655 27.02083
289.157288 250.432007
289.195099 22.08333
290.046936 19.01136
297.185089 3423.685059
297.28653 19.14286
297.3591 53.460232
297.484833 22.01136
297.731506 33.603569
297.939728 17.778851
298.006378 17.57143
298.185822 347.048492
298.31131 60.209911
298.53653 21.174999
298.813324 25.1875
298.933502 18.007351
301.158081 513.841187
302.160248 137.768997
307.130737 50.064522
309.184052 599.079224
309.485718 35.003571
309.775116 30.005951
309.819885 34.224998
310.07489 23.27273
311.997833 51.29657
315.196228 576.124329
315.301147 20.28125
316.553589 33.92308
319.169586 1174.45105
320.169617 79.938828
320.53894 40.002361
321.178741 69.818176
326.195679 36.244999
327.198151 172.782394
331.188965 27.785721
331.924896 53.228779
337.175018 242.180099
339.196472 1004.10199
339.497467 16.20455
340.124664 24.471149
340.201294 92.666656
340.755524 18.605
349.176178 644.587891
349.542023 26.125
357.207306 487.920288
357.733765 17.778851
359.195221 38.0
361.175201 124.002701
363.11026 98.0
369.214874 16.125
369.461395 17.52083
371.200287 81.666656
375.209778 142.226898
375.752502 40.926281
377.181 33.440479
377.312775 84.896049
377.701385 17.36364
378.310333 16.0
379.188141 5334.211914
379.30188 66.521744
379.448669 66.049606
379.489258 63.070309
379.604401 16.164471
379.63443 44.32415
379.755341 70.284882
379.963776 16.17308
380.009644 33.53289
380.196472 195.012894
380.243164 19.08333
380.641998 21.183821
380.914185 28.11574
380.968445 29.066669
382.207733 18.027781
385.325531 17.04167
394.93042 20.01786
397.198395 272.102112
399.213745 60.645
399.344238 22.6
401.211334 139.334595
405.293488 85.556252
417.225128 174.0271
419.219696 124.222198
421.196106 499.773499
421.542389 47.189388
422.178772 15.625
423.194946 51.0625
432.19101 32.185612
436.797516 18.100809
439.209839 6387.914062
439.377777 46.98349
439.399811 55.680561
439.470978 25.0
439.522125 47.125
439.585663 34.025002
439.621613 34.111839
439.770447 36.46944
439.835999 31.21121
440.002075 38.349998
440.148682 65.387817
440.207733 119.209297
440.341492 32.240379
440.600555 41.75
440.668304 27.047621
441.056427 60.674999
441.202271 909.690125
441.582001 17.52083
442.205841 170.084702
442.635712 25.066669
459.197937 28.01667
470.803131 22.008329
480.116852 52.0
483.202484 17.066179
497.281952 58.837688
501.22525 3564.25
501.371826 18.796049
501.636017 43.034088
501.838593 61.021221
501.86969 52.077591
501.935028 65.401917
501.986603 39.047619
502.089417 23.55769
502.233643 85.266129
502.274719 30.521549
502.378052 50.662239
502.408051 23.0
502.618378 29.00338
503.266174 22.015631
504.203491 23.02273
504.724701 44.020828
519.236694 354.841614
521.145508 41.083328
543.233765 138.6866
543.278442 31.33333
543.30304 17.148809
552.738953 32.23214
558.874512 23.0
559.24231 25.33333
559.989624 56.41
560.867676 21.17308
560.982544 16.0
561.2453 15440.240234
561.435181 35.907261
561.559692 33.695648
561.601379 73.278412
561.639832 47.408329
561.685791 82.130379
561.792114 69.470589
561.824646 64.395157
561.874939 51.355389
561.960388 42.205002
562.014709 52.82045
562.060669 69.680557
562.12677 38.444439
562.203125 21.13587
562.244995 632.877686
562.333862 68.78125
562.434814 81.440224
562.717957 29.69397
563.05011 16.5625
563.070374 20.28125
563.112915 22.111839
563.174561 22.008329
563.219421 16.240391
563.575195 56.47406
563.649475 53.10746
564.204468 19.844999
564.290405 43.845001
564.846802 22.68145
565.268311 19.075001
566.320007 38.026161
623.262695 463.78241
623.420227 23.09091
623.746216 26.5
623.90686 38.00544
624.072327 17.107759
665.268738 100.681801
679.746643 17.01923
680.04541 29.2663
682.432068 196.914307
683.282043 3935.205078
683.450256 92.556824
683.494507 96.07692
683.608337 19.34914
683.685669 22.125
683.822571 24.0
684.000671 24.14286
684.095154 41.88929
684.136169 58.0303
684.209167 45.14286
684.284424 161.765793
684.329285 107.654701
684.835632 48.285709
685.294006 38.799999
685.547974 46.06649
687.55365 21.164471
763.687622 27.30682
778.42865 18.125
END IONS
