BEGIN IONS
PEPMASS=610.362
CHARGE=1
MSLEVEL=2
SOURCE_INSTRUMENT=LC-ESI-qToF
FILENAME=P1_C6_conc_GA6_01_2412.mzXML
SEQ=*..*
IONMODE=Positive
ORGANISM=GNPS-LIBRARY
NAME=Apicidin C_120251 M+H
PI=Cichewicz
DATACOLLECTOR=Luzzatto
SMILES=O=C(N[C@@H](CCCCCC(CC)=O)C(N[C@@H](CC1=CN(OC)C2=C1C=CC=C2)C3=O)=O)[C@@H]4N(CCCC4)C([C@H](C(C)C)N3)=O
INCHI=N/A
INCHIAUX=N/A
PUBMED=N/A
SUBMITUSER=tal_lk
TAGS=
LIBRARYQUALITY=2
SPECTRUMID=CCMSLIB00000478092
SCANS=1664
99.0914 284.0
102.747749 272.0
112.075958 13944.0
113.078415 912.0
115.05294 536.0
117.056381 3608.0
118.060959 472.0
124.110962 264.0
127.084137 768.0
128.049698 936.0
128.094559 776.0
129.057266 348.0
129.105835 620.0
130.065323 11212.0
131.064362 2240.0
132.077271 576.0
133.078598 288.0
138.127472 1588.0
139.085022 872.0
139.111252 1348.0
140.070541 16504.0
141.074234 1800.0
142.06192 776.0
143.072083 720.0
144.041367 280.0
144.075897 356.0
145.052063 3220.0
146.057892 1024.0
150.105118 432.0
156.0905 472.0
156.137497 19648.0
157.075714 6960.0
157.140915 2352.0
158.083252 11212.0
158.150238 444.0
159.090454 6332.0
160.075195 24700.0
161.079819 2444.0
162.082367 380.0
162.123123 416.0
165.137787 396.0
166.123718 328.0
167.08049 1380.0
167.152802 420.0
168.079391 412.0
168.108337 548.0
168.136948 872.0
169.072006 360.0
169.133636 412.0
170.059631 9756.0
171.064896 1124.0
172.064575 384.0
173.092361 292.0
178.085648 2236.0
179.08786 812.0
180.107956 356.0
181.135147 836.0
182.079987 420.0
183.093109 348.0
183.148926 5720.0
184.131821 1784.0
184.151627 1556.0
185.071396 1604.0
185.107788 2496.0
186.076813 668.0
186.108734 500.0
187.123581 456.0
188.093231 252.0
189.104431 656.0
193.109924 1436.0
193.13121 1152.0
194.116989 2100.0
194.152222 804.0
195.091721 576.0
195.116913 504.0
195.139572 636.0
197.069916 400.0
197.123489 844.0
197.167892 876.0
198.080048 360.0
198.102112 460.0
199.12825 576.0
200.069351 392.0
201.1595 2484.0
202.096481 556.0
209.100952 308.0
209.12793 900.0
210.134949 1188.0
211.144135 43844.0
212.145981 5568.0
213.138382 1852.0
214.141296 664.0
218.080856 332.0
222.180939 548.0
223.122803 812.0
223.165634 1776.0
224.127258 720.0
224.169678 532.0
225.066086 936.0
225.135254 1020.0
226.139679 320.0
228.148361 628.0
235.141541 508.0
235.176208 348.0
237.120132 996.0
237.155304 388.0
238.138443 828.0
239.116257 572.0
239.144211 424.0
240.146606 2004.0
241.095657 600.0
241.135605 636.0
242.138107 388.0
243.150452 776.0
249.202087 612.0
250.129562 408.0
250.151672 584.0
251.152435 860.0
251.210052 928.0
253.156128 1360.0
254.154068 284.0
256.143921 9612.0
257.14679 2128.0
258.15683 584.0
262.197968 340.0
263.178436 376.0
264.200714 412.0
265.147247 320.0
265.187347 1076.0
266.146484 1204.0
266.192078 532.0
267.112823 2092.0
267.156281 1544.0
267.206024 17912.0
268.118134 1504.0
268.21106 5568.0
269.126282 3788.0
269.215179 992.0
270.129639 968.0
277.134827 372.0
280.183075 496.0
280.213867 1696.0
283.142792 356.0
284.139801 7704.0
285.141815 1212.0
292.200409 640.0
293.156555 588.0
293.185394 324.0
294.193848 1476.0
295.143036 556.0
295.200806 14408.0
296.203979 2624.0
297.19693 1464.0
298.15976 276.0
298.198303 676.0
303.173218 272.0
304.204102 440.0
305.164581 820.0
306.161652 520.0
306.216644 300.0
307.17804 1292.0
308.206146 428.0
309.192139 696.0
310.204559 908.0
311.219147 276.0
312.225128 4012.0
313.229584 1184.0
316.169159 304.0
317.149902 620.0
318.211761 292.0
319.207062 308.0
320.189667 432.0
322.189087 456.0
323.190674 636.0
324.132324 292.0
324.203308 1388.0
325.187836 712.0
326.196594 824.0
327.196167 816.0
333.164093 816.0
334.197479 424.0
335.196075 616.0
336.204163 540.0
339.216461 1672.0
340.208221 1332.0
341.167084 396.0
341.209167 2484.0
342.21579 2264.0
343.220612 416.0
349.216461 336.0
350.185883 680.0
351.169464 720.0
351.213165 3004.0
352.217712 1280.0
353.176544 312.0
353.220642 404.0
354.192047 708.0
355.201782 280.0
363.236115 612.0
364.224609 1680.0
365.225555 540.0
367.209625 1324.0
368.202576 692.0
369.201447 780.0
370.21759 564.0
371.209381 348.0
372.225952 1896.0
373.226044 700.0
376.256775 836.0
377.262238 696.0
378.253418 372.0
379.188354 804.0
380.194275 772.0
381.204254 288.0
382.208954 616.0
383.22403 512.0
387.241272 616.0
390.274353 348.0
393.283142 1028.0
394.215424 364.0
394.270355 1988.0
395.206818 4268.0
395.269379 760.0
396.211517 1176.0
396.276337 324.0
397.221466 500.0
398.21283 420.0
400.221619 3828.0
401.22641 1240.0
402.23938 520.0
405.284668 440.0
406.288605 564.0
407.227692 984.0
407.298004 388.0
408.229553 480.0
409.259766 288.0
410.210541 380.0
422.283844 788.0
423.286865 512.0
425.259705 492.0
426.265961 324.0
427.231903 4704.0
428.237305 1372.0
433.254456 388.0
434.268829 380.0
435.26828 532.0
436.281067 300.0
437.264709 268.0
449.242554 364.0
449.277191 716.0
450.282471 17840.0
450.363312 360.0
451.284149 5568.0
452.286438 1384.0
453.261078 12044.0
454.263794 3400.0
455.26416 628.0
456.273834 276.0
460.26828 484.0
462.228149 380.0
463.290985 2392.0
464.297028 1024.0
465.296234 252.0
467.266693 432.0
468.273407 1328.0
469.274109 788.0
471.294464 256.0
479.266113 1292.0
480.270325 2552.0
481.276978 3516.0
482.280762 684.0
483.287903 308.0
492.306976 284.0
493.278961 592.0
495.259399 564.0
496.268188 1692.0
497.276428 1260.0
498.276123 576.0
499.290131 6644.0
500.294037 2480.0
506.287811 368.0
508.267975 3292.0
508.341309 328.0
509.269958 1556.0
511.29068 9352.0
512.289673 3420.0
513.293518 760.0
518.322693 468.0
534.346558 392.0
535.341797 296.0
536.336243 2168.0
537.337402 464.0
550.33905 2388.0
551.343933 4744.0
552.346069 2332.0
553.355225 732.0
561.329346 320.0
562.313477 292.0
563.32428 380.0
578.333374 15836.0
579.339661 25248.0
580.344116 14212.0
581.346619 2444.0
582.364258 6412.0
583.364258 2092.0
584.375977 1004.0
592.349731 804.0
593.341553 408.0
607.339661 304.0
609.325928 448.0
609.520508 368.0
610.276611 528.0
610.361023 138984.0
610.814758 440.0
611.035217 436.0
611.168335 616.0
611.362793 51860.0
611.611023 272.0
611.828125 312.0
611.919739 268.0
612.364258 11536.0
613.364319 956.0
END IONS
