BEGIN IONS
PEPMASS=1015.7
CHARGE=1
MSLEVEL=2
SOURCE_INSTRUMENT=LC-ESI-Ion Trap
FILENAME=f.vertmarie/CUM13APR19-2/CUM13APR19-2_H4_20.mzXML;
SEQ=*..*
IONMODE=Positive
ORGANISM=GNPS-LIBRARY
NAME=Loggerpeptin A M+Na
PI=Caro-Diaz, Eduardo
DATACOLLECTOR=Marie and Wildelis
SMILES=OC1=CC=C(CC(C(N[C@H](C(O[C@@H]([C@@H]2NC([C@H]([C@H](C)O)NC(C(CCC)=O)=O)=O)C)=O)C(C)C)=O)N(C([C@@H]([N@@]3[C@H](O)CCC(NC([C@H](CC(C)C)NC2=O)=O)C3=O)CC4=CC=CC=C4)=O)C)C=C1
INCHI=
INCHIAUX=
PUBMED=
SUBMITUSER=vertmarie
TAGS=
LIBRARYQUALITY=3
SPECTRUMID=CCMSLIB00005436091
SCANS=256
303.919067 15723.0
348.039734 23492.0
433.144348 3519.0
442.254333 16362.0
460.217224 5270.0
461.434998 12539.0
479.625122 23251.0
530.14917 23610.0
546.326416 16863.0
546.961182 4.0
559.202881 69610.0
573.35083 59985.0
574.433594 34832.0
591.294434 78893.0
592.050293 1.0
617.624756 7218.0
633.22998 5408.0
638.263916 63537.0
651.475098 13059.0
655.996826 10518.0
672.342773 24626.0
675.644531 24840.0
677.144897 67261.0
677.937012 9189.0
690.364258 219736.0
691.197021 13.0
693.161621 20940.0
695.356445 6793.0
703.355225 47157.0
716.478638 24774.0
721.41748 330628.0
722.418579 4367.0
725.259033 11418.0
727.3396 15114.0
734.742554 9766.0
737.688721 5621.0
738.821655 51722.0
739.440918 102653.0
745.531616 11851.0
748.37207 21147.0
755.332642 45401.0
764.419922 3289.0
766.516846 51012.0
769.094727 15984.0
773.483276 229325.0
774.29187 6.0
774.988525 20276.0
792.244629 23450.0
792.963989 1.0
810.324585 126395.0
811.077637 11.0
812.367065 5385.0
828.593994 36023.0
830.412964 17844.0
836.102417 9106.0
837.104126 28740.0
837.870117 21833.0
838.613525 20373.0
840.49939 31141.0
854.360107 824691.0
855.197632 22.0
856.605347 118632.0
865.973267 3426.0
866.616455 9924.0
870.344238 11638.0
871.562866 27739.0
872.452026 85016.0
874.348633 41916.0
879.939331 82398.0
880.541992 285010.0
883.444336 2891.0
884.434326 56313.0
897.802979 134969.0
898.488037 4161466.0
899.275269 4.0
909.779663 4446.0
915.731934 45637.0
916.438965 321473.0
917.156494 9.0
927.455933 491868.0
928.314697 4.0
929.916382 7834.0
935.323608 8959.0
953.474609 754103.0
969.591797 28010.0
970.834839 28934.0
971.572144 6919795.0
972.352051 25.0
979.516357 187630.0
980.193481 13.0
987.422485 159752.0
996.806152 42422.0
997.463257 4247594.0
998.202026 1.0
1015.486084 886250.0
END IONS
