BEGIN IONS
PEPMASS=803.397
CHARGE=0
MSLEVEL=2
SOURCE_INSTRUMENT=LC-ESI-qTof
FILENAME=f.mice/SC_-Fe_Anionenaustauscher_Masterarbeit/140121_Probe_12.mzXML;
SEQ=*..*
IONMODE=Positive
ORGANISM=GNPS-LIBRARY
NAME=Tunicamycin I M+H
PI=Bandow
DATACOLLECTOR=Senges
SMILES=CC(C)CCCCCCCC=CC(=O)NC1C(C(C(OC1OC2C(C(C(C(O2)CO)O)O)NC(=O)C)CC(C3C(C(C(O3)N4C=CC(=O)NC4=O)O)O)O)O)O
INCHI=1S/C36H58N4O16/c1-17(2)11-9-7-5-4-6-8-10-12-22(44)38-25-29(49)26(46)20(53-35(25)56-34-24(37-18(3)42)28(48)27(47)21(16-41)54-34)15-19(43)32-30(50)31(51)33(55-32)40-14-13-23(45)39-36(40)52/h10,12-14,17,19-21,24-35,41,43,46-51H,4-9,11,15-16H2,1-3H3,(H,37,42)(H,38,44)(H,39,45,52)/b12-10+/t19-,20-,21-,24-,25-,26+,27-,28-,29-,30+,31-,32-,33-,34-,35+/m1/s1
INCHIAUX=
PUBMED=
SUBMITUSER=mice
TAGS=
LIBRARYQUALITY=3
SPECTRUMID=CCMSLIB00003739967
SCANS=3147
77.040802 6.0
84.605392 12.0
96.050903 13.0
120.089005 25.0
126.050316 9.0
126.065018 26.0
138.062256 261.0
143.579254 8.0
144.071411 30.0
144.170975 9.0
168.066818 124.0
168.843079 30.0
169.070053 49.0
172.315369 11.0
186.081314 136.0
187.083115 27.0
204.088669 443.0
204.113632 39.0
205.087769 18.0
257.108398 37.0
278.202271 42.0
280.222931 44.0
310.132385 11.0
352.09436 281.0
352.422119 20.0
353.094452 115.0
353.11908 23.0
354.120605 19.0
354.128815 19.0
354.959076 10.0
370.228973 6.0
374.212769 15.0
386.970306 11.0
387.846741 7.0
418.226837 27.0
425.255554 8.0
425.264557 8.0
430.176086 7.0
434.223877 37.0
436.227478 12.0
439.150116 15.0
455.221924 8.0
470.246826 14.0
472.25592 18.0
472.274902 20.0
473.271576 17.0
512.16095 6.0
512.170837 6.0
530.259583 13.0
534.429626 9.0
535.681763 12.0
542.381348 28.0
546.241455 101.0
548.253357 169.0
549.194092 22.0
549.235046 13.0
549.255493 20.0
550.26886 11.0
552.637024 10.0
566.245972 21.0
568.866821 8.0
572.819946 8.0
578.098022 8.0
581.798706 8.0
582.198914 36.0
582.262146 769.0
583.210571 34.0
583.252686 228.0
583.273804 261.0
584.275879 2594.0
584.339172 49.0
584.381409 18.0
584.444763 13.0
584.603027 23.0
584.930298 17.0
585.162598 14.0
585.268188 834.0
585.331604 7.0
586.282593 188.0
586.441101 11.0
588.038574 11.0
594.003113 7.0
599.409729 8.0
600.265137 198.0
600.436218 11.0
600.500427 7.0
601.260254 99.0
602.202576 11.0
602.234741 22.0
602.277588 315.0
602.427612 9.0
603.274353 116.0
603.628235 16.0
604.239807 9.0
604.261292 13.0
604.293457 43.0
621.585999 32.0
624.702759 88.0
626.253113 9.0
628.199219 17.0
631.244751 9.0
641.077515 13.0
643.179321 16.0
644.264832 15.0
648.649231 22.0
648.760437 14.0
650.94165 16.0
654.54425 9.0
662.453308 8.0
668.275085 10.0
677.243103 22.0
678.004456 32.0
685.859253 17.0
685.962097 17.0
689.522644 17.0
690.428589 8.0
696.682922 11.0
698.977844 16.0
700.571533 60.0
702.271179 27.0
703.231689 62.0
703.602234 47.0
707.126953 27.0
710.497498 18.0
715.743591 27.0
722.099609 24.0
723.237976 24.0
725.164673 42.0
725.282288 12.0
728.471924 35.0
731.526855 13.0
740.575623 16.0
741.312439 24.0
741.669006 18.0
742.192261 38.0
743.036926 23.0
753.713623 17.0
755.524536 11.0
756.340698 42.0
760.693176 10.0
761.042419 13.0
764.925293 44.0
765.299622 15.0
769.859436 26.0
770.247131 12.0
774.238464 16.0
780.665527 10.0
784.390259 17.0
785.295288 36.0
785.760254 37.0
786.311035 25.0
786.739563 32.0
787.302917 96.0
787.327454 58.0
788.283203 14.0
788.344482 25.0
789.325378 10.0
792.370117 54.0
797.182251 38.0
800.674377 39.0
801.378662 16.0
802.256348 43.0
802.342834 14.0
802.379944 22.0
803.196411 32.0
803.24585 10.0
803.270569 23.0
803.332458 165.0
803.381958 11.0
803.592346 182.0
803.815125 20.0
804.025574 54.0
804.186462 44.0
804.211182 20.0
804.297913 16.0
804.322632 34.0
804.359802 24.0
804.817993 84.0
805.065674 13.0
805.090454 29.0
805.239136 51.0
805.338257 399.0
805.387817 16.0
805.424988 40.0
805.784302 66.0
805.821472 61.0
806.143738 56.0
806.180908 40.0
806.2677 43.0
806.342041 116.0
806.441223 46.0
806.540405 13.0
806.875183 67.0
807.036377 19.0
807.321655 22.0
807.358887 108.0
807.420898 18.0
809.233032 7.0
828.232422 15.0
835.283081 33.0
836.469543 17.0
867.05957 14.0
978.389709 14.0
978.485291 7.0
989.838867 14.0
995.464417 20.0
1016.538818 38.0
1106.453491 14.0
1125.441162 27.0
1137.585571 10.0
1148.921997 14.0
1242.174072 11.0
1257.49939 25.0
1431.713135 6.0
1431.729614 6.0
1511.855225 11.0
END IONS
