BEGIN IONS
PEPMASS=898.62
CHARGE=1
MSLEVEL=2
SOURCE_INSTRUMENT=LC-ESI-qTof
FILENAME=f.MSV000079140/ccms_peak/Light/A1B2 light EtOAC/A1B2-LE-A10.mzXML;
SEQ=*..*
IONMODE=Positive
ORGANISM=GNPS-LIBRARY
NAME=Dereplicator Identification - E'Surugamide_B' M+H
PI=Pieter Dorrestein
DATACOLLECTOR=Liangyu Chen
SMILES=CC[C@H](C)[C@@H]1NC(=O)[C@@H](C)NC(=O)[C@@H](NC(=O)[C@@H](CC(C)C)NC(=O)[C@@H](CC2=CC=CC=C2)NC(=O)C(NC(=O)[C@@H](CCCCN)NC(=O)[C@H](NC1=O)C(C)C)[C@@H](C)CC)[C@@H](C)CC
INCHI=
INCHIAUX=
PUBMED=
SUBMITUSER=chenliangyu
TAGS=
LIBRARYQUALITY=3
SPECTRUMID=CCMSLIB00000839197
SCANS=701
185.137772 1260.0
197.171204 404.0
199.186356 608.0
213.16188 548.0
219.149567 980.0
227.181656 1240.0
228.172516 984.0
231.153137 556.0
233.168655 1540.0
242.189743 1704.0
243.198853 484.0
247.148544 2324.0
252.178406 428.0
253.197006 1516.0
261.16568 8972.0
262.168549 2016.0
270.193176 488.0
284.20401 2400.0
285.205933 804.0
298.215637 6956.0
299.222137 1388.0
301.231506 800.0
315.213928 928.0
318.186615 396.0
323.247528 484.0
326.24527 684.0
327.206268 884.0
329.229156 1588.0
332.20166 3184.0
333.20755 536.0
341.24884 1664.0
351.248901 572.0
352.261963 864.0
353.264709 376.0
355.275757 788.0
360.231262 3744.0
361.247253 800.0
366.277466 744.0
369.281799 1060.0
374.247131 8100.0
375.249542 1808.0
381.28537 512.0
383.297333 1228.0
384.300842 844.0
386.240936 392.0
389.254791 596.0
397.283905 2636.0
398.291504 460.0
400.262268 1312.0
401.264038 536.0
403.259949 592.0
411.299957 1984.0
412.295715 1964.0
417.274414 1300.0
418.28537 620.0
423.321533 376.0
426.312653 624.0
428.290405 816.0
431.270691 2196.0
432.273956 552.0
436.328613 744.0
440.293854 448.0
442.311737 640.0
443.302704 588.0
445.287994 5712.0
446.289948 2304.0
447.287354 376.0
454.337616 1092.0
455.336639 480.0
459.337433 776.0
460.327515 828.0
465.345215 432.0
469.31369 332.0
473.31955 960.0
474.333618 632.0
480.354523 460.0
482.339294 340.0
485.327362 408.0
487.33252 1812.0
488.32666 1696.0
489.32959 680.0
497.382294 688.0
499.326752 1080.0
500.326477 476.0
502.339294 1248.0
503.347412 364.0
507.372955 1928.0
508.375183 428.0
510.367767 996.0
513.348022 1000.0
514.342285 528.0
516.350342 948.0
525.378845 3060.0
526.375793 856.0
527.391785 360.0
530.352173 1024.0
531.363586 860.0
539.389465 484.0
541.375916 484.0
544.352051 1988.0
545.360657 904.0
556.378479 428.0
558.3703 1728.0
559.365601 1148.0
567.406616 348.0
573.40155 868.0
584.39093 372.0
586.392151 384.0
587.421631 564.0
588.436768 448.0
593.444214 460.0
594.45636 344.0
601.405762 1676.0
602.403748 564.0
612.409241 460.0
613.418335 452.0
615.428955 1216.0
616.427307 716.0
620.44873 544.0
621.453064 480.0
627.431763 480.0
629.432556 820.0
638.46698 1264.0
639.466492 468.0
644.452881 668.0
657.437378 1740.0
658.44635 888.0
659.46167 444.0
669.468384 424.0
671.448853 924.0
672.442139 2808.0
673.454041 876.0
686.464844 2448.0
687.466064 840.0
714.490417 1376.0
715.489441 564.0
725.509094 380.0
740.513 356.0
741.524353 364.0
742.525757 804.0
751.54303 500.0
757.538208 476.0
770.526855 2948.0
771.524597 1496.0
772.534241 356.0
785.536316 2256.0
786.539429 1376.0
787.549377 376.0
799.550842 552.0
800.550537 380.0
813.521179 740.0
827.561707 488.0
870.62085 2248.0
871.619812 1048.0
880.611694 1040.0
881.609863 680.0
898.620117 103924.0
899.623291 63828.0
900.624451 14532.0
901.627197 2816.0
902.620789 476.0
END IONS
