BEGIN IONS
PEPMASS=629.115
CHARGE=-1
MSLEVEL=2
SOURCE_INSTRUMENT=LC-ESI-Orbitrap
FILENAME=f.csimon1/NewData_SPE_Std_ESIneg_20180918/STD_9_6opCoum12DiGallGlu.mzXML;
SEQ=*..*
IONMODE=Negative
ORGANISM=GNPS-LIBRARY
NAME=6-O-p-Coumaroyl-1,2-digalloylglucose M-H
PI=Gerd Gleixner
DATACOLLECTOR=Carsten Simon
SMILES=OC1C(COC(=O)\C=C\C2=CC=C(O)C=C2)OC(OC(=O)C2=CC(O)=C(O)C(O)=C2)C(OC(=O)C2=CC(O)=C(O)C(O)=C2)C1O
INCHI=InChI=1S/C29H26O16/c30-15-4-1-12(2-5-15)3-6-21(35)42-11-20-24(38)25(39)26(44-27(40)13-7-16(31)22(36)17(32)8-13)29(43-20)45-28(41)14-9-18(33)23(37)19(34)10-14/h1-10,20,24-26,29-34,36-39H,11H2/b6-3+
INCHIAUX=
PUBMED=
SUBMITUSER=csimon1
TAGS=
LIBRARYQUALITY=3
SPECTRUMID=CCMSLIB00004684249
SCANS=1230
79.017426 3400.873535
83.01207 2680.475098
85.028069 5208.849609
89.236015 2521.140381
95.01239 7432.603516
97.027985 4398.354492
101.022804 9835.352539
107.012482 6764.459961
109.393303 2511.307617
111.007454 6429.835449
113.02314 11926.013672
117.033302 7360.837891
119.04895 32046.359375
123.007454 37638.34375
123.043785 4198.681641
124.015694 6544.677246
125.02317 211073.625
127.003525 3115.037109
136.985657 3176.503174
137.022873 3543.485107
139.00235 19130.607422
139.038849 3368.844238
140.010223 10386.787109
141.018677 7646.116699
141.789047 3386.628906
143.033966 6214.996094
144.60582 2695.998779
145.028366 159955.375
145.767395 3097.89624
149.023041 5724.305664
151.002594 59549.035156
153.018097 8580.638672
159.044495 11540.195312
161.058914 3222.869385
163.038986 89201.25
165.054443 2937.123047
166.026199 2890.010498
166.997574 27189.388672
167.034058 11805.389648
168.0056 71821.945312
169.013321 966595.1875
179.034073 16999.34375
181.012909 6749.314941
187.039307 73379.695312
191.034088 8915.911133
193.013672 36275.890625
195.02951 4722.572266
205.014145 5073.895996
205.050354 7134.754395
207.029083 9095.537109
211.024338 235794.203125
217.050323 4794.808594
221.046112 4397.019043
223.024124 19834.011719
229.05043 3662.479004
235.024536 8962.253906
237.039948 7810.883789
241.035599 22838.101562
253.035324 21175.810547
267.051392 6584.705566
271.046265 306518.5625
277.035736 2826.284424
280.635071 2709.437012
295.046143 144332.21875
297.062408 21913.414062
307.083344 21578.431641
311.725952 3031.220215
313.056885 715098.5
330.990326 3059.835449
331.068665 5404.000488
417.08313 10363.433594
423.056946 9638.669922
447.057495 8295.033203
459.093933 436292.0625
465.06781 788746.5625
477.104126 71918.96875
483.078339 8302.151367
629.115723 604877.9375
END IONS
