BEGIN IONS
PEPMASS=3355.6
CHARGE=4
MSLEVEL=2
SOURCE_INSTRUMENT=DI-ESI-Q-Exactive
FILENAME=Nisin_838.9_MS2.mzXML
SEQ=*..*
IONMODE=Positive
ORGANISM=GNPS-LIBRARY
NAME=Nisin M+H
PI=Roncada
DATACOLLECTOR=Alloggio/Herschend
SMILES=CC[C@H](C)[C@H]1C(=O)NC(=C)C(=O)N[C@H](C(=O)N[C@@H](CSC[C@H](C(=O)N1)NC(=O)/C(=C/C)/NC(=O)[C@H]([C@@H](C)CC)N)C(=O)N[C@@H]2[C@@H](SC[C@H](NC(=O)CNC(=O)[C@@H]3CCCN3C2=O)C(=O)N[C@@H](CCCCN)C(=O)N[C@@H]4[C@@H](SC[C@H](NC(=O)CNC(=O)[C@@H](NC(=O)[C@@H](NC(=O)[C@@H](NC(=O)CNC4=O)C)CC(C)C)CCSC)C(=O)N[C@@H](CC(=O)N)C(=O)N[C@@H](CCSC)C(=O)N[C@@H](CCCCN)C(=O)N[C@@H]5[C@@H](SC[C@H]6C(=O)N[C@H](C(=O)N[C@@H](CS[C@H]([C@@H](CNC(=O)[C@@H](NC5=O)C)C(=O)N6)C)C(=O)N[C@@H](CO)C(=O)N[C@@H]([C@@H](C)CC)C(=O)N[C@@H](Cc7c[nH]cn7)C(=O)N[C@@H](C(C)C)C(=O)NC(=C)C(=O)N[C@@H](CCCCN)C(=O)O)Cc8cnc[nH]8)C)C)C)CC(C)C
INCHI=N/A
INCHIAUX=N/A
PUBMED=N/A
SUBMITUSER=ialloggio
TAGS=
LIBRARYQUALITY=3
SPECTRUMID=CCMSLIB00000539136
SCANS=158
137.107254 2921.850586
138.065811 2500.355713
138.091202 2280.001953
139.12294 2173.84668
141.10199 2327.952148
143.788284 1579.144409
147.112625 103316.796875
148.115967 2262.478271
148.313004 1566.684204
153.065674 29515.453125
153.099197 3931.897949
153.102081 69909.289062
154.097427 2679.720459
154.105209 1886.240723
154.133728 1940.434204
155.081207 4764.668457
155.117706 127792.015625
156.101913 2045.169189
156.121201 5632.1875
158.901672 1536.266846
158.963898 114844.546875
164.117966 6347.13623
165.333237 1754.23645
169.130615 1886.886841
169.133347 25775.751953
170.12851 15512.509766
170.467331 1784.611694
171.112579 1751.267456
172.078827 2071.797607
172.10759 2732.830322
172.144302 5878.525879
172.880081 3262.913086
172.903412 2380.751953
179.081039 1645.09729
180.101547 2242.20874
180.113022 4993.418945
181.060547 13044.880859
181.096954 33203.042969
181.133301 11118.37793
183.058472 3015.877197
183.112686 23503.009766
184.072433 2059.103271
186.692276 1889.751221
189.105484 5237.02832
195.147964 2095.469238
197.128296 445258.03125
198.123535 136903.953125
198.131042 25462.742188
199.107529 557329.0625
200.111008 30262.996094
201.792419 1783.446167
205.133438 3540.01416
206.128677 1880.554565
209.139481 46851.859375
209.764725 2552.564453
209.82756 2679.740479
210.142395 2330.92334
210.277496 1975.857544
211.053528 3622.776123
211.185501 1683.344604
213.105164 3710.611816
214.154663 2486.730713
214.689835 1931.476685
216.134048 1063315.0
216.922379 4449.28125
217.118042 3438.716309
217.131699 6314.73291
217.137253 61953.546875
220.14415 6168.103027
220.933884 2738.571777
221.128159 5552.441895
222.159851 41364.066406
223.180161 15264.014648
224.102402 2417.795166
225.04274 2183.710205
226.951126 609508.0
227.954529 13884.989258
231.730316 1800.574219
234.123413 2473.209717
235.107361 4080.214355
237.134262 97515.65625
238.137802 3544.402588
238.154617 14352.467773
238.412582 2547.835938
239.094711 3677.594727
239.138733 40390.066406
240.142014 3014.529785
240.966995 2376.144775
241.091492 2906.511963
241.100403 2902.57251
242.925461 2147.543213
245.112442 1971.869629
248.138947 59107.484375
249.123032 16810.521484
249.142227 4468.905273
251.149643 4329.359375
251.175018 10262.24707
251.6828 2380.038574
252.133926 4511.506836
252.170746 2019.672974
254.160873 13700.129883
255.115707 3400.950439
258.090302 5245.758301
259.027863 1792.121826
265.128998 11417.06543
265.19101 3199.873535
266.149536 946830.25
266.889435 2018.990601
267.146484 2675.753418
267.152802 74357.28125
268.201324 2924.419434
273.179504 5845.367188
286.121674 13580.09082
288.144958 29202.423828
288.921265 2504.018555
290.149078 3438.907715
294.14447 10104.768555
294.938477 119794.867188
295.102661 3251.283936
295.147644 2045.00293
296.196564 16149.75
297.191559 3850.907715
299.061737 2644.661865
300.137207 38129.191406
301.140869 2474.585205
302.524963 1993.390625
304.260315 3629.292725
306.155762 29265.419922
310.121674 14386.34375
313.132111 3182.632568
315.202271 180476.765625
316.205566 18729.443359
318.144348 33502.039062
319.147552 6094.701172
320.196991 2338.979248
321.154633 2108.559814
324.13797 9393.384766
324.166595 4026.906494
334.212189 21926.203125
335.171082 10447.585938
337.35907 2236.162842
338.181702 17735.935547
350.217804 10506.412109
351.238342 10665.804688
352.132324 5077.399414
355.070404 3412.850586
355.369812 2516.987549
356.909607 2681.773682
357.066223 3373.437012
358.066528 3213.436035
361.223114 17088.457031
362.206848 28482.980469
362.226685 2405.058838
362.925812 695771.5
365.165344 2347.407227
369.1586 10599.365234
379.057312 2770.57373
379.233398 91628.085938
380.237122 6290.263184
386.18512 11319.867188
393.15918 3204.616943
396.188782 2861.010742
409.154205 14128.829102
411.742126 2411.119141
414.16449 3524.334473
417.223969 3297.444336
423.206055 3555.988281
430.91333 1281360.875
431.917084 2735.066406
434.251068 10728.807617
437.115234 2735.673828
437.186646 3885.29126
437.250427 12802.762695
439.32785 4535.380371
448.254761 5810.882324
450.510803 2329.137451
452.261078 161199.515625
453.264465 12018.288086
454.249115 2756.787598
457.338043 3027.460938
465.216187 4218.475098
482.242889 6035.001953
498.841187 9797.258789
498.900665 340630.90625
499.09848 4493.223145
499.15625 21370.871094
506.241791 3455.260254
509.279419 3248.619629
520.890198 3008.337402
523.736877 3981.831543
524.238525 2673.216553
531.260193 4306.628418
535.919678 11926.380859
549.339172 2642.399902
551.263367 18435.392578
556.41095 2895.446533
565.345215 37462.859375
566.828247 4088.004883
566.888 198209.0
567.144409 2967.062744
573.115356 3096.012451
573.270447 3286.729736
573.772644 3001.865967
575.268982 3972.566895
581.220459 4130.679199
589.75592 2949.976074
598.247742 5174.04541
601.458374 3171.683838
608.281189 2958.808594
608.304016 3560.770508
616.787476 3595.376953
617.274475 11719.211914
617.630981 3406.442383
626.241943 5177.736328
634.300659 21278.820312
634.367371 3611.929199
634.815247 3693.803223
634.875305 59105.570312
635.131409 3241.357178
638.79187 3366.220459
643.468994 3818.40918
645.029663 3160.68457
645.552979 3070.95459
646.278076 16144.097656
646.780579 9910.452148
649.098694 2787.905029
649.300781 6035.800293
649.498779 3585.364014
652.377197 66530.359375
653.380676 12992.143555
662.473938 10890.041016
666.037659 3512.909424
669.290588 3284.962891
669.787109 3229.670898
671.828064 3818.305664
671.915955 5048.507324
675.946472 3952.651367
680.833679 81475.6875
681.334961 44570.746094
681.834045 4907.245117
685.92157 3711.972168
690.548767 3682.021729
695.810242 19984.628906
697.632507 3362.842285
698.058838 3534.508545
701.062744 3885.644043
702.862366 31249.244141
703.209595 259188.3125
704.662598 3067.897949
704.810547 15594.063477
705.060364 21331.802734
705.310242 25500.775391
705.569519 4392.223633
705.810913 3119.376953
706.31543 3057.793457
706.820618 3787.067139
707.820679 3603.2854
708.051086 3993.297119
710.562439 4361.865723
711.313354 4357.587402
711.814575 6128.78418
712.319641 4004.07251
712.489136 5776.34375
713.293701 3622.145752
713.658569 3751.5896
713.989197 4915.727539
714.314514 3874.090088
716.319946 11734.332031
718.56665 4895.416016
718.828308 4605.359375
719.326538 3075.550537
719.813232 5367.029785
720.070129 4380.121582
720.326843 3339.439697
720.815857 4810.463867
721.815674 4233.098633
722.617249 3332.907959
723.078552 10703.582031
725.077026 11694.226562
725.323486 4701.047852
726.076965 3445.349854
727.964966 2949.382324
728.822388 2866.093018
729.078308 6152.294434
729.335754 7135.301758
729.582825 4902.624512
729.956848 4020.526855
730.321533 5670.658203
730.358276 2784.910645
731.362427 3415.226562
731.582031 5141.019043
732.073608 12604.474609
732.323547 13754.043945
732.573669 16362.375977
733.076904 4622.86377
733.331177 5525.532227
733.581787 17169.181641
735.080566 3217.381348
735.333069 9888.055664
736.078918 13355.105469
736.331848 5866.71875
736.580322 2849.240723
736.830688 3964.934326
737.079163 4081.410156
737.330322 3626.514404
737.582214 3353.868652
738.314148 3759.300049
739.076782 18785.126953
739.3255 13148.15625
739.833801 15365.214844
740.077942 20275.255859
740.331482 23953.298828
740.584167 29909.210938
740.658997 3080.375
740.838074 13728.304688
741.002441 51559.699219
741.337219 38400.84375
741.672119 22419.041016
742.332092 4261.220215
744.33606 99516.976562
744.586548 161655.125
744.837097 114130.710938
745.08728 11134.076172
745.339233 4003.623291
745.584106 4280.97168
745.836609 10134.662109
746.079712 5849.909668
746.35675 33707.550781
746.582886 12622.268555
746.855103 22821.677734
747.383972 35286.703125
747.824158 3230.137451
748.388672 4737.831543
749.086304 4781.572266
749.338562 18264.878906
749.845398 3680.950195
750.091553 12650.717773
750.33844 40036.0
750.586975 32785.304688
750.663818 3271.650635
750.836792 42888.355469
751.083679 11987.921875
751.297913 5125.554199
751.626404 3193.793213
752.336304 5038.689941
752.581543 4352.535156
752.661194 3176.508789
752.83667 14994.017578
753.080139 4293.793945
753.346497 25777.445312
753.59729 31800.101562
753.844421 20851.367188
754.345398 3780.618652
754.592957 60022.625
754.843201 81128.109375
755.094177 60249.84375
755.341675 16813.859375
755.584778 5602.302734
755.666504 3868.695312
755.999817 4682.649902
756.094788 4536.875977
756.842346 23332.994141
757.090271 40823.132812
757.33783 48863.984375
757.584045 29629.277344
757.837341 24251.589844
758.83075 3952.75415
759.585815 5849.560547
760.096802 10807.984375
760.343689 55557.238281
760.595642 55047.242188
760.844482 47216.238281
761.096436 14572.839844
761.351318 26451.597656
761.595093 48742.457031
761.842407 31277.611328
762.090881 10816.347656
762.346497 2992.100586
762.600464 4406.307129
762.848694 4940.257812
763.599976 9134.816406
763.84436 3778.444092
764.664673 20599.296875
764.996948 12688.939453
765.094666 13037.457031
765.331604 5200.666504
765.657898 12511.694336
765.996399 5001.973145
767.089111 5869.754883
767.350342 4679.958984
767.602417 4806.424805
767.836304 4293.735352
768.099243 12435.501953
768.353882 20955.503906
768.600037 12223.203125
768.84906 4226.654785
769.838074 11952.033203
770.089722 22515.402344
770.339417 5422.574219
770.849243 32326.867188
771.098267 15074.582031
771.346924 32885.320312
771.599548 18710.224609
771.851562 3613.372803
772.095032 18510.001953
772.349548 4057.645264
772.607422 63011.660156
772.857483 108160.757812
773.106995 45790.320312
773.351624 4473.574707
773.65863 4715.209473
774.097778 30524.080078
774.350403 30351.900391
774.599121 29314.447266
774.85083 5753.570312
774.990417 10358.026367
775.353516 5432.478516
775.658936 4949.615723
776.108093 4821.587891
777.334961 4514.381836
778.107971 13547.459961
778.30957 4509.38623
778.343567 20797.923828
778.608398 97665.0625
778.858093 118879.71875
779.107544 79391.34375
779.361694 13209.552734
780.846558 12978.258789
781.094055 4328.950195
781.353577 13412.206055
781.595886 4934.584473
781.850891 4386.637695
782.109253 4257.421875
782.349426 22976.693359
782.603455 36394.933594
782.862488 64162.445312
783.11438 49244.335938
783.366455 45425.769531
783.613892 6097.709961
783.699951 16022.425781
784.032227 19845.75
784.356079 10591.360352
784.85199 10745.401367
785.109558 29160.953125
785.365234 57309.683594
785.607361 84232.554688
785.858093 64437.367188
786.107361 52331.40625
786.361023 11548.55957
786.615601 15418.384766
788.104736 4366.222168
788.357239 11057.813477
789.371765 46899.253906
789.617493 68078.164062
789.866089 202963.375
790.113403 267532.40625
790.362732 154529.109375
790.614502 39488.464844
790.858582 12860.749023
791.112183 4077.822021
791.362061 9810.746094
791.61969 3705.400146
791.855774 4014.169922
792.614258 10108.177734
793.363647 3293.067383
793.617371 19235.751953
793.865723 11476.819336
794.336853 4159.106934
794.862549 28076.369141
795.113464 19886.546875
795.363342 45281.59375
795.619507 42315.96875
795.869324 17062.392578
797.687988 14149.077148
797.861145 9694.710938
798.023254 19187.199219
798.112549 17627.933594
798.358276 12269.758789
798.614197 5397.479004
798.660217 5803.294434
798.864258 5553.851562
799.126221 4792.560547
799.366882 83188.75
799.617615 137832.953125
799.869263 107350.15625
800.118225 37119.832031
800.372009 4540.427734
801.862244 81127.273438
802.114563 70694.929688
802.364502 110380.539062
802.615234 63701.773438
802.866699 76393.984375
803.116638 14277.198242
803.375305 101994.445312
803.624207 39093.96875
803.695557 13778.677734
803.874695 100004.335938
803.998047 18772.068359
804.126648 25792.8125
804.335449 14469.791992
804.375061 26396.761719
804.66925 4827.764648
806.118591 52334.578125
806.365601 501890.28125
806.616028 727459.0
806.866028 457607.40625
807.117004 119124.34375
807.617676 13334.602539
807.8703 5329.214355
808.341309 3816.946289
808.866638 3304.488525
809.111816 7879.727539
809.145691 7941.647949
810.621826 327490.40625
810.872498 645043.125
811.12262 461392.625
811.373962 71588.789062
811.620728 27169.675781
811.872803 27945.097656
812.122253 15878.733398
812.871155 5273.506836
813.119446 12841.258789
813.367676 12105.744141
813.618835 23806.626953
813.866272 10364.485352
815.371399 14611.603516
815.62677 20805.929688
816.126709 4292.733887
816.619995 11672.455078
816.704529 4984.250488
817.619507 64877.925781
817.870178 110338.210938
818.12207 101729.960938
818.371582 16621.007812
819.368652 12665.65625
819.822205 3581.799805
820.015503 3478.884766
820.325378 4745.809082
820.694336 15788.321289
820.890442 12717.864258
821.021973 5413.87793
821.138 3842.338379
821.443359 11956.320312
821.671021 4373.068848
823.136536 16122.290039
823.383423 17720.210938
823.634399 44745.585938
823.884766 19389.796875
824.169617 29180.029297
824.615784 3509.54126
825.122375 6062.378906
826.386108 4103.812012
826.633972 5588.647461
826.693176 17564.832031
827.021851 4353.5
827.139099 10466.480469
827.392456 5654.859375
827.638489 50018.535156
827.890137 110953.710938
828.139771 102111.304688
828.394775 43682.808594
828.641785 5504.469238
828.833862 9960.046875
828.884827 4739.513184
830.135193 27625.603516
830.385132 35967.28125
830.637024 24635.722656
830.708557 4086.799561
830.862976 4118.893555
831.135742 25012.482422
831.629028 5028.724609
831.839539 4217.657227
831.892029 49189.597656
832.144409 110984.695312
832.360962 11983.605469
832.394958 63391.90625
832.642334 5438.976074
832.699951 15113.678711
834.134216 9357.045898
834.389771 177188.171875
834.639832 433486.25
834.888794 412973.96875
835.137024 230005.09375
835.343201 11359.078125
835.386536 48724.710938
835.632874 23649.494141
835.69165 3990.682373
836.024353 5672.616211
836.693054 3500.974365
838.195801 1312419.375
838.388123 9646.855469
838.595032 5625.951172
838.636719 35041.808594
838.892883 1943950.75
839.14447 3257194.75
839.194214 7469644.0
839.393311 2613611.5
839.642883 314025.53125
840.193909 3812.597168
841.689453 4902.208008
842.026733 5990.602051
842.360901 4759.036133
843.641418 3452.148926
846.03363 3784.472412
847.365356 5729.589844
848.360535 3477.189697
848.703369 19402.298828
849.036743 13056.488281
850.024597 15704.958984
850.368225 5782.585938
854.039307 19001.607422
854.382202 5306.99707
854.708252 4470.62793
855.042175 5606.47168
856.039307 4934.476562
858.029541 3316.085205
858.369324 3836.29834
858.698364 14314.524414
859.026184 5255.793945
859.362061 5543.915039
860.03479 17094.902344
863.391479 15871.661133
863.697571 6086.773926
863.717773 5478.055176
864.062134 8862.071289
864.377686 6021.045898
864.704773 17876.466797
865.041199 5463.155273
865.369263 5489.678223
867.371155 4077.523926
867.704956 18103.068359
868.041565 17689.867188
868.381409 5236.161133
869.394226 160279.6875
869.729065 191392.234375
870.062744 144426.734375
870.395264 14814.792969
871.046692 4967.15625
871.703247 8091.865234
872.373291 24999.507812
872.707214 12754.041992
873.039124 4411.559082
873.381226 16555.755859
874.41095 5368.273438
875.391174 5579.789551
876.366638 5675.415527
876.724609 11089.217773
877.039124 5364.714355
877.251099 5307.503906
877.387634 4750.140625
877.707153 16998.951172
878.051514 25229.470703
878.382812 60544.023438
878.71698 18423.458984
880.378113 9687.683594
881.038208 10710.109375
881.371399 17242.462891
881.705627 11782.93457
882.039062 12415.460938
882.368408 10458.954102
882.408875 21691.863281
882.735596 16404.337891
883.048096 16692.527344
883.381409 24693.853516
883.713989 8794.894531
885.041443 4101.05127
885.377441 4360.348633
885.930725 5397.179199
886.05542 5195.970215
886.379211 9691.087891
886.704285 19863.601562
887.034668 31011.958984
887.381104 101563.992188
887.714905 104594.445312
888.047791 85468.46875
888.388733 16994.298828
891.073547 4659.763184
891.390564 15700.712891
891.73407 52724.675781
892.067017 64058.289062
892.396912 43628.378906
892.712158 27887.455078
893.048889 32328.355469
893.400024 5605.817383
894.065796 5629.13916
895.38678 15619.393555
895.712097 27521.464844
896.045532 20874.921875
896.38385 6090.907715
896.703186 5051.794922
897.072449 54596.144531
897.409546 40024.253906
897.741211 26638.138672
901.061768 42273.074219
901.398132 59437.871094
901.73053 23800.916016
901.948914 4358.391113
902.049011 13195.051758
902.387939 13259.083984
903.396179 5291.692871
903.732117 14021.884766
905.399902 19452.710938
905.733032 21825.958984
906.39209 5675.724121
906.725586 4824.657715
906.825439 4604.299316
907.071899 10814.355469
907.398193 4103.431152
908.389282 5320.896973
909.068665 5701.374512
909.406555 19842.345703
910.065979 5593.839844
910.394775 13198.890625
910.734192 4851.93457
911.070435 28022.181641
911.406067 55675.785156
911.741516 31244.59375
912.080627 4988.068848
914.068176 5550.054688
914.397156 5356.469727
914.731995 46276.832031
915.068604 51579.597656
915.40271 28926.289062
915.737793 28638.53125
916.0755 15190.760742
916.394531 4161.716309
918.203125 4720.979004
918.399231 9378.438477
918.449463 5499.383789
918.738098 5769.5625
919.063293 5973.410156
920.40332 138586.6875
920.739014 204828.953125
921.073364 141587.28125
921.408081 53243.4375
921.746155 9133.772461
922.204834 5518.863281
922.405396 5159.318848
922.457336 16652.40625
922.731934 4816.101562
922.96051 15443.753906
923.064026 15215.724609
923.398682 14629.041016
924.072021 52840.492188
924.405212 101221.234375
924.73999 54980.046875
925.077454 33501.464844
925.410278 33601.515625
925.744385 24249.453125
926.075989 47788.472656
926.411255 62154.339844
926.747009 35299.214844
928.39978 13362.742188
928.736938 21962.697266
929.069031 28609.916016
930.074707 125198.789062
930.409363 151399.578125
930.742676 78326.476562
931.404907 27069.535156
931.742676 41066.535156
932.074585 15677.726562
932.397522 16030.895508
932.729614 13790.170898
933.071167 11502.901367
933.409302 48303.558594
933.738831 16133.832031
934.074219 25899.244141
934.411926 25856.623047
934.741577 17820.677734
937.080994 4955.038574
937.739075 5495.185547
938.067993 42120.246094
938.401672 33519.96875
938.753662 33476.09375
939.08606 39081.535156
939.412964 77497.632812
939.743347 65109.878906
940.077209 54962.058594
940.405701 11164.911133
940.909119 4442.764648
941.405579 4001.392334
942.066589 6158.057129
942.407166 16407.421875
942.74884 20936.5
943.079956 17565.648438
943.411316 62173.917969
943.742981 64218.828125
944.079895 39178.136719
944.406921 9709.15625
945.07843 4538.102539
945.741333 13196.032227
946.083984 4149.519043
946.225159 6054.841309
946.471619 14834.580078
946.75293 5788.864746
947.093262 4505.103516
947.397888 25658.917969
947.727539 19793.234375
948.081848 77931.398438
948.416199 96313.546875
948.751892 72571.484375
949.075439 32909.933594
949.408569 18426.820312
949.750122 24206.564453
950.478638 28996.974609
950.729126 49074.574219
950.977051 61751.148438
951.09198 3728.901611
951.228027 16800.703125
951.416565 15639.28125
951.482849 3920.435303
951.76001 5518.88916
952.084229 4990.555176
952.438416 17545.458984
952.765808 13334.341797
953.090759 5804.87793
953.427368 5519.09668
953.753235 4652.996094
953.901489 17111.896484
954.230225 5908.976074
954.413879 51778.429688
954.752869 62395.253906
955.086487 28664.388672
955.412476 18266.050781
956.087891 4950.871582
956.416992 5841.255371
956.749817 5675.942871
957.074707 7988.302734
957.41803 13089.165039
957.767273 4922.200195
958.099487 24933.951172
958.434998 106273.851562
958.771118 98443.265625
959.108154 39976.003906
959.441895 11805.145508
959.757141 5187.983887
960.074707 4767.046387
960.434204 6054.839844
960.75177 35086.261719
961.088501 30077.289062
961.421875 38896.449219
961.764282 66806.820312
962.100586 69007.078125
962.434082 34349.75
962.760376 4227.033691
963.433716 5571.618652
963.770386 15982.728516
964.108337 22516.060547
964.76355 3566.54541
965.105469 3905.892822
965.417236 6139.213379
965.744934 11444.861328
966.097168 12282.246094
966.430969 84968.070312
966.764893 97631.445312
967.095703 47376.375
967.424866 12571.52832
967.766663 29455.085938
968.105896 27251.117188
968.434509 18290.535156
968.768799 4434.780762
969.106812 30368.873047
969.43634 40729.085938
969.768982 24784.548828
970.087097 82085.414062
970.421509 94220.25
970.755554 63999.355469
971.089722 38659.535156
971.42926 34119.191406
971.764832 43193.050781
972.106934 26726.691406
972.442505 29442.117188
972.773865 5327.124023
975.111023 21321.744141
975.438843 47164.4375
975.761902 207601.375
976.095398 232383.390625
976.428894 172384.625
976.762146 41462.003906
977.105591 33432.515625
977.436829 47471.488281
977.773865 30651.373047
978.095947 10668.973633
978.774109 4512.94873
979.428894 10655.665039
979.760254 5303.375
980.097839 15975.039062
980.424683 44782.296875
980.765198 81365.0
981.103455 100664.375
981.439392 143103.15625
981.772949 102574.976562
982.100891 32875.027344
982.432434 21624.382812
982.763977 13261.385742
983.110474 5948.049316
984.784119 4895.640137
985.094055 44491.738281
985.424805 38152.097656
985.758301 55006.121094
986.107239 59397.597656
986.437561 453791.96875
986.771606 612790.0
987.105408 355023.3125
987.441467 62549.339844
987.772949 5034.155273
988.435242 11934.479492
989.09729 5931.588867
989.433838 17457.361328
989.77063 12880.466797
990.127808 12242.317383
990.444946 5733.289062
990.787964 6090.367188
991.435852 11636.777344
991.760193 18846.966797
992.112366 631114.6875
992.446777 834221.375
992.780457 570709.75
993.113342 74641.5625
993.444885 4579.854004
993.779358 28424.984375
994.111023 50831.46875
994.442749 62548.191406
994.771179 54487.292969
995.102844 29902.673828
995.441345 24370.308594
995.774597 14498.689453
997.116333 11018.776367
997.445557 5539.978027
998.115906 13721.769531
998.446289 26308.767578
998.788513 41865.839844
999.119934 30308.091797
999.452698 64639.816406
999.787964 47026.800781
1000.115051 82689.078125
1000.446899 63393.800781
1000.779663 76804.9375
1001.119202 18087.261719
1001.777039 9592.767578
1002.115906 5042.413086
1002.781006 12043.813477
1003.110657 59428.289062
1003.440857 132018.953125
1003.775269 92886.328125
1003.937988 26924.857422
1004.125244 142497.6875
1004.458496 226218.375
1004.791504 163683.453125
1005.121826 27721.433594
1006.456055 4695.259766
1007.448242 17218.378906
1007.782288 58024.589844
1008.116455 55682.527344
1008.443848 26913.978516
1008.783936 213031.859375
1009.11853 303372.78125
1009.450684 215657.0
1009.779663 88641.046875
1010.112793 63525.210938
1010.450378 32903.261719
1010.787415 10257.78125
1011.94812 5899.296387
1012.450256 17044.345703
1012.774475 10904.241211
1013.456177 487108.4375
1013.790405 699976.9375
1014.124023 481040.03125
1014.45752 117972.726562
1014.794006 94979.710938
1015.123291 70851.90625
1015.457764 37621.320312
1015.787537 13235.935547
1017.453613 19053.003906
1018.117554 42995.445312
1018.449585 63008.863281
1018.784119 41368.335938
1019.477722 16523.927734
1019.792969 20901.427734
1020.124329 28761.496094
1020.460815 23904.71875
1022.469421 5808.254883
1022.789246 20402.375
1023.460693 5956.43457
1023.798828 21748.90625
1024.131836 40620.667969
1024.463013 41232.605469
1024.800659 11666.101562
1025.132568 11621.913086
1026.111206 21653.203125
1026.445557 28063.898438
1026.7854 21025.3125
1027.456177 8645.077148
1027.788452 16604.669922
1028.128174 19524.884766
1028.458862 20417.570312
1029.119385 6200.001953
1029.455688 27313.722656
1029.806885 129419.8125
1030.141235 159917.921875
1030.476685 112346.460938
1030.812256 6052.101074
1031.128662 12304.978516
1031.447144 11178.491211
1031.790894 100694.851562
1032.12439 113077.5625
1032.459473 82875.460938
1032.790039 28993.298828
1033.139648 12330.644531
1033.468506 11408.724609
1033.801025 10353.347656
1034.132568 9510.526367
1035.448853 5781.192383
1035.797363 5541.839844
1036.792969 6137.550781
1037.131104 95023.71875
1037.479004 106453.835938
1037.807007 166242.5
1038.137817 79559.171875
1038.477661 45907.65625
1038.802612 4257.667969
1040.451172 4484.465332
1040.806519 40446.949219
1041.140015 52163.804688
1041.466309 48235.292969
1041.794434 28073.042969
1042.479126 14375.912109
1042.798828 46649.222656
1043.132568 123648.375
1043.46814 72861.570312
1043.81665 43214.882812
1044.151001 25641.837891
1046.481445 322052.5625
1046.815796 459559.25
1047.148926 398725.03125
1047.477051 144407.859375
1047.806641 80475.828125
1048.146362 21871.404297
1050.478149 5468.72998
1052.13562 94451.742188
1052.478516 183055.484375
1052.815674 405930.09375
1053.148804 468859.28125
1053.4823 323733.9375
1053.814941 48782.371094
1054.477173 9267.195312
1054.812988 12298.318359
1057.488647 5700.307129
1057.821533 11420.12207
1058.479736 10258.121094
1059.813599 16371.96875
1060.1427 19572.412109
1060.481689 17525.814453
1060.819702 5944.578613
1063.484619 6012.915527
1063.811401 25081.275391
1064.141235 18739.089844
1065.486328 60620.671875
1065.821411 98348.148438
1066.154541 68459.15625
1066.48938 13874.21582
1068.489136 5088.568359
1068.814819 38353.105469
1069.147095 30647.351562
1069.484253 151956.171875
1069.81958 209266.328125
1069.979614 6278.894043
1070.152954 152007.296875
1070.485596 16899.898438
1071.161377 31504.546875
1071.494873 52523.96875
1071.827881 30083.695312
1074.490234 50259.320312
1074.818726 365578.78125
1075.15271 526128.25
1075.485718 367399.5
1075.821533 105419.09375
1076.157227 32806.78125
1076.494995 11095.475586
1077.961304 17986.621094
1078.47168 16366.131836
1080.493408 744087.25
1080.827515 1189889.875
1081.161255 917907.0
1081.495605 109817.578125
1083.821045 23273.835938
1084.154907 44769.566406
1084.484009 85467.851562
1084.818359 64424.164062
1089.82373 177445.78125
1090.158813 256628.625
1090.493042 172063.96875
1090.825684 29115.285156
1101.997803 9994.142578
1102.492188 5621.942383
1111.000977 82905.078125
1111.502319 71423.335938
1112.000244 36238.832031
1119.190552 4609.552734
1139.969727 13121.457031
1140.89563 5673.995117
1141.224609 5932.964355
1141.560059 14106.131836
1141.894775 11443.161133
1145.533813 20675.722656
1146.484131 18594.578125
1146.99353 15198.009766
1147.49353 5907.309082
1151.889404 4843.604492
1153.467041 4488.178711
1154.487305 13872.975586
1162.481323 5972.568848
1162.556641 4955.957031
1162.90271 5782.252441
1174.476807 12855.038086
1175.047119 13824.642578
1175.548584 10186.289062
1176.050293 5523.125488
1182.984375 11181.509766
1188.002563 5498.334473
1195.926025 20617.667969
1196.025513 27521.132812
1196.532349 17808.945312
1201.928345 11277.980469
1205.493286 19166.296875
1218.593994 9351.071289
1222.013062 8249.795898
1223.931641 10967.271484
1229.942627 13218.462891
1230.53186 18627.814453
1231.035278 17904.830078
1232.561401 6086.428711
1237.541016 12334.124023
1240.529419 6095.01123
1244.522461 11028.120117
1245.02356 4542.254883
1248.039551 9225.02832
1248.539429 9433.569336
1252.512817 5504.5
1253.03479 13164.90918
1253.530273 21564.025391
1254.03125 13974.356445
1262.037476 49474.121094
1262.539551 41232.5625
1263.036743 21900.755859
1263.544434 11383.482422
1266.033447 4883.950684
1272.0448 5686.509277
1274.536011 5924.125488
1279.027954 4954.441406
1289.042236 14796.411133
1289.547607 4930.197754
1294.548584 5872.424316
1295.05542 10273.806641
1303.589478 24432.148438
1304.094727 39930.574219
1304.592529 16412.878906
1308.557007 10400.306641
1309.064819 5928.291504
1310.574585 5725.440918
1315.554688 10062.416016
1316.056641 4198.550293
1318.580322 15660.073242
1319.085205 6215.455566
1319.583862 9967.554688
1322.058716 14358.509766
1322.557373 28053.59375
1323.056763 13684.160156
1323.566895 12446.537109
1324.56604 11349.344727
1329.071045 5324.710449
1329.556763 15216.395508
1330.070801 11398.870117
1330.567017 30454.658203
1331.071411 25287.162109
1331.570801 21338.9375
1332.074585 8281.400391
1338.063599 17816.927734
1338.566162 15865.069336
1339.078369 17692.757812
1343.072021 4515.840332
1343.564331 11710.608398
1344.060791 5796.543457
1344.58252 11475.834961
1345.100952 20708.427734
1345.604614 5693.212891
1346.107178 20408.996094
1351.58252 9806.619141
1352.062988 5989.356445
1352.561768 4324.078613
1353.078613 13950.6875
1353.595825 20092.806641
1354.092041 5723.898438
1354.595703 4862.49707
1357.586182 10131.173828
1358.094604 18215.363281
1360.658447 16277.374023
1366.099731 4619.336914
1366.603027 13794.56543
1371.594604 38688.570312
1372.091064 55792.121094
1372.596069 28521.199219
1373.106689 5835.306641
1377.093994 5037.321289
1377.591431 5092.508301
1380.103638 40882.9375
1380.606445 62593.078125
1381.106812 54359.277344
1381.614258 12166.958984
1385.610962 17517.644531
1386.105347 29010.134766
1386.602905 10313.225586
1387.105347 13347.220703
1387.61084 14311.399414
1388.10083 5988.215332
1389.118286 11445.515625
1390.612549 4851.459961
1394.609863 47610.308594
1395.110107 80217.320312
1395.61084 31533.097656
1396.616943 9539.246094
1397.120728 5390.296387
1397.609985 4299.288574
1398.083008 10676.717773
1399.086548 10881.374023
1406.095703 5557.085449
1406.597778 26104.072266
1407.102173 22666.027344
1408.601562 9606.313477
1409.11084 22957.964844
1409.603149 4765.685059
1412.579834 5159.566406
1415.108765 24137.388672
1415.611328 18324.144531
1420.595703 10481.476562
1421.096802 11541.68457
1421.619263 11477.423828
1423.118774 4815.295898
1429.148438 12570.826172
1431.634644 5835.539551
1437.151611 32109.304688
1437.654297 27886.222656
1438.15686 9836.955078
1442.146118 16472.201172
1442.648193 25453.957031
1443.143799 20673.837891
1448.627197 5899.155273
1449.134277 4835.892578
1449.646851 10678.733398
1451.152222 80722.28125
1451.652344 121025.046875
1452.15271 96620.523438
1452.657227 5916.490234
1454.628052 5247.14502
1455.127686 6026.121582
1456.126221 6158.705078
1456.634521 12543.268555
1457.135254 5220.990234
1457.662354 5643.583496
1463.140015 34507.710938
1463.639893 32072.15625
1464.141479 33239.640625
1468.620605 4827.980469
1470.127441 5254.592773
1470.634521 13492.275391
1471.13623 27760.265625
1472.15564 12664.120117
1477.136353 5938.182617
1477.633789 5497.42334
1478.131226 9030.894531
1479.153931 44764.609375
1479.653076 90805.929688
1480.155151 61828.457031
1480.660889 6080.04834
1487.660156 15128.925781
1488.164917 24186.441406
1488.666138 16622.097656
1490.664551 8342.838867
1491.165649 4725.625488
1491.650146 5518.477539
1499.177368 4844.835938
1504.1604 10531.620117
1504.663086 10942.832031
1505.169556 6208.107422
1512.669922 23891.6875
1513.17334 33669.964844
1513.674805 29417.111328
1514.169922 5074.32959
1521.185547 11406.987305
1522.185303 4630.788574
1526.663452 9421.679688
1527.663208 11863.43457
1547.685669 4321.174316
1548.173706 5429.689453
1555.179199 12012.689453
1555.685181 22996.392578
1556.176758 11600.794922
1569.182495 12260.647461
1569.684937 36337.105469
1570.175537 12309.572266
1605.737305 5535.294922
1634.7323 4599.916016
1864.549072 4001.367432
1896.610962 4171.37793
END IONS
