BEGIN IONS
PEPMASS=1154.72
CHARGE=1
MSLEVEL=2
SOURCE_INSTRUMENT=LC-ESI-qTof
FILENAME=f.t3hdon/Network_20140411_round-2/mzXMLs_for_round_2/P1-H-08_P1-H-8_01_3313.mzXML;
SEQ=*..*
IONMODE=Positive
ORGANISM=GNPS-LIBRARY
NAME=Spectra matches to compound Massetolide B (WLIP/Viscosin/Massetolide molecular family) M+H
PI=Pieter Dorrestein
DATACOLLECTOR=Don Nguyen, Alexey Melnik
SMILES=CCCCCCCCC(CC(=O)NC(CC(C)C)C(=O)NC(CCC(=O)O)C(=O)NC1C(OC(=O)C(NC(=O)C(NC(=O)C(NC(=O)C(NC(=O)C(NC(=O)C(NC1=O)C(C)CC)CC(C)C)CO)CC(C)C)CO)C(C)CC)C)O
INCHI=
INCHIAUX=
PUBMED=
SUBMITUSER=t3hdon
TAGS=
LIBRARYQUALITY=3
SPECTRUMID=CCMSLIB00000081215
SCANS=800
173.125031 2348.0
183.109528 1428.0
185.097595 364.0
185.15918 536.0
195.073151 756.0
201.12117 4896.0
202.124191 468.0
203.103882 376.0
211.103104 480.0
213.084885 6996.0
213.158417 1764.0
214.082703 744.0
219.132965 4512.0
220.131607 412.0
225.121078 696.0
230.109314 348.0
231.094131 1084.0
231.171204 492.0
241.185638 660.0
243.136353 664.0
251.1754 436.0
252.138062 432.0
255.169617 1328.0
256.165039 2924.0
257.158264 456.0
258.148743 372.0
266.14859 9676.0
266.247711 2172.0
267.146362 1512.0
267.250336 516.0
268.200623 1228.0
269.185791 1388.0
270.143494 4144.0
271.145813 596.0
274.175507 1552.0
279.168304 440.0
281.146729 412.0
282.18161 2892.0
284.158386 10080.0
284.256866 37568.0
285.160217 1132.0
285.260742 7032.0
286.25824 416.0
287.199036 1692.0
288.15332 5800.0
289.156708 840.0
294.143219 4840.0
294.239319 2976.0
295.144257 828.0
295.244232 800.0
296.196014 9400.0
297.195679 1872.0
300.191162 4364.0
301.190491 864.0
302.171814 1268.0
306.165497 476.0
308.16745 600.0
312.153442 17804.0
312.251343 44192.0
313.156219 2824.0
313.253174 8160.0
314.20871 4696.0
315.21051 776.0
316.140625 384.0
318.12735 444.0
319.185974 412.0
320.197296 640.0
324.191681 1388.0
325.193359 464.0
326.171082 3072.0
327.171204 652.0
330.165527 2152.0
331.173157 500.0
332.214783 4628.0
333.2211 964.0
336.157135 596.0
337.221771 500.0
338.206604 1024.0
339.209045 488.0
340.152771 348.0
342.203979 840.0
343.209595 468.0
344.179535 1352.0
345.18219 332.0
348.185272 592.0
350.239838 660.0
351.201782 728.0
352.213867 412.0
353.180969 528.0
354.171631 528.0
355.232391 2592.0
356.218903 1856.0
361.206696 368.0
365.217072 4856.0
366.205627 1380.0
367.267181 1436.0
368.249969 1436.0
369.225861 852.0
370.235229 412.0
371.214813 496.0
372.179474 376.0
373.24353 3864.0
374.240387 632.0
375.232208 432.0
379.229095 2476.0
380.221588 492.0
381.181061 1584.0
382.25177 360.0
383.225861 11236.0
384.22522 2384.0
385.266846 1104.0
387.224915 528.0
393.213806 796.0
395.266022 3132.0
396.265381 620.0
397.241486 1676.0
398.233978 984.0
399.188263 1084.0
400.253876 484.0
401.235779 11904.0
402.239227 1936.0
403.230225 548.0
405.258484 348.0
407.225128 2128.0
408.2258 1120.0
411.223785 1504.0
412.222992 356.0
413.205536 3540.0
414.205109 756.0
415.251984 872.0
419.244873 7808.0
420.251373 1740.0
421.238312 960.0
423.279633 1524.0
424.268433 616.0
425.238434 6044.0
426.233734 1164.0
427.286255 968.0
429.243286 932.0
430.228699 988.0
431.214325 5340.0
432.219757 1420.0
434.235168 592.0
435.227234 452.0
437.271851 1548.0
438.276031 400.0
439.25943 1232.0
441.292633 10120.0
442.294922 2860.0
443.247986 2252.0
444.246582 620.0
448.252167 376.0
449.23938 848.0
451.292084 568.0
452.256287 848.0
453.240295 636.0
454.287537 348.0
455.282867 1604.0
456.279755 1148.0
457.265778 3160.0
458.265839 676.0
460.287689 376.0
461.258698 1052.0
465.288879 676.0
466.26181 1660.0
467.258362 912.0
468.315338 2020.0
469.302734 1636.0
470.261475 1600.0
471.245056 412.0
472.318634 448.0
473.300018 780.0
476.24765 2276.0
477.251862 648.0
478.298615 2616.0
479.300476 736.0
482.288879 2248.0
483.281281 580.0
484.274139 2528.0
485.27005 892.0
486.32962 1688.0
487.313843 1232.0
488.302734 776.0
493.297058 528.0
494.258698 6016.0
495.255341 1048.0
496.311005 5192.0
497.318481 1224.0
498.310242 2064.0
499.284637 1136.0
500.303864 2820.0
502.283356 1540.0
503.290222 652.0
506.317902 4188.0
507.323364 840.0
510.311646 424.0
512.267151 5484.0
513.2724 1200.0
514.320862 6568.0
515.326904 1936.0
516.329407 924.0
518.310608 1624.0
519.316589 388.0
520.314514 760.0
523.338379 428.0
524.330017 40724.0
525.33136 10152.0
526.328491 1468.0
527.321411 344.0
530.279297 2496.0
531.293457 548.0
532.330688 29996.0
533.332825 6700.0
534.330139 1160.0
536.267944 436.0
537.330566 1360.0
538.322998 1520.0
539.321777 480.0
541.352539 1556.0
542.340454 4220.0
543.339478 1252.0
544.308472 988.0
547.317261 772.0
548.295166 768.0
550.350647 372.0
552.328186 492.0
554.28186 432.0
555.347351 1920.0
556.338806 820.0
561.340027 516.0
562.323853 652.0
564.265198 552.0
565.328552 3724.0
566.325195 1388.0
567.337769 536.0
569.377136 656.0
570.348816 1344.0
573.356201 1264.0
574.363708 420.0
575.496643 416.0
577.388245 2196.0
578.28009 976.0
578.391541 912.0
579.350952 1092.0
580.339844 664.0
581.307251 696.0
582.379395 504.0
583.345642 3976.0
584.348938 1492.0
586.369568 972.0
587.366638 632.0
589.331421 784.0
590.333313 496.0
593.337769 636.0
595.402893 16896.0
596.406677 6000.0
597.371643 2524.0
598.357422 1000.0
599.308777 712.0
601.352173 3680.0
602.354858 1600.0
603.362549 420.0
605.387024 3360.0
606.393188 1048.0
607.349182 2136.0
608.341248 944.0
611.354614 640.0
613.385681 3148.0
614.388855 900.0
615.368347 1312.0
617.318115 520.0
623.398315 47956.0
624.401672 15308.0
625.384399 2848.0
626.370605 1028.0
627.376343 428.0
629.359009 444.0
631.397583 32488.0
632.402405 10332.0
633.400757 2240.0
637.417297 840.0
641.409668 5216.0
642.410828 1796.0
643.369141 3380.0
644.36615 780.0
649.358398 564.0
650.418396 476.0
651.405884 1276.0
655.423889 1844.0
656.423035 376.0
657.417053 488.0
666.381836 492.0
667.370667 884.0
668.429138 1412.0
669.414551 1652.0
670.421936 676.0
672.44574 444.0
676.36731 996.0
677.354553 784.0
678.414429 2344.0
679.407654 1388.0
680.41571 756.0
681.396606 376.0
684.397522 892.0
685.389038 540.0
686.438721 3036.0
687.450256 576.0
690.49292 400.0
693.416321 388.0
694.375305 2104.0
695.370911 2360.0
696.426514 13580.0
697.426758 5516.0
698.432678 1632.0
699.402649 600.0
702.410339 436.0
703.407166 632.0
706.419495 440.0
708.49707 884.0
710.437439 624.0
711.423523 960.0
712.383606 3464.0
713.391663 1176.0
714.439636 89044.0
715.111938 408.0
715.440613 31144.0
716.442871 6480.0
717.446716 868.0
718.468689 1400.0
719.476685 896.0
720.457275 340.0
724.433228 904.0
726.485291 644.0
730.394226 2928.0
731.397339 676.0
736.484131 7960.0
737.488281 3192.0
738.479614 776.0
741.477783 432.0
742.448853 1936.0
743.452148 612.0
744.41864 496.0
754.495178 10280.0
755.497986 3728.0
756.494019 872.0
777.503662 332.0
779.457214 520.0
780.453369 544.0
789.452026 492.0
795.525208 668.0
797.476929 980.0
798.475464 736.0
799.47644 412.0
805.501099 2188.0
806.497864 800.0
807.463928 1952.0
808.454285 2052.0
809.456848 636.0
810.517944 784.0
811.52594 376.0
813.528625 1264.0
814.534607 616.0
815.485779 1884.0
816.496704 532.0
823.514832 5012.0
824.516541 2316.0
825.473145 11292.0
826.472961 4484.0
827.484863 892.0
841.52771 4156.0
842.536499 1484.0
843.484009 77360.0
844.486084 24656.0
845.483704 8596.0
846.489075 1264.0
855.548279 344.0
867.575562 872.0
868.586182 408.0
871.490479 388.0
908.609924 436.0
909.599976 748.0
910.571228 332.0
918.586548 1888.0
919.596741 860.0
920.58551 436.0
924.56781 596.0
925.577454 432.0
926.617676 1056.0
927.612732 376.0
936.599609 6264.0
937.607239 2972.0
938.599182 936.0
954.613037 4168.0
955.614014 1700.0
956.570984 1604.0
957.577148 500.0
980.570496 388.0
995.631287 356.0
1005.624451 1992.0
1006.619568 1500.0
1013.653748 456.0
1023.630981 4776.0
1024.63501 1800.0
1025.634888 820.0
1041.64624 2456.0
1042.644897 1496.0
1067.694824 368.0
1092.710571 384.0
1108.727295 944.0
1109.71582 756.0
1110.728638 584.0
1118.703125 2384.0
1119.705566 1528.0
1120.699341 788.0
1121.704224 368.0
1124.72522 424.0
1126.733643 4952.0
1127.736084 2452.0
1128.737061 996.0
1136.719116 25412.0
1137.721924 14800.0
1138.723389 4112.0
1139.720825 1232.0
1154.731567 83572.0
1155.733521 38924.0
1156.734131 14008.0
1157.734863 3364.0
1158.748901 568.0
END IONS
