BEGIN IONS
PEPMASS=792.396
CHARGE=1
MSLEVEL=2
SOURCE_INSTRUMENT=LC-ESI-qTof
FILENAME=f.philipwi/GNPS_Marine_Invertebrate_Secondary_Metabolites_UHManoa/GNPS_SpongeSpectraAlreadyConvertedTo_mzXML/PW-114_P2-B-5_Hymenamide_D_769amu_Scan589_620_01_15581.mzXML;
SEQ=*..*
IONMODE=Positive
ORGANISM=GNPS-LIBRARY
NAME=Hymenamide D M+Na
PI=Philip Williams
DATACOLLECTOR=Williams
SMILES=CC[C@H](C)[C@H]1C(=O)N2CCC[C@H]2C(=O)N[C@H](C(=O)N[C@H](C(=O)N3CCC[C@H]3C(=O)N[C@H](C(=O)N[C@H](C(=O)N1)C)CC(C)C)CC(=O)O)Cc4ccc(cc4)O
INCHI=
INCHIAUX=
PUBMED=
SUBMITUSER=philipwi
TAGS=
LIBRARYQUALITY=3
SPECTRUMID=CCMSLIB00000424976
SCANS=600
140.367889 44.0
183.151657 64.0
185.071747 52.0
188.267914 40.0
211.144516 228.0
213.600296 64.0
213.870544 32.0
227.082047 80.0
233.125259 124.0
255.619507 96.0
265.164642 60.0
269.102783 64.0
272.996216 84.0
273.091034 88.0
274.652283 104.0
276.175598 60.0
276.451111 44.0
276.896423 40.0
282.187897 240.0
284.199219 84.0
290.107727 116.0
293.122986 84.0
304.204803 28.0
305.362152 24.0
306.945953 36.0
307.404022 36.0
307.605225 44.0
307.784119 32.0
309.161194 72.0
315.152649 72.0
321.144531 100.0
326.167419 48.0
327.169769 40.0
327.827301 28.0
333.169525 124.0
333.833069 28.0
334.67218 44.0
341.163788 68.0
347.169464 84.0
354.262085 24.0
355.689331 316.0
356.148254 80.0
356.689789 112.0
356.846313 32.0
361.230804 68.0
367.277222 60.0
368.206238 60.0
368.671204 132.0
374.207428 100.0
375.693054 28.0
376.148834 456.0
376.496582 56.0
377.150726 88.0
379.222626 28.0
379.855957 28.0
380.191467 108.0
385.116882 48.0
386.406433 32.0
388.137573 72.0
389.254211 476.0
389.922913 44.0
390.256012 192.0
390.691132 28.0
390.779327 24.0
392.255035 96.0
392.393921 28.0
395.261475 264.0
396.038971 28.0
397.228455 268.0
398.134857 112.0
399.127594 84.0
401.167786 64.0
401.282715 84.0
402.17981 112.0
404.687408 1020.0
404.917389 20.0
405.02002 32.0
405.193237 112.0
405.379303 44.0
405.694672 92.0
406.689453 64.0
407.160309 168.0
410.206482 144.0
412.986938 56.0
413.284943 36.0
415.023254 24.0
415.27005 64.0
422.694244 60.0
433.270294 72.0
435.262878 52.0
438.166901 88.0
439.221863 176.0
440.759308 36.0
441.214447 84.0
446.707825 28.0
448.164062 56.0
450.109406 24.0
452.235168 80.0
456.978546 44.0
460.569397 48.0
464.229279 104.0
467.297089 80.0
468.179413 84.0
474.170746 76.0
475.198456 48.0
479.167023 80.0
479.669464 72.0
484.245575 52.0
488.255798 184.0
488.688416 36.0
489.238129 192.0
489.407349 32.0
490.225586 80.0
494.250122 120.0
495.177856 112.0
500.340363 64.0
510.29071 68.0
510.558441 92.0
511.220367 188.0
513.313232 100.0
514.295776 40.0
517.292542 56.0
526.203491 24.0
531.319092 32.0
535.234741 112.0
537.271851 36.0
542.203369 92.0
553.332947 88.0
555.391418 52.0
559.286804 64.0
560.312378 108.0
571.213928 32.0
580.253357 96.0
582.266602 104.0
583.251465 64.0
584.314209 116.0
586.271301 64.0
587.260986 52.0
588.945984 36.0
593.316528 80.0
594.139771 44.0
595.2901 96.0
596.223633 68.0
599.309509 92.0
600.339905 72.0
601.793335 100.0
608.300476 60.0
619.355591 92.0
623.327942 52.0
625.287048 60.0
629.337708 216.0
629.822144 20.0
630.318176 68.0
631.358887 116.0
632.336304 68.0
632.961609 28.0
633.369873 92.0
640.326843 100.0
649.360474 476.0
650.377136 372.0
650.774536 36.0
651.348267 108.0
652.320312 80.0
653.330078 56.0
654.715759 32.0
655.15625 32.0
655.384705 52.0
657.017578 28.0
657.333557 360.0
658.145508 52.0
658.32196 200.0
659.328491 92.0
660.305908 44.0
660.436951 48.0
664.275879 116.0
665.344238 88.0
666.364075 56.0
667.038879 24.0
667.330078 60.0
669.345764 64.0
672.582092 24.0
672.697815 32.0
673.425476 164.0
676.37323 68.0
676.605347 32.0
677.378357 108.0
678.369995 172.0
679.327393 100.0
680.174988 52.0
682.337891 24.0
693.33844 72.0
694.400879 312.0
694.967529 24.0
695.40509 160.0
695.572632 40.0
696.598511 48.0
697.372681 96.0
699.225586 52.0
699.360474 24.0
702.407532 96.0
704.417725 124.0
705.416565 84.0
706.407776 100.0
709.32489 92.0
710.36084 64.0
712.418091 140.0
716.422058 104.0
718.30011 24.0
719.342651 144.0
720.026672 72.0
720.412292 1008.0
721.407776 456.0
721.840942 44.0
722.387939 56.0
723.434631 36.0
725.321838 44.0
731.377441 48.0
732.584717 48.0
733.482178 32.0
734.328308 68.0
742.417419 80.0
743.417725 84.0
744.190125 44.0
746.017151 36.0
746.382812 40.0
748.4151 104.0
748.898193 64.0
749.416138 40.0
754.100159 116.0
761.716492 108.0
764.400024 352.0
765.411133 52.0
766.152832 40.0
769.866211 32.0
770.42334 560.0
771.426086 132.0
772.430603 188.0
774.400757 36.0
775.252441 32.0
775.412231 64.0
776.317749 56.0
776.530884 52.0
777.152771 60.0
784.348633 64.0
785.545227 44.0
787.668823 36.0
788.19165 32.0
788.362915 28.0
789.387207 140.0
789.785217 24.0
789.910583 112.0
790.333679 196.0
790.381836 80.0
790.436279 180.0
790.645325 28.0
790.923462 100.0
791.295898 28.0
791.487976 48.0
791.618408 88.0
791.955566 80.0
792.397522 10912.0
792.673889 68.0
792.863464 24.0
793.090088 28.0
793.400757 5560.0
793.712219 88.0
793.931213 76.0
794.10791 128.0
794.400269 1796.0
794.683411 32.0
795.40448 248.0
795.680176 44.0
795.815918 24.0
796.049683 44.0
796.247559 32.0
796.420288 96.0
796.751282 28.0
797.165161 32.0
797.435181 32.0
798.299438 96.0
798.569641 40.0
799.02002 28.0
799.30835 44.0
799.506592 24.0
800.287231 40.0
801.995911 36.0
802.338928 60.0
803.603394 36.0
804.163635 28.0
805.556152 68.0
806.895569 24.0
807.764954 28.0
808.364502 784.0
808.725464 40.0
809.358032 644.0
810.140015 28.0
810.343445 276.0
810.593689 48.0
811.375244 104.0
811.882751 36.0
812.32373 44.0
813.118347 52.0
813.372864 32.0
815.381104 60.0
817.322693 52.0
820.058594 40.0
820.825439 20.0
822.323669 92.0
823.347656 52.0
824.372253 52.0
825.580688 116.0
826.38678 76.0
844.49823 156.0
845.79541 40.0
855.034302 32.0
871.177185 92.0
877.378296 156.0
912.541565 68.0
913.79364 124.0
923.666931 24.0
929.973999 60.0
1018.918274 32.0
1147.920898 48.0
1196.809082 96.0
1257.182007 24.0
1583.307007 136.0
END IONS
