BEGIN IONS
PEPMASS=1118.58
CHARGE=1
MSLEVEL=2
SOURCE_INSTRUMENT=LC-ESI-qTof
FILENAME=3251_1118.mzXML
SEQ=*..*
IONMODE=Positive
ORGANISM=GNPS-LIBRARY
NAME=Stenothricin B M+H
PI=Dorrestein
DATACOLLECTOR=Peng
SMILES=CC1OC(CN(C(C(NC(C(NC(C(NC(/C(NC(C(NC(C(NC(C1NC(C(NC(CC(CCCCCCCCC(C)C)=O)=O)CS(O)(=O)=O)=O)=O)CO)=O)CN)=O)=C/C)=O)C(C)C)=O)CO)=O)CCCCN)=O)C)=O
INCHI=InChI=1S/C48H83N11O17S/c1-8-31-41(65)57-39(28(4)5)46(70)55-34(24-60)43(67)53-32(19-15-16-20-49)48(72)59(7)23-38(64)76-29(6)40(47(71)56-35(25-61)44(68)54-33(22-50)42(66)52-31)58-45(69)36(26-77(73,74)75)51-37(63)21-30(62)18-14-12-10-9-11-13-17-27(2)3/h8,27-29,32-36,39-40,60-61H,9-26,49-50H2,1-7H3,(H,51,63)(H,52,66)(H,53,67)(H,54,68)(H,55,70)(H,56,71)(H,57,65)(H,58,69)(H,73,74,75)/b31-8-
INCHIAUX=N/A
PUBMED=N/A
SUBMITUSER=y6peng
TAGS=
LIBRARYQUALITY=2
SPECTRUMID=CCMSLIB00000075072
SCANS=1
315.179779 0.174798
322.114868 0.391285
347.204651 1.621794
352.316101 1.238359
357.391113 0.30647
363.451935 1.717841
364.516724 0.615997
368.847107 1.133451
371.625305 0.893821
375.284729 0.586564
380.609619 1.489581
381.216675 3.81328
384.906342 0.469999
387.309784 1.298696
402.072937 0.5158
407.127319 0.27792
410.012421 1.125078
412.159149 0.76665
424.119507 0.642866
428.131165 1.748096
432.205933 0.901364
441.905212 0.627921
452.334503 0.345657
453.263245 0.602241
454.294922 0.333725
455.457275 2.024331
459.298462 0.836154
466.285339 3.990076
470.411102 0.743019
477.908997 1.917732
479.370209 4.448486
482.892059 2.16077
484.490234 3.999422
485.395996 1.793133
487.321106 1.691316
489.302429 2.280074
491.038361 2.876149
495.264526 0.392838
497.134949 1.869459
499.125702 0.198238
500.427612 0.50143
502.427307 0.28597
506.162109 0.744231
507.306458 1.683486
508.215912 0.507232
511.792114 2.255885
518.325928 0.705877
519.311462 2.370123
521.187561 0.877852
522.362061 0.620569
524.503235 0.297019
528.100464 2.014271
531.073853 0.674126
534.170715 0.448519
536.347046 0.285584
538.961914 2.794383
542.221924 0.845795
543.598694 1.57814
546.285156 2.728269
550.112732 0.279861
553.264526 1.712112
556.166931 4.318622
562.192017 2.842168
563.223511 4.853093
565.271729 0.747873
568.466675 1.842779
571.744751 2.749953
573.356079 11.277826
574.445679 1.4832
578.048096 1.354235
580.195435 4.18346
581.197021 1.236563
582.572815 2.045446
586.449524 1.034714
590.197388 4.689522
591.331482 1.344759
595.359741 1.091214
598.376343 0.769857
599.131714 0.302666
601.198608 1.486311
607.689575 2.818956
608.404419 4.10262
609.159241 2.183918
612.044067 3.716654
613.465393 1.333141
620.407776 0.231206
622.866943 0.416596
624.135681 1.818638
625.225281 7.12955
626.331299 1.492475
630.607422 0.916796
631.342163 2.885602
632.117493 0.881626
632.962158 0.419343
636.534424 0.547263
638.297791 1.673571
642.94104 0.584641
644.25061 1.50751
646.52301 1.600637
650.416016 1.456262
652.302429 5.610803
653.658691 0.955769
657.517212 1.351444
658.968323 1.148147
660.334595 12.57428
661.215576 6.195834
662.556152 0.980894
664.367798 0.753141
667.187378 2.868434
668.866211 1.543959
670.271973 1.231065
670.95105 0.783589
672.471191 0.892062
673.91803 0.52528
675.180908 4.71937
678.331787 2.613167
679.237915 14.679619
680.063721 0.877277
685.212402 1.43221
686.445557 3.712288
687.289917 1.290884
688.403931 0.925241
689.308472 3.986018
690.262573 1.148516
691.20166 1.916967
693.069519 2.959895
694.264404 1.15142
696.530151 0.9445
697.221313 0.893594
703.397644 4.121624
704.33374 4.610088
706.160889 3.886249
707.283264 3.604951
708.513916 3.262781
712.202087 2.820328
714.263184 7.298168
716.771057 0.985399
717.978516 0.68529
718.854919 1.999805
721.280884 7.193358
723.025391 2.571299
723.733643 0.801142
725.374023 19.217447
726.422241 2.290606
727.112366 1.509279
731.261169 0.559646
732.641113 0.645682
733.250488 0.836815
735.109985 0.570847
736.337891 0.354653
737.232056 0.333403
738.157959 1.209928
740.986328 0.390861
742.309326 6.531462
743.352051 41.183125
744.543457 3.61113
748.278198 0.991785
749.439575 0.212644
758.40918 1.787882
760.177612 1.199806
760.986328 0.717695
763.329956 3.791171
764.611816 2.398667
766.152832 1.570115
767.189941 0.611963
768.257385 4.791349
770.404419 1.348876
775.274414 7.142833
776.667969 5.922532
777.646362 2.094573
778.601196 1.531049
779.279663 1.722369
780.489685 2.203297
783.933472 0.672909
784.600342 0.243634
786.670959 2.736899
787.309937 0.913958
791.381958 1.714765
792.424927 0.460594
793.515747 1.670318
794.129944 1.005081
795.435669 9.377038
796.383972 1.866795
797.084351 1.196063
799.106079 0.775554
800.273438 0.720461
803.967346 6.652878
804.593506 12.038134
805.350342 3.991286
807.383057 0.450088
809.407349 1.284867
810.86792 4.160089
811.76001 1.412149
812.563965 2.26725
814.283203 5.405776
815.301025 1.466437
820.344849 1.809428
821.283569 0.365853
822.46106 0.926467
823.416748 1.11012
828.6073 3.604029
830.187744 5.917409
831.759644 6.317718
832.452637 3.218063
833.310425 1.111772
837.463379 1.413022
838.401489 1.226746
840.092407 2.258798
841.272217 2.421596
842.27832 2.302087
844.370239 1.131483
845.484253 0.543496
846.304321 2.612778
847.351685 8.689025
848.193359 2.104664
849.381958 19.519669
850.464478 5.513681
851.715088 1.987771
855.258911 2.122367
856.063965 1.224116
858.319824 98.061707
859.292114 41.45256
860.407593 2.955117
861.123047 1.740777
865.388916 9.57581
866.459229 3.041687
867.417847 4.686687
868.449951 1.243708
869.140015 0.397291
870.657471 2.848881
871.352173 0.677784
874.232056 3.503368
876.225952 94.149292
877.1521 37.326626
877.80542 2.752299
878.643799 0.479015
879.459717 1.662462
883.470459 3.070701
885.280518 9.580137
887.361938 2.763048
889.208862 1.395983
890.007935 3.807028
891.345947 0.948647
893.040161 10.389396
894.313843 569.692871
895.26001 25.249371
901.19458 1.668003
902.773315 5.122667
903.422852 7.976475
904.288208 3.188863
905.225708 2.022016
907.263306 1.117283
908.840454 0.269855
911.933716 1.095128
915.362427 1.197816
917.973267 1.346831
919.197021 1.09525
921.948608 1.246825
923.924072 0.658659
924.781616 2.807272
927.623169 1.826096
928.369385 4.054784
929.587036 2.837801
930.326782 0.587798
931.548584 2.75454
932.449219 1.085269
935.39624 1.097645
936.590576 3.680849
937.438354 0.932645
938.70459 1.94508
942.099854 1.741488
944.35791 1.907361
945.435913 4.133981
947.318726 8.040452
949.185425 5.511883
955.676514 2.784616
956.377319 2.16012
957.099487 0.970104
958.334839 1.122995
959.458496 0.944942
961.412109 0.754726
963.514526 2.036366
965.594849 1.581272
967.313721 2.915555
968.152832 1.452177
969.435425 0.486547
970.377686 1.64464
972.298828 3.529207
976.506348 3.659432
980.681396 6.048675
981.323364 1.114358
982.375366 1.54504
984.297974 2.681651
987.146851 0.302285
988.720825 0.919868
990.196655 2.052402
991.558472 1.918045
992.212158 0.892393
993.656982 1.220744
996.467285 1.129393
997.111938 1.886867
1000.626587 1.796515
1001.428467 1.865691
1004.656982 1.161218
1007.446045 1.576036
1009.618042 3.79429
1010.554077 4.799454
1011.442627 2.832197
1012.521118 1.259114
1014.309448 2.72511
1017.058716 4.218439
1018.114136 8.907261
1019.343994 12.288348
1021.328857 0.558868
1023.062134 1.247503
1024.594971 2.616661
1026.452271 3.027243
1027.809326 0.872228
1028.974365 5.507283
1036.496704 6.493844
1037.719849 11.077889
1040.50708 1.901472
1043.368652 1.358472
1045.419189 1.79593
1046.726196 0.880745
1047.431274 0.63314
1048.364502 0.811348
1050.180786 2.504101
1051.704102 2.998549
1053.921753 3.186026
1054.905762 4.195579
1055.790894 4.210109
1056.465088 4.793477
1057.397339 0.428525
1058.994751 3.291802
1059.598267 4.973316
1060.440918 1.195392
1061.117798 0.315955
1062.883667 9.444504
1063.705688 8.273335
1064.443115 4.6581
1065.140747 2.759394
1065.793579 1.709992
1067.657837 6.434905
1068.653931 4.209588
1069.276489 4.782686
1070.764526 7.106313
1071.427979 22.012899
1072.322144 7.22235
1073.368042 21.213774
1074.413574 10.066106
1075.781494 5.433019
1077.032837 60.049591
1077.856567 8.764984
1078.859253 4.480165
1079.734009 0.454392
1081.754028 21.033031
1082.465454 85.628571
1083.474854 67.84594
1084.75415 1.27191
1085.780884 5.349888
1086.665649 5.381359
1087.642456 8.602625
1089.271362 56.234528
1090.309204 12.600445
1091.167236 2.24372
1092.703247 6.907366
1093.862549 5.611098
1094.643433 0.592244
1095.292236 3.445544
1096.747681 12.77328
1098.010986 4.560168
1099.269165 32.940662
1100.367432 167.092789
1101.491455 92.434296
1102.864136 23.795048
1104.408325 4.73231
1105.640869 5.602933
1108.049438 5.555964
1108.824097 3.00598
1117.703003 7.001009
1118.555298 13.18749
1119.451172 5.847123
1120.276245 13.03047
1121.145752 3.341548
1128.68042 0.587473
1134.975098 1.953355
1136.445557 0.886231
1138.318726 3.558377
1146.810059 0.735493
1153.218018 0.237695
1154.555298 1.5022
1166.353271 1.655371
1171.419922 0.222368
1174.286865 0.543519
1177.991699 0.535309
1185.663086 1.651427
1198.072021 3.298579
1199.142212 2.069504
1204.416626 1.467537
1205.379517 1.276211
1211.522705 0.821423
1218.770142 2.093155
1220.047119 3.203327
1265.62561 1.129111
1276.628906 2.195601
1281.367798 1.371681
1284.458496 1.085312
1285.579712 0.769523
1292.486694 2.141038
1294.583252 1.665551
1299.657104 1.25513
1303.78479 2.533164
1315.567139 0.778422
1330.435425 1.443301
1346.334717 0.628581
1347.273804 0.984452
1351.667236 0.949424
1353.871826 0.388087
1368.385498 0.560695
1369.663452 1.124334
1395.873779 0.51347
1397.755249 0.787219
1434.687988 0.567694
1435.591187 1.673983
1452.455811 0.988707
1458.213013 1.206085
1475.622559 1.020799
1478.843506 1.993772
1481.280884 2.103995
1497.810181 0.879347
1522.465942 1.557185
1524.790527 0.280296
1529.489258 2.636988
1552.509766 1.2569
1561.155273 1.373825
1568.640991 4.661092
1581.419678 0.631822
1601.859375 1.013397
1620.408813 0.764535
1633.994751 0.945595
1639.688965 1.518056
1649.338745 0.366176
1650.461182 2.517539
1651.415283 1.571122
1653.394897 1.261218
1703.735474 1.432101
1722.041748 0.414348
1740.15979 1.232682
1746.700684 1.847245
1775.802734 0.986779
1792.586548 0.838262
1801.80249 0.808557
1820.573242 1.055398
1922.848145 1.011881
1924.278076 1.501712
1938.445557 0.837535
1939.945557 0.692459
1949.619751 0.75857
END IONS
