BEGIN IONS
PEPMASS=1271.63
CHARGE=1
MSLEVEL=2
SOURCE_INSTRUMENT=LC-ESI-Orbitrap
FILENAME=f.machushynets/MBT27extractMM.mzXML;
SEQ=*..*
IONMODE=Positive
ORGANISM=GNPS-LIBRARY
NAME=Actinomycin X0(beta) M+H
PI=Gilles van Wezel
DATACOLLECTOR=Nataliia Machushynets
SMILES=CC1C(C(=O)NC(C(=O)N2CCCC2C(=O)N(CC(=O)N(C(C(=O)O1)C(C)C)C)C)C(C)C)NC(=O)C3=C4C(=C(C=C3)C)OC5=C(C(=O)C(=C(C5=N4)C(=O)NC6C(OC(=O)C(N(C(=O)CN(C(=O)C7CC(CN7C(=O)C(NC6=O)C(C)C)O)C)C)C(C)C)C)N)C
INCHI=NHBSPDCGDJCFKE-UHFFFAOYSA-N
INCHIAUX=
PUBMED=197972
SUBMITUSER=machushynets
TAGS=
LIBRARYQUALITY=3
SPECTRUMID=CCMSLIB00004684334
SCANS=1238
354.329102 16683.673828
387.271851 9837.675781
425.028351 4065.537842
446.27182 11349.980469
468.595764 2966.238525
482.245026 2234.651855
490.874908 1925.313599
519.221313 6850.523438
578.517578 5475.912109
592.471558 2585.958252
648.565918 4965.241211
736.747803 2204.866943
887.127747 2290.131836
983.009094 2188.994873
END IONS
