BEGIN IONS
PEPMASS=550.8
CHARGE=2
MSLEVEL=2
SOURCE_INSTRUMENT=LC-ESI-Orbitrap
FILENAME=f.Rolandoo1/20190519 Moroidin paper GNPS/[Val9]-moroidin-[QLLVWRAH].mzXML;
SEQ=*..*
IONMODE=Positive
ORGANISM=GNPS-LIBRARY
NAME=[Val9]-moroidin-[QLLVWRAH] M+2H
PI=Jing-Ke Weng
DATACOLLECTOR=Roland Kersten
SMILES=CC(C)C1C(C(NC(CC(C)C)C(NC(C(C)C)C(NC(C(NC(C(NC(C)C(NC(CC2=CN3C=N2)C(NC(C(C)C)C(O)=O)=O)=O)=O)CCCNC(N)=N)=O)CC4=C3NC5=C4C=CC1=C5)=O)=O)=O)NC(C6NC(CC6)=O)=O
INCHI=
INCHIAUX=
PUBMED=
SUBMITUSER=Rolandoo1
TAGS=
LIBRARYQUALITY=3
SPECTRUMID=CCMSLIB00005435918
SCANS=1
84.04155 888.765686
84.042282 2478.841309
84.043007 6211.172852
84.043739 9599.571289
84.044472 9103.003906
84.045204 5577.650879
84.045929 2280.236084
84.046661 944.061951
86.092522 1152.759155
86.093277 3057.496338
86.094032 10017.287109
86.094795 30495.962891
86.095551 53743.34375
86.096306 72170.867188
86.097061 57901.226562
86.097824 33948.066406
86.098579 11191.735352
86.099335 1956.478149
86.100098 373.164795
102.100388 974.145752
102.101364 1646.502197
102.102341 1879.039673
102.103325 1506.85144
102.104301 786.031189
107.308899 1287.275024
107.309952 1851.670288
107.311005 1988.72937
107.312057 1621.118042
107.31311 941.674377
112.084541 1450.031128
112.085663 2541.900146
112.086792 2981.674805
112.087914 2412.846436
112.089043 1265.049316
118.082634 1137.171631
118.083855 2656.404785
118.085068 4149.842773
118.086288 4682.642578
118.087502 3869.102539
118.088722 2301.639893
118.089935 1002.331543
125.50351 822.015564
125.504837 1817.398315
125.506172 2519.843018
125.507507 2404.288818
125.508842 1605.858765
125.51017 705.606567
127.035851 996.037537
127.037209 1899.744019
127.038567 2332.249756
127.039925 1993.408203
127.041283 1124.330078
138.087585 736.294983
138.089127 1791.418335
138.090668 2587.838623
138.092209 2532.365234
138.09375 1670.603394
138.095291 652.13916
147.53653 982.817749
147.538223 1890.526245
147.539932 2548.344482
147.541626 2568.850098
147.54332 1940.150635
147.545029 1042.503784
163.117935 1214.709473
163.119904 2192.154541
163.121887 2634.022217
163.123856 2217.236572
163.125839 1240.355469
166.079285 1246.957397
166.081314 3571.025635
166.083344 7231.289551
166.085373 10905.085938
166.087402 10149.227539
166.089432 6285.772461
166.091461 2733.386963
166.093491 746.57489
204.05072 1142.61499
204.053482 2171.772705
204.056244 8581.740234
204.059021 29857.839844
204.061783 56620.632812
204.064545 81925.914062
204.067307 73223.5
204.070068 45108.917969
204.07283 19211.880859
204.075592 5422.822266
204.078369 1764.348145
204.081131 1048.748413
251.059631 1541.758545
251.0634 5108.583008
251.067184 8252.426758
251.070953 9080.449219
251.074722 6018.411133
251.078491 2847.902588
251.08226 1146.330566
252.06218 1119.949341
252.065979 2854.356201
252.069763 6409.362793
252.073563 8307.764648
252.077362 6315.571289
252.081146 2723.489502
252.084946 1026.087158
269.063019 992.152588
269.0672 1890.443848
269.071381 6426.805176
269.075592 11318.882812
269.079773 14968.975586
269.083954 12141.640625
269.088135 7320.277344
269.092316 2960.062256
269.096497 659.656372
270.067017 611.273071
270.071228 1619.882202
270.075439 4513.657715
270.079651 7815.863281
270.083862 10179.618164
270.088074 8118.628906
270.092285 4759.07373
270.096466 1744.795044
270.100677 695.348938
285.187927 1402.475342
285.192505 2570.802979
285.197052 3190.074463
285.20163 2838.819824
285.206207 1805.796631
285.210754 797.492737
287.087921 746.515442
287.09256 2151.777588
287.097168 3891.309082
287.101776 4809.516602
287.106384 4192.02002
287.110992 2508.737061
287.115601 936.260925
295.039795 1219.742554
295.044586 5202.259277
295.049408 17411.728516
295.054199 32280.732422
295.059021 45791.96875
295.063812 39631.628906
295.068634 23985.841797
295.073425 9419.414062
295.078247 2230.074463
295.083038 490.481995
296.042175 966.153564
296.047028 2597.560303
296.051849 9292.566406
296.056671 18984.603516
296.061523 29126.470703
296.066345 28127.298828
296.071167 17504.097656
296.075989 7604.196289
296.080841 1528.985352
303.190887 1335.643677
303.195892 2960.222656
303.200897 5680.399414
303.205902 7936.911621
303.210907 4596.55957
303.215912 2773.531982
303.220947 1128.463989
305.097015 1235.610474
305.102051 4809.06543
305.107117 8386.167969
305.112183 11309.322266
305.117218 9072.811523
305.122284 5090.193848
305.127319 1252.237915
313.046112 298.799225
313.051361 1717.506592
313.05661 7186.081543
313.06189 16973.277344
313.067139 27626.603516
313.072388 30516.103516
313.077637 20656.662109
313.082886 10513.694336
313.088135 2539.914551
313.093384 118.684006
314.051636 363.538025
314.056915 2393.276855
314.062195 8777.625977
314.067444 16383.674805
314.072723 23219.474609
314.078003 19816.115234
314.083282 11771.078125
314.088562 4312.935059
314.093842 687.093628
327.362549 1539.03833
327.368164 3152.091553
327.373779 3687.185791
327.379395 1599.899292
327.390625 449.237915
327.39624 3954.918945
327.401855 7633.644531
327.407471 7534.558105
327.413086 4157.409668
327.418701 1243.887085
327.424316 1017.718628
327.429932 2250.585449
327.435547 2973.917725
327.441193 2246.787109
327.446808 899.304749
329.093536 828.030762
329.099182 2224.675781
329.104858 4962.742676
329.110504 7698.949707
329.11618 7092.771484
329.121826 3359.691406
329.127502 1476.319336
341.054077 1299.211914
341.060028 2056.098389
341.06601 2202.233887
341.071991 1621.157471
341.077942 730.905701
342.053589 892.779602
342.059601 2193.052979
342.065613 3276.678223
342.071594 3350.178711
342.077606 2381.592529
342.083588 1129.608154
357.089966 5096.291504
357.096375 16305.320312
357.102783 27160.822266
357.109161 28587.501953
357.11557 18963.755859
357.121979 10247.280273
357.128357 14099.0
357.134766 30481.375
357.141174 47913.972656
357.147583 49000.019531
357.153961 30851.802734
357.16037 13453.945312
357.166779 1411.051147
373.133179 989.916382
373.140015 2365.681152
373.146851 3773.897949
373.153687 4325.53418
373.160522 3600.912598
373.167358 2098.062744
373.174194 785.960205
375.09549 956.745728
375.102356 2402.55542
375.109253 5809.875977
375.11615 8369.532227
375.123016 7637.891602
375.129913 3474.525146
375.13681 1594.512695
385.192352 1238.233032
385.199524 5297.70166
385.206696 9999.661133
385.213837 13952.09668
385.221008 11457.888672
385.22818 6711.860352
385.235352 2314.712402
385.242523 909.790894
388.156403 855.162109
388.163666 1864.378174
388.170898 2564.139893
388.178162 2508.196045
388.185394 1766.986572
388.192657 835.182861
389.108032 1653.623413
389.115326 5277.364258
389.122589 9520.563477
389.129883 13394.038086
389.137146 12067.5
389.14444 7423.809082
389.151703 3032.512695
389.158997 305.585632
399.190308 885.163635
399.197876 2283.424072
399.205414 4015.354492
399.212982 7538.929199
399.220551 4630.021973
399.228119 3178.478027
399.235687 1590.2052
400.213196 640.968445
400.220795 1777.425049
400.228394 3164.990479
400.235962 3928.598877
400.243561 3452.12915
400.25116 2052.971191
400.258759 734.069946
420.223816 1297.451294
420.231995 2093.762939
420.240173 2320.281494
420.248322 1857.008423
420.2565 1024.005859
422.742676 1153.188354
422.750916 2074.650146
422.759155 2403.20874
422.767395 1917.021729
422.775635 996.400696
424.7276 1532.949585
424.735901 2553.916992
424.744202 3121.581543
424.752502 2871.600342
424.760803 1942.939941
424.769104 876.181946
427.739655 792.876465
427.748016 2040.540283
427.756409 3127.480713
427.764801 3273.739014
427.773193 2334.243896
427.781586 1005.827759
428.722748 1415.881714
428.731171 3068.723145
428.739563 6314.885254
428.747986 8513.555664
428.756409 6958.570312
428.764832 2964.80249
428.773254 1201.568115
434.212311 1006.178528
434.220886 2324.81665
434.229462 3475.67627
434.238068 3643.300293
434.246643 2696.401123
434.255219 1315.486084
441.728821 1258.691162
441.73761 6230.143555
441.746429 12509.591797
441.755219 18577.878906
441.764038 16487.673828
441.772827 9912.854492
441.781647 3922.708008
441.790436 873.688477
442.716888 1305.714111
442.725739 5474.710938
442.734558 10885.657227
442.743378 16231.786133
442.752228 15127.688477
442.761047 9511.884766
442.769897 4248.049316
442.778717 1151.282837
455.724609 729.535461
455.733826 2042.834839
455.743042 3903.591064
455.752258 7094.442871
455.761505 4470.253906
455.770721 2696.023438
455.779938 962.094849
464.20816 1633.145386
464.217651 2543.745361
464.227112 3777.046631
464.236603 13323.727539
464.246094 47041.265625
464.255585 93847.398438
464.265076 142334.15625
464.274536 136508.96875
464.284027 86120.257812
464.293518 39541.390625
464.303009 10540.257812
464.3125 2857.466309
464.321991 2142.548096
464.331451 705.348633
464.729065 505.350189
464.738556 2305.14917
464.748047 8402.84668
464.757568 15880.353516
464.767059 22537.240234
464.77655 19508.585938
464.786041 11764.249023
464.795563 4647.290527
464.805054 1146.28833
478.210571 3654.153076
478.22049 4099.239258
478.230408 13532.821289
478.240326 50707.652344
478.250244 110533.375
478.260162 175013.703125
478.270081 183103.4375
478.279999 121286.484375
478.289917 61173.578125
478.299835 17816.666016
478.309753 5686.635254
478.319672 4210.575195
478.32959 3253.608154
478.333923 4181.33252
478.725616 162.630157
478.735535 2827.109131
478.745483 10595.894531
478.755402 19219.464844
478.76535 26232.388672
478.775269 21268.738281
478.785217 12538.458008
478.795135 4526.43457
478.805084 1213.797607
480.230225 584.420044
480.240204 1830.833862
480.250183 3413.249023
480.260162 4351.176758
480.270142 3962.841309
480.280121 2526.009277
480.2901 1019.789429
492.215881 814.893005
492.226227 2031.19751
492.236572 6623.024902
492.246948 14593.49707
492.257294 23077.175781
492.267639 24368.320312
492.278015 16027.246094
492.288361 7722.226562
492.298706 1818.12085
492.743256 1743.334961
492.753601 3183.690674
492.763977 3914.583984
492.774353 3375.727783
492.784729 1991.977173
492.795105 728.470825
494.240082 1234.950073
494.250519 2270.5896
494.260925 2881.515869
494.271332 2607.699707
494.281769 1608.343628
495.262665 1225.319458
495.273132 2371.017334
495.283569 3097.4104
495.294037 2837.329102
495.304474 1766.328003
501.227661 417.1745
501.238312 3570.92627
501.248932 8735.932617
501.259583 14342.727539
501.270233 15088.248047
501.280853 9981.109375
501.291504 5079.437988
501.302155 1583.133179
505.159149 1048.476807
505.169891 4186.808105
505.180664 8408.922852
505.191437 12842.666016
505.202209 12025.478516
505.212982 7250.96875
505.223724 2976.668701
505.234497 922.767639
511.538239 1167.809448
511.549225 2035.127441
511.560181 2405.593018
511.571167 1992.870728
511.582123 1070.785156
515.100098 1228.286987
515.111206 2163.958984
515.122253 2497.459229
515.133362 2001.049316
515.14447 1071.085815
516.088074 1286.94873
516.099182 3740.365479
516.110291 7057.337402
516.12146 9613.638672
516.132568 7590.489746
516.143677 4347.37207
516.154785 1488.861694
536.764954 1505.950806
536.776733 5767.841309
536.788513 11451.331055
536.800293 16988.220703
536.812073 15610.192383
536.823914 9743.092773
536.835693 4372.019043
536.847473 1184.726929
541.275452 1498.199585
541.287415 2528.628418
541.299316 2826.350586
541.311279 2167.360596
541.323242 1061.935059
541.753418 718.424438
541.765381 1860.644531
541.777283 4275.037109
541.789246 7453.996094
541.801208 8839.40625
541.813171 6520.984375
541.825134 2628.592285
541.837097 1092.234985
550.710449 105.733795
550.722717 5940.708008
550.734985 12397.557617
550.747253 15915.256836
550.75946 47077.464844
550.771729 165705.625
550.783997 358973.125
550.796265 567198.4375
550.808533 594497.1875
550.82074 394663.5
550.833008 199638.15625
550.845276 58575.648438
550.857544 18737.314453
550.869812 13366.619141
550.88208 8825.600586
550.894348 2949.289062
550.906555 606.059143
551.201111 2966.888184
551.213379 8347.476562
551.225708 7550.648438
551.237976 6254.564941
551.250244 5442.594238
551.255737 11864.694336
551.268005 38203.363281
551.280273 76054.859375
551.292542 115771.148438
551.30481 112877.445312
551.317078 71735.1875
551.329346 33375.6875
551.341614 8382.832031
551.353882 1883.362793
551.36615 1659.359863
797.349182 1194.804077
797.370544 2810.064941
797.391907 6786.184082
797.413269 9432.461914
797.434631 8416.425781
797.455994 5240.677246
797.477295 2159.343994
797.498657 872.224548
842.402771 1635.760742
842.425964 2546.741943
842.449158 2693.679932
842.47229 2056.866455
842.495483 1108.783203
983.449097 1199.442261
983.478333 2890.256104
983.507568 4352.442871
983.536865 4513.554688
983.566101 3247.196289
983.595337 1535.276611
987.467712 1631.769165
987.497131 3177.773682
987.52655 3994.840088
987.555969 3451.538818
987.585388 1991.003662
987.614868 639.641113
1001.443054 1306.148438
1001.473083 3428.468018
1001.503113 6475.551758
1001.533203 8722.640625
1001.563232 6617.063477
1001.593323 3644.482666
1001.623352 1328.106323
1011.067627 1003.459351
1011.098145 1860.90686
1011.128601 2255.228516
1011.159119 1928.942505
1011.189575 1127.724976
END IONS
