BEGIN IONS
PEPMASS=1120.77
CHARGE=1
MSLEVEL=2
SOURCE_INSTRUMENT=LC-ESI-Orbitrap
FILENAME=f.lfnothias/1901_fungal_symbiont_annotation_confirmation/Pure_compounds/Pure_compounds_mzML/LeucinostatinAandB_1uL.mzML;
SEQ=*..*
IONMODE=Positive
ORGANISM=GNPS-LIBRARY
NAME=Leucinostatin N observed in Leucin A/B standard dereplicator annotatiom M+H
PI=Dorrestein
DATACOLLECTOR=lfnothias
SMILES=N1(C(C(=O)NC(C(=O)NC(C(=O)NC(C(=O)NC(C(=O)NC(C(=O)NC(C(=O)NC(C(=O)NCCC(=O)NC(CNC)C)(C)C)(C)C)CC(C)C)CC(C)C)(C)C)C(C(C)C)O)CC(CO)C)CC(C1)C)C(=O)/C=C/[C@@H](CC)C
INCHI=
INCHIAUX=
PUBMED=
SUBMITUSER=lfnothias
TAGS=
LIBRARYQUALITY=3
SPECTRUMID=CCMSLIB00005435727
SCANS=2086
77.210541 2220.06665
84.080933 72032.203125
84.085861 4433.23584
106.385597 2953.282959
111.080414 54853.605469
112.075554 2810.354004
117.267563 2430.010498
125.10717 8090.159668
126.091286 5495.316895
141.935059 2211.419678
142.133575 6493.089844
194.153885 207249.046875
222.148956 116568.28125
222.170868 5112.953125
245.197525 4552.310547
305.223114 6069.908691
333.217499 26957.794922
351.227905 14270.367188
390.239227 16225.96582
408.250458 3190.903076
416.289978 6173.286621
434.301208 10073.298828
444.285126 40262.871094
462.297455 21747.947266
480.307648 3255.286865
529.341919 4202.60498
547.351379 23070.082031
565.359802 13124.938477
678.435547 3397.720947
791.528137 3568.985107
1120.767822 7471.746094
1125.401489 3492.933838
END IONS
