BEGIN IONS
PEPMASS=737.4
CHARGE=1
MSLEVEL=2
SOURCE_INSTRUMENT=LC-ESI-Hybrid FT
FILENAME=f.novakj/siderophores/Desferri_ornibactin_C8.mzXML;
SEQ=*..*
IONMODE=Positive
ORGANISM=GNPS-LIBRARY
NAME=Ornibactin C8 M+H
PI=Havlicek
DATACOLLECTOR=
SMILES=CCCCCC(O)CC(=O)N(O)CCCC(N)C(=O)NC(C(O)C(O)=O)C(=O)NC(CO)C(=O)NC(CCCN(O)C=O)C(=O)NCCCCN
INCHI=
INCHIAUX=
PUBMED=27956353
SUBMITUSER=novakj
TAGS=
LIBRARYQUALITY=3
SPECTRUMID=CCMSLIB00001059073
SCANS=1
159.076462 1077613.0
167.11792 1081703.0
173.496445 2550249.0
184.144485 1466755.0
191.066284 973306.0
199.071396 1232816.0
200.103027 1148530.0
200.139435 1537450.0
209.05571 1736957.0
210.624588 819309.0
212.139404 1008070.0
213.196167 1423921.0
214.180176 1181124.0
218.113586 2889857.0
219.061188 1601435.0
226.08226 985180.0
227.066284 2479335.0
227.17543 860792.0
228.097946 929031.0
229.165939 1590201.0
231.206726 3613914.0
239.113937 897330.0
244.092834 4630012.0
246.108475 2905039.0
247.176514 4431660.0
250.082275 1063911.0
253.165924 937314.0
255.170395 1809134.0
257.124542 927089.0
267.108795 1064331.0
268.092834 1678493.0
271.176544 887480.0
273.180939 2601102.0
277.09314 1534836.0
278.077148 1653133.0
281.160889 1034345.0
285.119415 2563506.0
288.345367 5129822.0
295.103729 3396733.0
296.087769 2701882.0
299.171417 1265480.0
313.114288 6139903.0
315.130035 998622.0
316.197937 4981287.0
317.201355 894201.0
331.124817 5917350.0
332.128235 1017198.0
334.208466 22893610.0
334.210052 1586702.0
335.211884 2919961.0
341.109161 1547332.0
349.135345 1675151.0
350.171021 1001679.0
359.11972 9743957.0
360.123016 1417326.0
368.181671 1929398.0
371.265289 1230661.0
373.219391 3190071.0
377.13028 6643737.0
378.133759 1044179.0
386.192169 6348693.0
386.203186 825653.0
387.195587 1089446.0
390.140808 2349314.0
391.229919 1312787.0
401.214264 993712.0
404.202728 3507255.0
408.151428 2012987.0
419.224792 874323.0
426.161896 2098340.0
427.167755 1883015.0
429.209351 1729121.0
436.146271 1250402.0
437.202972 1211293.0
443.188385 1476424.0
447.219727 10039235.0
448.203766 858821.0
448.223175 1798716.0
453.17276 1099292.0
454.156891 2052777.0
455.213654 1664986.0
456.172424 876565.0
461.199036 1245224.0
465.225616 882647.0
465.230316 35311204.0
465.233246 2679492.0
465.235016 1062052.0
466.233643 6732386.0
468.256378 1337120.0
471.183319 2023615.0
472.167358 1296549.0
472.240173 1160864.0
473.224182 3157848.0
474.182922 1527541.0
475.214569 2941677.0
489.194 2419768.0
490.250763 1625295.0
491.234711 3416420.0
508.2612 1480755.0
517.225159 1156450.0
524.246338 2020020.0
542.256775 5040849.0
543.260193 1070936.0
559.283325 1269140.0
560.267456 3815345.0
561.270752 874291.0
571.308533 1908483.0
576.262268 1008032.0
577.293823 2867227.0
585.288086 1146052.0
589.319092 930020.0
603.29834 1705907.0
607.329956 896878.0
613.282593 1635210.0
621.308838 2355845.0
631.293335 2787464.0
632.296753 866390.0
649.303833 4786752.0
650.307129 1097234.0
663.40387 1215842.0
683.371948 1225248.0
701.382751 2546578.0
702.386047 834714.0
719.393311 7473275.0
720.396667 2414643.0
737.396301 1111221.0
737.403809 17004228.0
737.411499 1089274.0
738.407104 5136694.0
1289.215942 879847.0
1557.472778 861412.0
END IONS
