BEGIN IONS
PEPMASS=642.332
CHARGE=1
MSLEVEL=2
SOURCE_INSTRUMENT=LC-ESI-qToF
FILENAME=P2_C5_conc_GE5_01_2423.mzXML
SEQ=*..*
IONMODE=Positive
ORGANISM=GNPS-LIBRARY
NAME=Cycloaspeptide A_130056 M+H
PI=Cichewicz
DATACOLLECTOR=Luzzatto
SMILES=CN1[C@@H](CC2=CC=CC=C2)C(N[C@@H](CC(C)C)C(N(C)[C@@H](CC3=CC=C(O)C=C3)C(NC4=C(C=CC=C4)C(N[C@@H](C)C1=O)=O)=O)=O)=O
INCHI=N/A
INCHIAUX=N/A
PUBMED=
SUBMITUSER=tal_lk
TAGS=
LIBRARYQUALITY=2
SPECTRUMID=CCMSLIB00000478489
SCANS=1667
91.054398 924.0
93.072083 408.0
93.597893 252.0
103.054642 476.0
105.069878 1408.0
107.048576 1312.0
109.065247 668.0
112.110191 340.0
115.054733 424.0
117.06115 600.0
118.040672 288.0
118.06443 2912.0
119.048508 1928.0
119.071983 4588.0
120.04435 23688.0
120.07618 540.0
121.045486 1844.0
121.065033 2748.0
122.067039 480.0
123.043587 400.0
131.071594 340.0
132.079498 852.0
133.08699 364.0
133.985062 328.0
134.058014 996.0
134.09729 180928.0
134.157181 288.0
134.317978 272.0
134.354858 264.0
134.475128 2860.0
135.067505 6944.0
135.099747 24796.0
136.067352 996.0
136.1017 1252.0
145.07692 332.0
146.022385 1016.0
146.059906 464.0
147.046341 336.0
148.039963 2708.0
148.076706 724.0
149.040329 1032.0
149.087738 392.0
150.091797 172752.0
150.290543 272.0
150.491943 1432.0
150.573761 308.0
151.094162 20760.0
152.094986 2028.0
152.305695 280.0
160.073975 492.0
160.108582 252.0
162.091095 37672.0
163.086899 32980.0
164.092239 3092.0
165.056244 552.0
173.070786 2504.0
178.085281 6924.0
179.089172 1240.0
179.116333 732.0
180.101639 1176.0
186.0905 304.0
188.080399 668.0
188.106522 920.0
188.142242 328.0
190.085999 14224.0
191.081665 44556.0
192.084091 4592.0
193.088913 600.0
196.091629 680.0
198.12442 772.0
201.064896 1584.0
202.072433 520.0
203.099274 308.0
204.103394 348.0
205.132675 8688.0
206.08017 1740.0
206.134201 1316.0
213.122177 352.0
214.124603 412.0
216.099838 1688.0
217.103775 328.0
219.072861 360.0
222.092361 584.0
224.068237 264.0
226.11908 400.0
229.082764 1612.0
229.171387 376.0
230.149963 544.0
231.089142 308.0
231.141815 340.0
231.186951 316.0
232.168091 496.0
233.128204 52784.0
234.130051 7508.0
235.137695 492.0
238.085037 1004.0
239.091919 308.0
243.105438 332.0
244.134827 724.0
245.16449 516.0
247.179611 20752.0
248.066467 436.0
248.183807 2948.0
249.185059 372.0
257.164124 992.0
258.162323 724.0
259.13855 280.0
259.17038 284.0
260.153259 348.0
263.174072 620.0
265.13208 564.0
266.080048 2848.0
267.084503 596.0
273.159363 292.0
273.195862 412.0
274.143463 11996.0
275.173401 6124.0
276.175293 1232.0
279.112732 748.0
280.114746 412.0
281.128784 964.0
282.12915 616.0
285.151123 1096.0
286.154327 3392.0
287.158386 940.0
291.114777 376.0
291.168427 1888.0
293.128296 684.0
295.144012 420.0
296.13797 496.0
297.123688 23128.0
298.125427 3756.0
299.128723 660.0
304.158813 556.0
308.128204 416.0
309.125641 516.0
310.130768 276.0
319.17041 256.0
322.154694 632.0
323.145599 456.0
328.202393 352.0
334.149231 392.0
335.133545 380.0
340.635773 272.0
346.210754 4912.0
347.212067 1092.0
348.2164 284.0
352.165466 65824.0
353.166656 14424.0
354.171631 1796.0
363.14621 268.0
366.177246 356.0
368.159607 13204.0
369.164246 2396.0
370.160614 908.0
374.192383 360.0
376.221802 352.0
380.158722 2304.0
392.191345 1512.0
393.196228 752.0
394.212708 1244.0
395.215424 968.0
399.200409 864.0
410.207855 2080.0
411.210114 744.0
421.2117 3100.0
422.214813 980.0
423.205994 372.0
424.267944 532.0
437.254059 428.0
438.249847 396.0
447.236145 316.0
452.254913 71380.0
453.257263 17584.0
453.326965 428.0
453.470795 400.0
454.257965 3516.0
455.262238 384.0
455.902161 448.0
465.249512 14820.0
465.324402 324.0
466.251984 4432.0
467.259338 692.0
470.19519 320.0
481.246124 364.0
498.195801 268.0
529.243347 9788.0
530.246277 2912.0
531.24762 708.0
571.288879 2948.0
572.29303 1244.0
598.342285 560.0
614.333801 2996.0
615.329712 892.0
624.309692 544.0
625.32312 864.0
626.319763 296.0
639.008728 316.0
639.083862 268.0
639.380676 288.0
639.799927 328.0
640.142639 340.0
640.723755 288.0
640.998779 336.0
641.068176 356.0
641.236511 372.0
641.295349 404.0
641.315247 472.0
641.480469 252.0
641.600464 504.0
642.161499 320.0
642.331604 208868.0
642.701538 452.0
642.795959 332.0
643.038513 428.0
643.164062 2756.0
643.230103 712.0
643.333252 137216.0
643.481445 340.0
643.742188 508.0
643.882263 312.0
643.919434 392.0
644.013306 584.0
644.160828 268.0
644.3349 23492.0
644.631165 516.0
644.684509 252.0
644.813538 280.0
644.980164 272.0
645.1026 384.0
645.335022 3744.0
645.569214 308.0
646.340332 696.0
646.542419 296.0
646.582947 324.0
646.687317 288.0
646.860596 320.0
646.926331 472.0
647.119995 268.0
647.395447 388.0
647.819641 316.0
END IONS
