BEGIN IONS
PEPMASS=765.309
CHARGE=1
MSLEVEL=2
SOURCE_INSTRUMENT=LC-ESI-qTof
FILENAME=f.Esposito/E-dendroides-ref/euphodendroidin L.mgf;
SEQ=*..*
IONMODE=Positive
ORGANISM=GNPS-LIBRARY
NAME=euphodendroidin L M+Na
PI=Litaudon and Paolini
DATACOLLECTOR=Esposito
SMILES=C[C@@]1(OC(C)=O)C[C@](O)(C([C@@H](C)/C=C/C(C)(C)[C@H](OC(C)=O)[C@H](OC(C)=O)[C@@H](OC(C2=CC=CC=C2)=O)C([C@@H]3OC(C(C)C)=O)=C)=O)[C@]3([H])[C@H]1OC(C)=O
INCHI=
INCHIAUX=
PUBMED=
SUBMITUSER=Esposito
TAGS=
LIBRARYQUALITY=3
SPECTRUMID=CCMSLIB00004680130
SCANS=1
69.032959 862.693115
71.048683 1488.667969
77.037888 917.862976
83.048737 611.69928
95.084808 984.573486
105.032806 24261.070312
106.03611 606.124817
107.084747 863.607117
109.100586 2749.363037
119.084274 728.447083
121.063713 489.682709
123.043175 1109.083008
123.079399 1843.813965
125.058601 661.164612
131.084015 635.09259
133.099762 758.096619
135.078766 870.846313
143.084122 651.253174
145.063507 636.051819
145.099838 520.150391
147.078995 966.793579
149.094543 748.895813
151.073822 489.091492
153.051559 522.934387
157.099426 1053.506958
159.079269 1530.619995
159.115036 1152.879028
161.094223 744.85199
161.130859 494.140503
163.073959 577.264282
169.099136 675.02417
171.078857 614.847412
171.115341 1758.892944
173.093887 790.071716
175.07402 1206.875
175.109711 659.320984
177.089417 752.605774
183.114639 510.578796
185.093933 882.781494
185.130432 641.238403
187.035248 492.700287
187.073685 2438.718994
187.109909 1515.540039
189.090042 622.828003
189.125839 1569.616943
195.115311 1365.022949
197.093704 557.68573
197.129211 689.993286
199.109665 921.925781
201.088913 599.587585
201.125687 562.513672
203.104645 522.431274
205.085129 927.079224
207.114487 819.316223
209.094009 919.424622
209.130829 1881.172974
211.110077 1061.432983
213.125854 1468.192993
215.068192 1993.56604
215.103317 970.687012
217.119919 499.800598
223.110352 1520.624023
223.146423 1448.937012
225.125427 1192.119995
227.105484 1407.187012
227.140839 1351.599976
229.083984 596.864319
229.11998 883.710999
231.136047 574.764099
235.109222 670.792603
237.126007 2115.814941
237.161697 3206.430908
239.140518 715.289001
241.120605 1223.801025
241.156494 1100.771973
247.09523 503.330505
247.146133 1881.78894
249.161118 646.776123
250.133606 690.715271
251.105515 554.049988
251.141251 2289.256104
253.120972 1242.029053
255.100388 605.101379
255.135803 1798.897949
255.171997 2282.491943
265.156921 14651.25
266.16095 818.083984
267.135468 742.096313
267.171906 517.777222
269.11499 711.460876
269.152069 2085.949951
271.130829 491.21701
275.140991 1718.311035
283.167542 12707.660156
284.17038 748.679016
293.151947 11505.389648
294.15567 933.063782
301.177765 2047.853027
307.166351 534.522522
311.162537 22281.320312
312.165833 1608.192993
315.133148 623.39032
325.177917 3231.314941
329.173004 6793.893066
330.175537 495.81601
333.144592 3134.670898
335.162018 660.191528
343.188782 1740.543945
353.173126 6942.187988
354.1763 556.345825
371.183258 7164.032227
372.186279 599.056274
375.154816 2643.230957
381.204254 715.134827
385.198334 1725.730957
387.193176 565.013672
389.193878 1151.359009
393.165466 6209.450195
399.21402 515.989624
403.194672 805.091675
413.194122 1623.832031
415.187866 919.357422
421.196014 1701.550049
431.203552 2073.840088
433.199371 983.229614
435.175659 4279.043945
437.173218 547.336914
441.224243 584.728882
453.186249 8700.618164
454.18866 753.854797
455.181 1972.655029
463.20639 3956.282959
473.214966 576.507019
475.208527 913.980896
481.217072 4102.423828
493.218994 489.204712
495.198822 1579.937012
497.191315 2359.224121
513.207642 1629.172974
515.201294 1793.464966
523.227905 7106.721191
524.230957 699.183228
525.223145 646.312988
541.237976 1661.395996
557.212219 7941.991211
558.215576 843.862488
575.222839 1036.712036
583.248718 12487.980469
584.251465 1589.092041
585.242859 7542.901855
586.245972 833.701904
617.234924 6775.195801
618.239136 873.870178
623.282532 1030.53894
643.269775 4717.999023
644.273682 598.525085
645.264771 55530.859375
646.267639 7446.009766
677.254211 1305.555054
683.303284 9893.993164
684.306946 1400.991943
705.284851 379176.6875
706.289185 46918.769531
765.305908 484888.5
766.310242 63260.140625
END IONS
