BEGIN IONS
PEPMASS=827.27
CHARGE=1
MSLEVEL=2
SOURCE_INSTRUMENT=LC-ESI-Orbitrap
FILENAME=f.daniel/Albis/151215_TAM/XA_meth_100_600-2000.mzXML;
SEQ=*..*
IONMODE=Positive
ORGANISM=GNPS-LIBRARY
NAME=E-Dehydroxy-Albicidin M+H
PI=Roderich Suessmuth
DATACOLLECTOR=Daniel Petras
SMILES=OC1=CC=C(/C=C(C)/C(NC2=CC=C(C(NC(CC#N)C(NC3=CC=C(C(NC4=CC=C(C(NC5=CC=C(C(O)=O)C(O)=C5OC)=O)C=C4OC)=O)C=C3)=O)=O)C=C2)=O)C=C1
INCHI=
INCHIAUX=
PUBMED=28876492
SUBMITUSER=daniel
TAGS=
LIBRARYQUALITY=3
SPECTRUMID=CCMSLIB00004681480
SCANS=361
246.166672 1.280824
246.75 8.4e-05
261.333344 0.334038
261.916656 2.3e-05
266.25 0.399174
266.75 3.2e-05
270.333344 0.593946
270.916656 3.9e-05
279.833344 0.443762
280.083344 2.05552
280.333344 1.383853
280.916656 9.9e-05
285.083344 0.230332
285.666656 0.85121
286.25 6.6e-05
291.333344 0.509221
291.916656 2.7e-05
293.416656 0.351898
293.916656 3.3e-05
297.166656 3.209343
297.833344 0.35235
298.416656 3.5e-05
299.083344 0.376095
299.583344 3e-05
305.25 0.432345
305.833344 3.1e-05
310.0 0.487901
310.583344 2.9e-05
314.916656 1.448625
315.166656 0.929105
315.75 7.1e-05
316.0 1.609725
316.5 9e-05
324.25 0.67239
324.833344 3.6e-05
325.916656 0.763723
326.5 4.5e-05
333.083344 1.67901
333.333344 0.56739
334.083344 0.307854
334.666656 2.8e-05
345.166656 0.791814
345.666656 6.9e-05
347.5 1.844638
348.166656 55.7771
348.916656 1.651973
349.166656 5.661208
349.916656 0.000141
351.25 0.798553
351.75 6.7e-05
363.25 0.442254
363.583344 0.333443
363.833344 0.421668
364.416656 3.1e-05
365.416656 0.374168
366.083344 0.644535
366.583344 6.2e-05
372.166656 0.832282
372.75 5.6e-05
374.333344 0.909757
374.916656 5.5e-05
402.916687 0.587089
403.5 4.5e-05
418.083344 0.362685
418.583344 2.3e-05
422.083344 0.448575
422.666687 3.4e-05
425.083344 0.943856
425.583344 6.7e-05
429.083344 1.319514
429.75 7e-05
436.0 0.565199
436.583344 5.1e-05
440.083344 1.227114
440.666687 7.9e-05
443.25 1.695903
443.833344 9.6e-05
451.25 0.1978
451.833344 2e-05
452.5 0.275876
452.916687 1.795626
453.583344 6.3e-05
454.25 0.540593
454.833344 4.6e-05
457.083344 0.378324
457.666687 1.097613
458.166687 5.8e-05
459.0 0.196266
459.5 1.2e-05
460.833344 1.210387
461.416687 6.3e-05
465.416687 0.218532
466.0 1.9e-05
467.25 0.330917
467.75 3e-05
469.416687 0.471886
470.0 3.4e-05
472.083344 1.391829
472.666687 9.5e-05
478.166687 0.299176
478.666687 2.3e-05
483.5 0.29153
483.916687 2.787265
484.25 0.689943
484.5 0.450669
485.083344 2.109867
485.5 0.206413
486.0 1.8e-05
486.333344 0.49882
486.916687 4.6e-05
487.416687 0.489895
487.916687 4.5e-05
489.166687 0.536278
489.75 3e-05
493.166687 0.446966
493.666687 3.4e-05
493.833344 0.274016
494.166687 0.535619
494.5 0.564822
494.666687 0.929395
495.083344 18.555399
495.416687 11.620114
496.083344 3.715762
496.333344 1.355333
496.916687 9.7e-05
497.416687 0.569834
497.916687 3.1e-05
500.333344 1.353741
500.916687 0.000112
502.083344 0.301805
502.583344 1.5e-05
505.833344 1.877264
506.416687 0.000107
507.75 1.860742
508.083344 5.145996
508.25 4.217558
509.0 0.000116
509.333344 2.475984
509.916687 0.000148
512.75 0.519659
513.0 0.957814
513.25 2.57972
513.916687 0.000111
515.25 0.224672
515.833313 1.1e-05
517.25 0.180284
517.75 1.5e-05
529.916687 3.130302
530.333313 5.017748
531.0 13.48536
531.25 20.964096
531.833313 2.123591
532.083313 1.070276
532.5 0.659329
533.083313 3.4e-05
534.916687 0.962119
535.5 7.7e-05
540.083313 1.82347
540.666687 5.4e-05
547.166687 0.832965
547.75 5e-05
548.333313 0.40645
548.833313 4.3e-05
557.166687 0.733855
557.75 0.275151
558.166687 0.744958
558.75 4.6e-05
569.25 0.428936
569.75 2.3e-05
572.5 0.46648
573.0 3.5e-05
573.333374 1.048295
573.916687 6.1e-05
575.083374 0.423748
575.583374 3.4e-05
576.333374 0.477046
576.833374 3.5e-05
578.583374 0.314616
579.166687 1.7e-05
583.166687 0.72889
583.5 0.285206
584.0 1.9e-05
585.916687 0.954612
586.416687 4.8e-05
590.166687 0.321288
590.666687 3.3e-05
597.416687 0.641505
598.0 3.3e-05
599.166687 0.519577
599.5 0.26813
600.0 2.4e-05
606.083374 0.648139
606.583374 3.8e-05
606.833374 0.352145
607.416687 2.5e-05
608.083374 0.252573
608.333374 0.464035
609.083374 0.389706
609.333374 0.822929
609.833374 5e-05
611.166687 0.560027
611.75 5.1e-05
612.75 0.204615
613.25 1.5e-05
617.5 0.503888
618.083374 2.6e-05
619.25 0.209625
619.833374 1.8e-05
623.083374 0.403972
623.583374 2.3e-05
625.416687 0.352372
625.916687 3e-05
627.25 15.632877
628.083374 1.245448
628.416687 1.792948
628.75 0.437233
629.25 2.4e-05
639.916687 0.755057
640.5 5.4e-05
642.166687 0.659598
642.416687 1.924831
643.083374 1.209806
644.166687 59.495678
644.916687 2.419243
645.25 8.773359
645.416687 7.469488
646.166687 1.427863
646.75 8.1e-05
648.916687 1.148762
649.166687 2.121303
649.75 8.1e-05
650.083374 0.373841
650.666687 1.9e-05
650.916687 0.237341
651.5 2e-05
653.166687 1.221446
653.666687 9.5e-05
655.083374 1.072642
655.666687 6.1e-05
657.25 0.346409
657.416687 0.228368
657.916687 1.5e-05
658.333374 0.406908
658.583374 0.533813
659.166687 0.82463
659.583374 0.390544
659.916687 1.00036
660.166687 1.168778
660.75 0.371956
661.083374 0.628279
662.166687 5.440262
662.75 0.706391
662.916687 0.979605
663.333374 0.859938
663.5 0.658137
664.083374 4.1e-05
666.25 0.967976
666.666687 3.588401
667.083374 13.956658
667.833374 2.045656
668.333374 1.760059
669.0 5.4e-05
671.083374 0.318902
671.583374 2.6e-05
673.416687 1.302133
674.083374 0.597176
674.666687 4.5e-05
678.333374 0.638017
678.833374 3.2e-05
684.0 0.472121
684.583374 3.6e-05
687.083374 1.506994
687.583374 0.000107
691.833374 0.667354
692.333374 0.520038
692.916687 2.7e-05
694.083374 0.415291
694.25 0.362128
694.833374 2.5e-05
697.166687 0.668911
697.75 3.7e-05
698.333374 0.83757
698.833374 5.3e-05
699.083374 2.108082
699.5 0.722539
700.0 5.5e-05
701.25 1.109562
701.833374 8.6e-05
702.333374 1.233458
702.916687 7e-05
708.416687 0.324006
708.916687 2.8e-05
711.166687 0.627331
711.5 2.081563
712.083374 0.000138
712.583374 0.789407
713.0 1.978614
713.583374 0.000135
715.166687 0.51659
715.666687 3.8e-05
722.833374 0.222233
723.333374 1.6e-05
726.166687 1.865055
726.833374 1.201722
727.25 0.990499
727.833374 6.1e-05
728.416687 0.468076
728.916687 2.6e-05
730.166687 1.863268
730.75 8.8e-05
731.0 1.053984
731.416687 0.449986
731.916687 3.8e-05
732.583374 1.246473
733.166687 6.4e-05
733.583374 1.623254
734.333374 0.674903
734.583374 1.672764
734.833374 2.786289
735.416687 0.000223
735.75 0.572296
736.333374 3.8e-05
737.416687 0.273864
737.583374 1.373178
738.0 0.656652
738.416687 0.841566
738.916687 4.9e-05
739.166687 0.833456
739.666687 4.3e-05
740.333374 0.634867
740.833374 3.4e-05
744.333374 1.08487
744.916687 7e-05
745.833374 2.527358
746.25 1.763475
746.833374 9e-05
748.333374 2.802307
748.916687 0.000134
750.083374 0.303886
750.583374 2.3e-05
754.666687 1.380627
755.5 2.5e-05
756.333374 0.609518
756.916687 4e-05
759.5 0.792688
760.0 6.4e-05
760.5 3.036731
761.0 0.0002
763.333374 0.398539
764.0 1.403198
764.333374 2.755996
765.0 1.258982
765.25 0.44215
765.833374 2.6e-05
766.833374 1.145967
767.416687 8.1e-05
768.0 0.673866
768.583374 4e-05
770.083374 0.402851
770.666687 2.6e-05
772.416687 0.597938
772.666687 0.699225
772.833374 0.569852
773.25 1.465894
773.833374 7e-05
779.333374 0.538786
779.833374 4.3e-05
780.916687 1.131125
781.833374 1.252133
782.416687 3.39121
782.666687 2.904302
783.25 1.98428
783.416687 1.440064
783.75 2.092876
784.25 0.986808
784.75 4.8e-05
785.083374 1.714905
785.5 1.983224
785.833374 0.308381
786.416687 1.8e-05
787.166687 0.435239
787.583374 1.708075
787.833374 0.85433
788.416687 6.6e-05
788.75 0.405578
789.25 1.917148
789.75 1.249782
790.0 3.096877
790.583374 1.16027
790.75 0.751851
791.25 3.346989
791.833374 2.953025
792.416687 0.000166
792.666687 1.95331
793.333374 8.3e-05
793.583374 1.413845
794.083374 7.8e-05
795.416687 0.958853
796.0 0.748591
796.916687 2.950757
797.416687 0.732681
798.0 0.615072
798.333374 0.493967
798.833374 2.5e-05
799.166687 1.767326
799.666687 3.070043
800.333374 6.2e-05
800.666687 1.665531
801.083374 1.019817
801.583374 5.5e-05
803.666687 1.519755
803.916687 1.243435
804.416687 1.44164
805.0 9e-05
806.0 0.257574
806.416687 1.470705
806.75 1.409906
806.916687 1.85901
807.583374 2.019127
808.0 2.211755
808.5 2.208479
809.0 2.529361
809.333374 5.746459
809.75 2.236647
810.083374 1.21488
810.416687 2.852152
810.666687 1.36466
811.166687 1.507355
811.833374 1.584802
812.416687 8.2e-05
812.75 0.249114
813.333374 1.8e-05
813.75 6.265395
814.333374 0.000355
815.0 2.273967
815.25 1.637057
815.75 9.9e-05
816.833374 3.131097
817.083374 0.944793
817.75 2.763745
818.333374 0.000134
818.583374 0.550169
818.833374 1.706664
819.416687 0.000126
824.833374 0.252566
825.416687 1.5e-05
826.833374 0.831443
827.083374 1.045823
827.25 0.659833
827.833374 3.2e-05
838.583374 2.525616
839.333374 7.9e-05
END IONS
