BEGIN IONS
PEPMASS=541.314
CHARGE=1
MSLEVEL=2
SOURCE_INSTRUMENT=LC-ESI-qTof
FILENAME=f.mernst/3DModels/spectral_data_ms2_v110.mgf;
SEQ=*..*
IONMODE=Positive
ORGANISM=GNPS-LIBRARY
NAME=Euphorbia factor L8 - Lathyrane diterpenoid - likely M+NH4
PI=Dorrestein
DATACOLLECTOR=mernst
SMILES=O=C(C1(OC(C)=O)C[C@]([H])(C)[C@H](OC(C2=CC=CN=C2)=O)[C@]1([H])[C@H]3OC(C)=O)/C(C)=C/C(C4(C)C)([H])C4([H])CCC3=C
INCHI=InChI=1S/C30H37NO7/c1-16-10-11-22-23(29(22,6)7)13-17(2)27(34)30(38-20(5)33)14-18(3)26(24(30)25(16)36-19(4)32)37-28(35)21-9-8-12-31-15-21/h8-9,12-13,15,18,22-26H,1,10-11,14H2,2-7H3/b17-13+/t18-,22-,23+,24?,25+,26-,30+/m0/s1
INCHIAUX=
PUBMED=
SUBMITUSER=lfnothias
TAGS=
LIBRARYQUALITY=3
SPECTRUMID=CCMSLIB00004678659
SCANS=842
93.06292 192.0
95.045364 736.0
97.065758 352.0
105.071663 456.0
106.070763 228.0
107.082352 1168.0
109.097855 1432.0
110.108788 204.0
111.104988 220.0
117.073219 292.0
119.082565 984.0
121.068459 2324.0
123.074692 6228.0
124.077438 252.0
125.061981 316.0
131.075867 320.0
133.096954 2448.0
134.100571 412.0
135.080582 3840.0
136.082397 248.0
137.095551 1064.0
139.111008 916.0
141.067673 156.0
143.083542 796.0
145.098068 2756.0
146.067719 536.0
147.08075 2744.0
148.080719 340.0
149.086823 3188.0
151.108841 17844.0
152.116089 1704.0
155.082397 840.0
157.089615 2428.0
158.090469 476.0
159.08316 4552.0
160.076309 524.0
161.092468 4256.0
163.107956 4220.0
164.111816 416.0
165.081085 468.0
166.078613 352.0
167.089081 560.0
168.079407 188.0
169.097473 2128.0
170.094177 204.0
171.091797 7120.0
172.09024 1384.0
173.101547 6788.0
174.103836 1096.0
175.095734 3988.0
176.085251 360.0
177.085266 1724.0
178.092117 384.0
179.096619 1408.0
180.076767 280.0
181.095963 3024.0
182.095688 436.0
183.111298 3124.0
184.116302 1000.0
185.093994 3700.0
185.872818 176.0
186.095078 848.0
187.101547 4048.0
188.085739 584.0
189.110168 3416.0
190.119888 344.0
191.103851 7640.0
192.104126 1260.0
193.099213 2912.0
194.105377 1312.0
195.112396 4948.0
195.223618 172.0
196.11084 1000.0
197.116562 7024.0
198.122635 1916.0
199.107132 5384.0
200.123367 904.0
201.106689 3884.0
202.096222 1392.0
203.121841 1876.0
204.06601 364.0
204.145935 436.0
205.096252 1296.0
206.106064 880.0
207.11261 14848.0
208.113739 3988.0
209.104202 11968.0
210.103745 2996.0
211.10788 10812.0
212.109421 2508.0
213.111145 6820.0
214.117828 1272.0
215.108353 2660.0
215.231827 224.0
216.131668 1308.0
217.113937 9752.0
218.114655 1512.0
219.112701 1664.0
220.111038 220.0
221.113174 2768.0
222.092346 1512.0
223.124084 7140.0
224.11792 3304.0
225.122314 21344.0
226.125748 3408.0
227.117065 7808.0
228.131378 1780.0
229.117081 4404.0
230.123474 796.0
231.102036 1244.0
233.128647 940.0
234.124695 2220.0
235.115723 8204.0
236.121124 2216.0
237.123367 6916.0
238.120819 2312.0
239.169601 10124.0
240.165863 2508.0
241.152908 2796.0
242.135117 852.0
243.128616 3908.0
244.125992 2304.0
245.11908 2328.0
246.113617 900.0
247.114746 592.0
248.128311 588.0
249.157898 18504.0
250.161057 4304.0
251.138382 31176.0
251.390442 176.0
252.13916 8780.0
253.122589 22536.0
254.123642 4408.0
255.132477 7604.0
256.14209 952.0
257.12085 2600.0
258.120758 928.0
259.142853 2420.0
260.141876 464.0
261.163818 248.0
262.129852 2340.0
263.131134 548.0
265.152039 1536.0
266.141907 1292.0
267.050079 212.0
267.169617 36908.0
268.171265 6780.0
269.164459 3536.0
270.127808 488.0
271.138947 5124.0
272.131775 520.0
273.140045 360.0
275.127747 180.0
277.152893 26376.0
277.549652 156.0
278.04776 180.0
278.154205 4564.0
279.166626 7440.0
280.159851 1720.0
281.13501 452.0
283.161346 3100.0
284.168152 320.0
284.259094 212.0
285.17746 15864.0
285.780243 204.0
286.17868 2464.0
293.141022 1720.0
293.36142 280.0
293.668701 212.0
293.881256 180.0
294.139252 392.0
294.813477 156.0
294.991608 316.0
295.162292 99968.0
295.348297 176.0
295.48761 328.0
296.16394 21028.0
297.175903 3780.0
298.18161 644.0
299.148407 348.0
307.144379 192.0
309.180603 592.0
311.156891 620.0
311.56604 1036.0
311.773773 604.0
311.916443 412.0
312.015839 280.0
312.156281 420.0
312.58371 352.0
312.724579 624.0
312.921844 1640.0
313.048676 3096.0
313.174225 499892.0
313.457001 2224.0
313.599396 1364.0
313.758514 1028.0
313.851624 1008.0
313.944702 844.0
314.032471 1160.0
314.177002 117964.0
314.362915 728.0
314.745911 504.0
314.859924 340.0
315.178741 10232.0
315.392761 176.0
315.550812 332.0
316.020416 168.0
316.181824 316.0
319.163605 168.0
325.898102 232.0
327.19165 708.0
328.194824 200.0
329.1745 172.0
331.188995 976.0
332.178406 184.0
337.165558 1236.0
338.168549 252.0
338.784851 196.0
339.193604 180.0
341.224609 240.0
355.18454 28036.0
356.18454 6468.0
357.192017 460.0
359.181915 424.0
373.196014 4240.0
374.196899 832.0
375.218323 172.0
395.611237 152.0
401.236786 516.0
402.236816 576.0
403.259216 212.0
406.245636 152.0
419.24884 164.0
421.233459 332.0
435.278259 220.0
439.262451 196.0
445.256165 632.0
457.651672 156.0
463.272339 3112.0
464.288849 1056.0
465.298157 180.0
479.363953 268.0
481.292419 1364.0
482.303345 564.0
501.155823 168.0
505.299744 192.0
506.312134 264.0
523.297119 784.0
524.301941 396.0
525.322998 652.0
538.984802 260.0
539.278809 384.0
539.887512 152.0
540.384949 264.0
540.756592 584.0
541.091431 700.0
541.305847 182156.0
541.588501 704.0
541.876648 868.0
542.308411 62984.0
542.810669 544.0
543.11084 176.0
543.311096 7372.0
544.307434 236.0
545.359558 256.0
592.686462 160.0
605.812561 204.0
688.836548 168.0
778.194519 160.0
END IONS
