BEGIN IONS
PEPMASS=840.497
CHARGE=0
MSLEVEL=2
SOURCE_INSTRUMENT=LC-ESI-qTof
FILENAME=f.MSV000078568/spectrum/GNPS_Dorrestein_Gerwick_Cyanobacteria/GNPS_Dorrestein_Gerwick_Cyanobacteria/Plate8/1648_008G4_GG4_01_13284.mzXML;
SEQ=*..*
IONMODE=Positive
ORGANISM=GNPS-LIBRARY
NAME=Apratoxin A M+H
PI=Dorrestein
DATACOLLECTOR=Luzzatto-Knaan
SMILES=CC[C@H](C)[C@H]1C(=O)N2CCC[C@H]2C(=O)O[C@@H](C[C@H](C[C@@H]([C@@H](C3=N[C@H](CS3)/C=C(/C(=O)N[C@H](C(=O)N([C@H](C(=O)N1C)C)C)Cc4ccc(cc4)OC)\C)C)O)C)C(C)(C)C
INCHI=
INCHIAUX=
PUBMED=
SUBMITUSER=tal_lk
TAGS=
LIBRARYQUALITY=3
SPECTRUMID=CCMSLIB00000424840
SCANS=2591
45.690502 208.0
47.49324 276.0
56.831833 184.0
89.352905 192.0
98.060936 192.0
100.110474 468.0
101.105591 148.0
101.119606 172.0
101.408012 204.0
112.043098 164.0
114.034294 180.0
114.166107 184.0
116.071869 748.0
127.019562 168.0
127.697876 176.0
128.107025 212.0
129.11647 192.0
129.929642 156.0
137.13298 440.0
137.176483 180.0
138.133896 144.0
144.065231 176.0
150.089554 188.0
155.148819 212.0
156.023392 140.0
156.101791 2544.0
157.107178 204.0
158.963165 224.0
159.249359 280.0
161.056381 196.0
163.100052 148.0
167.30809 224.0
169.130539 204.0
169.560471 208.0
171.061752 212.0
175.043961 140.0
179.06665 156.0
180.981323 184.0
182.062958 664.0
182.117615 1000.0
183.064209 208.0
184.06189 164.0
193.230591 216.0
196.077957 156.0
201.124405 188.0
207.067764 148.0
211.151672 192.0
213.157074 1072.0
214.16246 280.0
218.102219 192.0
222.115433 140.0
223.154816 160.0
226.119888 148.0
226.951309 248.0
231.163681 144.0
234.111282 168.0
236.121277 120.0
236.624222 168.0
237.141907 216.0
243.170013 2452.0
244.171097 508.0
245.087204 236.0
246.120377 164.0
250.085266 148.0
250.954712 180.0
264.126312 260.0
265.972565 172.0
266.138123 148.0
268.882263 156.0
269.136902 176.0
270.113342 184.0
270.206604 2040.0
271.209381 448.0
275.198029 216.0
287.168518 164.0
289.151703 180.0
290.188232 152.0
293.206726 196.0
295.166168 176.0
296.165466 172.0
304.373383 160.0
305.332489 224.0
307.202881 180.0
308.281738 184.0
309.180481 152.0
309.253967 140.0
313.281494 176.0
318.179474 156.0
318.243378 208.0
320.170654 156.0
320.203033 216.0
326.190552 156.0
328.222656 276.0
331.147278 1992.0
331.204224 200.0
332.151184 128.0
333.151123 188.0
334.417542 140.0
345.172058 152.0
353.218414 192.0
355.161407 424.0
355.251373 280.0
357.196228 104.0
359.141693 3252.0
359.217285 164.0
360.145264 828.0
361.139221 228.0
361.234436 184.0
363.147247 140.0
367.140533 180.0
370.680328 200.0
372.19162 208.0
372.224792 148.0
381.195709 196.0
387.132874 140.0
389.147827 196.0
390.24054 168.0
391.169128 140.0
397.135406 144.0
397.306702 7744.0
397.727661 120.0
398.205658 312.0
398.313385 1928.0
398.381805 172.0
398.604279 140.0
399.313873 648.0
400.201721 176.0
401.235138 188.0
401.869263 144.0
408.06723 160.0
409.389008 152.0
412.245056 164.0
417.202026 168.0
418.903015 172.0
420.525818 180.0
421.207672 144.0
421.338409 144.0
422.11496 184.0
424.916534 396.0
427.151306 156.0
427.200653 320.0
427.233582 148.0
428.218567 120.0
437.355164 160.0
440.357117 156.0
441.28479 156.0
444.19751 5652.0
444.285309 156.0
445.199829 1544.0
445.265564 196.0
446.196564 820.0
447.200531 192.0
451.304108 168.0
458.247772 144.0
459.339111 148.0
459.957214 144.0
460.978546 156.0
467.270905 280.0
474.316193 156.0
478.79129 168.0
482.361023 2028.0
482.413544 172.0
483.365875 1060.0
484.36026 280.0
485.288483 208.0
486.286011 328.0
487.290344 232.0
488.248596 140.0
488.349731 176.0
490.20755 164.0
492.258728 184.0
492.324982 160.0
495.266785 472.0
496.275421 440.0
496.356232 164.0
497.249939 152.0
513.277954 1132.0
514.276733 144.0
515.285095 276.0
516.062561 172.0
516.257019 276.0
518.253174 144.0
519.368408 164.0
536.332336 164.0
538.335266 128.0
538.713257 220.0
539.887268 196.0
554.329956 96.0
555.096375 176.0
566.87854 152.0
571.296997 2804.0
572.296143 864.0
572.360413 168.0
572.410339 140.0
573.296143 292.0
578.339722 140.0
580.328674 464.0
581.322449 188.0
582.30957 328.0
588.907898 216.0
598.324463 1032.0
599.326782 492.0
600.338867 144.0
601.342041 176.0
603.100342 164.0
610.338501 128.0
615.93457 156.0
623.311401 140.0
626.415833 164.0
628.298889 136.0
629.403198 144.0
647.354919 160.0
651.409424 188.0
652.413452 160.0
659.386353 168.0
665.44104 188.0
668.450012 152.0
674.745544 160.0
693.883789 140.0
694.47113 148.0
702.070679 144.0
702.853088 96.0
706.158325 184.0
707.424316 220.0
707.48114 144.0
709.467712 332.0
725.436096 452.0
726.428345 236.0
728.481689 140.0
735.773254 164.0
737.441284 156.0
739.438049 164.0
739.887329 236.0
740.661682 168.0
743.83374 216.0
743.99115 152.0
746.354492 152.0
749.723999 148.0
753.467041 144.0
754.483521 152.0
755.424133 236.0
757.433044 152.0
758.309692 156.0
771.415283 160.0
776.636841 184.0
781.11377 192.0
784.822754 160.0
785.107117 152.0
796.479797 152.0
797.148376 184.0
798.801941 144.0
818.382629 156.0
821.334595 172.0
822.439392 224.0
822.479431 320.0
823.482544 332.0
824.467407 288.0
825.059631 120.0
832.94281 168.0
835.535339 144.0
836.458984 208.0
837.379272 120.0
837.466675 100.0
837.535522 172.0
838.325989 276.0
838.535217 116.0
838.808228 116.0
838.97345 144.0
839.139954 108.0
839.267456 140.0
839.33667 136.0
839.455017 156.0
839.492126 264.0
839.569336 812.0
840.152771 128.0
840.202026 288.0
840.276062 168.0
840.369934 148.0
840.497009 28364.0
840.656921 252.0
840.747803 144.0
840.938416 180.0
841.106934 100.0
841.150818 236.0
841.346436 128.0
841.500061 13188.0
841.742981 156.0
841.846619 160.0
842.149963 132.0
842.289551 108.0
842.341797 168.0
842.389465 124.0
842.497559 5564.0
842.877136 148.0
842.980103 100.0
843.498108 1812.0
843.612061 128.0
843.650696 304.0
843.786499 132.0
843.945984 180.0
844.340149 164.0
844.497681 924.0
844.946472 144.0
845.246887 232.0
845.345886 212.0
846.035889 112.0
846.467529 160.0
1065.730713 148.0
1270.478027 196.0
1626.20752 200.0
1665.545288 140.0
1759.696045 148.0
1802.338745 180.0
1806.041504 156.0
1826.99353 264.0
1865.62207 164.0
1894.089844 228.0
END IONS
