BEGIN IONS
PEPMASS=958.47
CHARGE=1
MSLEVEL=2
SOURCE_INSTRUMENT=LC-ESI-Hybrid FT
FILENAME=f.novakj/siderophores/Desferri_ferrirubin.mzXML;
SEQ=*..*
IONMODE=Positive
ORGANISM=GNPS-LIBRARY
NAME=Desferrirubin M+H
PI=Havlicek
DATACOLLECTOR=
SMILES=C\C(CCO)=C/C(=O)N(O)CCCC1NC(=O)CNC(=O)C(CO)NC(=O)C(CO)NC(=O)C(CCCN(O)C(=O)\C=C(/C)CCO)NC(=O)C(CCCN(O)C(=O)\C=C(/C)CCO)NC1=O
INCHI=
INCHIAUX=
PUBMED=27956353
SUBMITUSER=novakj
TAGS=
LIBRARYQUALITY=3
SPECTRUMID=CCMSLIB00001059076
SCANS=1
145.877823 466052.0
147.561935 459825.0
152.506577 467148.0
156.090622 476252.0
160.414383 473596.0
166.717484 678786.0
166.849594 475057.0
166.982025 461275.0
168.102936 467067.0
168.834518 514272.0
169.259262 460832.0
171.606583 511032.0
173.405182 482680.0
173.496384 1334121.0
176.394196 493874.0
176.617767 495731.0
177.146133 461618.0
178.710205 486185.0
180.624756 548389.0
182.946777 486069.0
183.235474 474204.0
187.535583 542694.0
188.800903 471156.0
192.88353 496695.0
201.147446 463070.0
201.273148 486392.0
204.387146 464616.0
212.955276 471011.0
215.063126 467438.0
217.684692 488861.0
222.289886 877623.0
227.639709 507437.0
233.404205 511407.0
240.799957 479795.0
259.337891 597870.0
267.345215 498297.0
268.532806 482812.0
271.190979 494165.0
273.835724 516433.0
288.345215 8333737.0
288.433868 659184.0
314.549164 496897.0
320.7211 496501.0
327.673309 520989.0
359.082489 597069.0
362.166565 643030.0
373.207886 516382.0
392.26059 789125.0
400.4104 522702.0
410.27121 2751846.0
411.27478 659386.0
456.208923 531771.0
474.218842 1003357.0
475.519623 540809.0
485.260193 805446.0
540.826172 550332.0
581.302979 8335729.0
582.306091 1796334.0
583.508423 571854.0
586.271362 925993.0
586.282349 547874.0
604.292786 1418559.0
615.571411 557975.0
619.34082 547487.0
629.333374 719196.0
698.333801 568096.0
716.345093 1582754.0
728.317505 682939.0
768.275208 658879.0
769.320679 937761.0
770.291992 703804.0
770.328003 3195132.0
771.331482 692114.0
790.369812 639226.0
828.397156 2167753.0
828.408936 1745508.0
829.400024 845837.0
830.364014 618254.0
834.359009 1529086.0
846.419128 1561617.0
850.389648 604370.0
910.33783 738961.0
914.38446 911917.0
916.379883 744972.0
916.400879 2203687.0
928.349121 729240.0
940.348694 1708363.0
940.46051 1997548.0
942.364319 760325.0
942.394226 681976.0
942.415283 844768.0
957.333618 789520.0
957.388123 688325.0
957.40802 666051.0
957.426819 1519500.0
957.464783 789506.0
957.501953 845393.0
958.358704 1796303.0
958.375549 2200603.0
958.39032 3214067.0
958.411133 7371592.0
958.448608 2029096.0
958.470642 6179610.0
END IONS
