BEGIN IONS
PEPMASS=681.268
CHARGE=1
MSLEVEL=2
SOURCE_INSTRUMENT=LC-ESI-qTof
FILENAME=3b_15b-O-diacetoxy-7b-14b-O-dibenzoyloxy-5a-hydroxymyrsinol.mgf
SEQ=*..*
IONMODE=Positive
ORGANISM=GNPS-LIBRARY
NAME=3,15-O-diacetyl-7-14-O-dibenzoyl-5-hydroxymyrsinol M+Na
PI=LITAUDON/TOUBOUL
DATACOLLECTOR=Esposito
SMILES=C[C@H]1C[C@@]2(OC(C)=O)[C@]([C@@H](O)[C@@]([C@H](OC(C3=CC=CC=C3)=O)C=C[C@@H]4C(C)=C)(CO5)[C@]4([H])[C@]5(C)[C@@H]2OC(C6=CC=CC=C6)=O)([H])[C@H]1OC(C)=O
INCHI=
INCHIAUX=
PUBMED=N/A
SUBMITUSER=lfnothias
TAGS=
LIBRARYQUALITY=1
SPECTRUMID=CCMSLIB00000840355
SCANS=1
52.043201 11.125
55.054615 69.300003
69.033897 137.388504
69.30378 16.03125
69.966263 45.78178
77.039436 657.302002
77.074936 10.125
79.052971 79.290657
81.068405 36.777779
82.028374 16.07692
83.046585 41.719341
91.37394 18.11574
97.123726 15.2663
105.03376 5308.416016
105.115311 24.125
105.189796 25.03879
105.200981 20.0
105.229538 13.0
105.247391 17.01786
105.302147 34.200001
105.336838 20.94231
105.429771 73.01461
106.036049 76.889526
106.238701 15.36364
106.310333 18.25
106.364288 11.00961
107.083344 37.052631
109.063248 162.995407
119.083237 58.041672
121.064766 108.083801
123.166656 14.45
124.061935 13.78125
131.05069 110.776901
131.083557 153.529404
131.363571 23.160721
133.064819 59.148151
133.100143 131.938904
135.081177 147.414505
135.427567 26.04167
137.095657 99.605553
141.072693 178.322006
142.076859 40.027439
143.084518 359.6922
143.398849 18.013889
145.101562 422.083801
147.077393 78.010872
149.435425 46.492352
149.646927 54.715912
153.06839 169.800598
154.076767 109.001198
154.279358 10.04167
155.08696 215.688599
155.425751 11.01389
157.101334 204.982803
158.023697 12.05357
159.115601 50.656818
159.256409 18.375
165.088074 39.13044
165.544052 33.96011
169.101074 147.017502
169.37883 10.875
171.115768 20.027781
173.096405 1714.707031
173.173004 20.78241
173.362686 37.390629
174.239548 28.20455
175.111557 396.188812
175.185242 11.33333
178.231171 13.24039
179.069977 106.785202
179.084351 184.983795
181.101685 143.886398
181.521957 16.01786
183.076889 67.007141
183.571671 25.165541
185.467682 54.60976
187.03949 11.28125
187.077332 57.052631
187.112488 364.195099
187.344223 28.10714
187.496689 17.2663
189.087692 129.083694
193.099991 82.166237
194.108429 48.470749
195.079254 124.254501
195.117676 477.730103
196.260345 11.025
196.470627 13.675
196.94368 25.907261
197.094406 102.3311
197.133865 857.880981
197.195602 18.408331
197.55101 18.480261
199.113174 53.349998
199.830887 33.440479
201.053116 75.777939
201.08757 60.361111
203.085388 155.682693
203.121948 19.285721
205.102112 370.879791
206.106552 117.9067
207.077972 24.015631
207.111496 107.125
207.180115 31.69397
207.805267 42.190479
209.092209 105.285698
209.133972 61.013889
209.216919 22.066669
210.136734 63.50893
211.099823 66.878433
211.149338 110.202301
211.376968 18.02273
213.086136 18.005951
216.093552 28.17308
217.101212 142.265396
219.117844 234.000702
219.664642 16.28409
220.123413 54.5
221.045364 19.777781
221.070786 43.320122
221.132858 154.770493
221.736328 22.02083
223.148758 554.247986
223.570023 16.02273
223.660172 21.009609
224.156097 105.875
225.127655 566.413696
225.163818 189.228607
226.038162 22.160721
226.603622 10.32143
229.192169 58.0947
230.043335 34.695511
230.651703 116.880096
231.115799 47.240082
232.122513 205.604904
232.17485 11.24039
233.13237 80.222397
233.646164 16.33333
234.694504 14.28409
235.110107 332.366791
235.148911 590.453674
235.208313 21.81818
235.399612 13.16447
235.420975 43.470589
235.463684 19.045
235.672012 17.107759
236.030106 11.18382
236.738113 41.440479
236.790375 35.81686
237.124939 154.570404
237.163651 449.181793
237.212311 10.34722
237.626114 10.125
239.107941 12.45
239.143402 1479.567993
239.227524 16.02083
240.138367 58.840279
241.1259 28.04891
247.148148 1051.71106
247.237885 10.00658
247.501221 31.30682
248.07103 12.02273
248.13681 14.08333
249.165024 556.877625
249.242477 15.125
249.547714 11.05921
251.139084 38.708328
251.179062 147.242599
251.299057 21.390631
252.149399 38.532612
252.47554 31.5984
253.054916 25.0
253.159332 733.373474
253.314011 13.125
257.114136 83.045464
259.146423 272.976288
259.330505 10.92045
259.653839 22.222219
261.120758 69.815002
265.15976 1261.713013
265.643677 27.045
266.159607 61.453701
267.174744 401.978912
268.180664 79.001984
269.706818 16.005951
273.125549 78.414223
273.195251 10.14286
277.158997 977.483826
278.160217 52.222462
279.139557 115.456902
283.167328 22.816669
285.179688 71.546707
289.158142 222.723007
295.168304 787.732727
295.393768 31.471149
295.541687 25.92045
295.700684 18.605
295.979004 17.0
296.077118 29.164471
296.173523 55.00338
296.226562 19.240391
296.635406 42.689999
297.1474 128.161194
299.185974 127.273804
299.23053 11.0625
299.958923 31.026159
307.169525 164.121002
308.634247 22.005951
311.268158 15.79605
313.181885 114.025597
317.149048 285.340698
317.409668 43.13044
318.154816 109.601196
321.588257 15.29167
326.179779 113.111099
327.118439 33.347221
333.163605 84.326813
335.159058 62.09
335.445984 21.027781
337.176086 38.025002
341.151367 24.450001
346.311615 27.52083
355.365631 21.6
357.182617 62.336109
369.18399 176.467499
371.86911 21.4
373.112183 15.01786
373.202271 49.33654
377.175415 200.779404
378.359589 16.11574
388.194214 84.568176
389.220184 50.14286
399.195984 86.680557
399.456268 30.157049
400.596954 50.654411
411.169617 39.200001
417.204803 370.489014
417.417389 10.00735
435.214539 72.328949
437.193451 61.375
439.189545 771.129272
439.826447 25.52083
440.193451 62.63377
440.378479 42.656818
441.876862 33.281979
444.172058 143.565201
459.212799 56.4375
473.151733 22.00543
477.221649 108.930199
478.223907 32.81818
480.166504 14.00833
481.193359 24.125
494.283691 27.0
499.211517 1712.659058
499.357971 80.941261
499.675751 10.0
499.860748 12.25
500.214203 93.346313
501.234802 26.66667
525.438416 17.075001
531.209473 50.761909
543.257324 63.966949
559.232605 316.001099
560.229187 135.224594
561.226562 376.747498
561.427917 23.78125
621.245911 2035.067017
621.347961 13.32237
621.4552 40.36842
621.695007 30.450001
621.731995 17.322371
622.250366 181.673599
622.411133 76.796227
622.572021 43.080879
622.891235 12.55682
622.938477 16.004629
629.041382 21.360291
644.753174 53.917259
663.407715 21.285721
664.067993 15.40833
668.60791 19.05357
669.219971 14.03571
680.068909 50.603569
681.266052 6679.783203
681.401917 25.140631
681.497559 66.388161
681.535645 76.370613
681.648132 12.375
681.783447 45.026161
681.856018 23.05921
681.911377 14.40833
681.984131 34.714291
682.019836 16.007351
682.118958 31.645
682.183716 55.674999
682.272095 570.289429
682.341797 55.625
682.386902 24.55682
682.481506 25.6875
682.513977 50.8801
682.659485 24.778851
682.983887 64.432426
683.301941 12.16447
683.443115 36.041672
683.859985 80.0625
683.966187 20.132351
684.269226 54.34259
684.639893 13.32237
704.111572 10.92045
END IONS
