BEGIN IONS
PEPMASS=985.6
CHARGE=1
MSLEVEL=2
SOURCE_INSTRUMENT=LC-ESI-Ion Trap
FILENAME=f.vertmarie/CUM13APR19-2/CUM13APR19-2_H4_19.mzXML;
SEQ=*..*
IONMODE=Positive
ORGANISM=GNPS-LIBRARY
NAME=Molassamide M+Na
PI=Caro-Diaz, Eduardo
DATACOLLECTOR=Marie and Wildelis
SMILES=CCCC(=O)N[C@@H](C)C(=O)N[C@@H]([C@@H](C)O)C(=O)N[C@H]1[C@H](OC(=O)[C@@H](NC(=O)[C@@H](N(C(=O)[C@@H](N2[C@@H](CC[C@@H](C2=O)NC(=O)/C(=C/C)/NC1=O)O)CC3=CC=CC=C3)C)CC4=CC=C(C=C4)O)C(C)C)C
INCHI=
INCHIAUX=
PUBMED=45379965
SUBMITUSER=vertmarie
TAGS=
LIBRARYQUALITY=3
SPECTRUMID=CCMSLIB00005436084
SCANS=249
299.280701 6500.0
348.001587 5360.0
384.325439 2905.0
387.354614 5179.0
431.289307 22215.0
442.015625 28019.0
449.004822 2217.0
459.777954 4689.0
464.133362 10674.0
471.534607 9596.0
500.141296 7255.0
516.334961 2000.0
541.231201 5263.0
543.338623 32011.0
544.250732 6408.0
559.261963 76604.0
559.929199 3.0
561.495605 2681.0
569.446045 4241.0
603.375122 2637.0
607.94812 2486.0
621.168213 11374.0
626.48877 4451.0
632.396729 3688.0
647.274902 38098.0
648.186768 4686.0
660.340332 197670.0
663.042358 19108.0
665.385742 7216.0
673.288452 11288.0
674.156006 3836.0
675.550049 2651.0
686.606812 3640.0
691.302979 112572.0
692.242798 6488.0
697.255127 4339.0
708.168213 7071.0
709.472046 61314.0
715.180176 1893.0
718.711426 3610.0
723.236572 3169.0
725.34375 13783.0
726.315918 3369.0
736.506104 16822.0
739.367676 13947.0
743.391846 85991.0
761.744385 6834.0
762.367676 3753.0
780.294922 79405.0
782.567627 1939.0
798.431519 4533.0
806.450928 3642.0
809.724121 24384.0
824.335571 261609.0
826.101685 7899.0
832.250854 6675.0
838.206299 3507.0
840.491699 3495.0
842.533813 14742.0
844.368286 27557.0
850.41333 74395.0
851.065552 4.0
854.41272 29126.0
861.519043 7922.0
867.470947 22995.0
868.380859 1178242.0
869.06958 5474.0
872.461914 4102.0
878.809326 29321.0
879.562744 17617.0
884.520874 2553.0
886.389038 190370.0
897.38916 684541.0
905.429688 16909.0
913.641602 5535.0
923.400879 303725.0
924.275024 2199.0
931.136475 22611.0
939.208374 14008.0
939.91333 1.0
940.520264 8528.0
941.462158 1452128.0
942.117676 1710.0
949.261475 43672.0
949.975708 4.0
957.366699 84079.0
957.983521 2935.0
967.4552 1157857.0
968.283691 9.0
985.419556 197580.0
986.371826 3.0
END IONS
