BEGIN IONS
PEPMASS=1140.7
CHARGE=1
MSLEVEL=2
SOURCE_INSTRUMENT=LC-ESI-qTof
FILENAME=f.t3hdon/Network_20140411_round-2/mzXMLs_for_round_2/P2-H-08_P1-H-8_01_3435.mzXML;
SEQ=*..*
IONMODE=Positive
ORGANISM=GNPS-LIBRARY
NAME=Massetolide A (WLIP/Viscosin/Massetolide molecular family) M+H
PI=Pieter Dorrestein
DATACOLLECTOR=Don Nguyen, Alexey Melnik
SMILES=CCCCCCCC(CC(=O)NC(CC(C)C)C(=O)NC(CCC(=O)O)C(=O)NC1C(OC(=O)C(NC(=O)C(NC(=O)C(NC(=O)C(NC(=O)C(NC(=O)C(NC1=O)C(C)CC)CC(C)C)CO)CC(C)C)CO)C(C)CC)C)O
INCHI=
INCHIAUX=
PUBMED=
SUBMITUSER=t3hdon
TAGS=
LIBRARYQUALITY=3
SPECTRUMID=CCMSLIB00000081213
SCANS=703
173.125153 468.0
187.143036 336.0
197.126404 552.0
201.121262 2272.0
213.083633 1544.0
214.085236 344.0
219.130966 2108.0
227.17572 620.0
231.097458 348.0
241.191635 628.0
251.164413 368.0
256.226227 9376.0
257.230164 1688.0
266.207611 1276.0
269.185852 928.0
270.146515 1540.0
274.172089 768.0
280.165497 3272.0
281.16983 548.0
283.195343 408.0
284.220856 22824.0
285.223694 1984.0
287.195038 672.0
288.151947 2220.0
296.19635 3076.0
297.200867 352.0
298.171906 4200.0
299.170959 504.0
306.162506 424.0
308.157806 2172.0
309.167419 596.0
310.211884 1560.0
311.212799 392.0
314.204895 3108.0
315.205536 712.0
324.213593 336.0
326.170746 6988.0
327.172791 1620.0
328.215454 380.0
332.213867 2524.0
333.222443 528.0
338.206238 1176.0
340.21402 360.0
344.181488 1908.0
345.182159 392.0
354.168884 348.0
355.229126 584.0
356.220215 1072.0
365.213562 720.0
366.213715 368.0
368.185059 368.0
369.249084 960.0
370.231812 440.0
373.240784 360.0
379.230133 1448.0
382.272186 380.0
383.226837 2040.0
384.223816 744.0
387.253204 1192.0
388.252014 416.0
393.251984 496.0
395.203796 336.0
397.243927 2356.0
398.239532 496.0
399.285553 620.0
400.281555 384.0
401.233917 4392.0
402.238983 764.0
409.275696 1052.0
411.251984 692.0
412.24762 372.0
413.257385 4296.0
414.26593 892.0
415.257324 872.0
419.248505 3212.0
420.251251 1000.0
421.242188 900.0
425.235657 464.0
426.245941 384.0
427.291016 836.0
429.263824 340.0
431.211884 2812.0
432.215271 744.0
438.263184 416.0
439.254608 3068.0
440.254089 948.0
441.200439 372.0
441.308502 456.0
445.299988 968.0
448.241119 440.0
451.290314 560.0
456.27652 512.0
457.263336 1836.0
458.263947 388.0
465.316559 448.0
466.26236 996.0
467.264221 432.0
468.308044 908.0
469.308167 968.0
470.292053 632.0
475.28125 496.0
478.288757 2048.0
479.282684 480.0
480.287781 708.0
481.266571 352.0
482.231201 428.0
482.330933 504.0
483.316956 440.0
484.27298 912.0
485.26825 508.0
486.319366 968.0
487.311523 628.0
488.313629 460.0
490.265656 1048.0
491.258545 360.0
492.314728 680.0
496.298645 17680.0
497.302307 5084.0
498.299835 1420.0
499.280518 472.0
502.280884 752.0
508.274628 3056.0
509.271057 380.0
510.325165 1632.0
511.330109 416.0
514.314026 3580.0
515.317871 1156.0
516.315002 916.0
524.339844 540.0
526.283447 1772.0
527.294922 628.0
528.339355 1868.0
532.332031 12276.0
533.333984 2796.0
534.340942 1160.0
544.292175 760.0
549.479187 404.0
550.281067 352.0
551.354736 580.0
552.333374 708.0
561.326477 368.0
563.380066 912.0
568.302368 356.0
569.369995 772.0
570.346497 1020.0
571.352356 400.0
578.290405 512.0
579.342651 1392.0
580.333618 744.0
581.388916 6436.0
582.395752 2140.0
583.382202 740.0
587.35675 512.0
591.374207 1140.0
592.378052 420.0
593.382385 428.0
594.358459 464.0
597.355042 2112.0
598.374573 348.0
600.379333 408.0
609.382629 18108.0
610.386841 6364.0
611.385071 1964.0
612.385498 500.0
613.320679 752.0
615.368958 1764.0
616.364868 548.0
621.366211 640.0
622.358398 412.0
627.400635 3816.0
628.401733 1164.0
629.404968 340.0
631.325684 872.0
632.343628 372.0
639.372742 1460.0
640.37384 868.0
645.414612 13028.0
646.416748 3716.0
647.431152 764.0
648.408936 424.0
657.383545 992.0
681.39447 332.0
682.440369 904.0
683.435852 496.0
684.432983 344.0
690.379028 480.0
692.435059 940.0
693.425293 552.0
694.456604 376.0
696.414124 460.0
697.415894 348.0
698.409485 348.0
700.451965 908.0
704.457764 364.0
708.395874 884.0
709.38385 1016.0
710.442017 6052.0
711.444641 3180.0
712.461792 456.0
713.468079 340.0
714.42749 844.0
717.42041 348.0
722.466553 3860.0
723.465759 1724.0
724.473755 400.0
726.403259 1844.0
727.404907 596.0
728.451965 29300.0
729.4552 8568.0
730.455994 2708.0
731.453613 440.0
740.477783 3964.0
741.477844 1912.0
742.475525 644.0
744.406189 988.0
745.414917 436.0
753.454407 360.0
756.44519 348.0
781.51709 332.0
782.492188 408.0
791.493591 916.0
792.488037 628.0
809.501526 1676.0
810.503784 1104.0
811.494629 732.0
812.498108 472.0
821.483948 716.0
822.465027 656.0
823.468689 528.0
827.512634 1532.0
828.514587 968.0
829.507935 656.0
830.502258 340.0
839.485596 4108.0
840.486023 2556.0
841.495056 596.0
853.571472 436.0
857.498047 23404.0
858.501587 8496.0
859.498535 3052.0
860.502686 420.0
895.577087 504.0
896.56604 424.0
904.571045 800.0
905.569214 348.0
912.588928 340.0
922.585144 2124.0
923.586548 1556.0
924.585876 456.0
940.597534 1416.0
941.5849 1172.0
970.578186 372.0
991.604309 1080.0
992.604858 628.0
1009.612549 1824.0
1010.624573 1080.0
1011.620117 488.0
1027.629517 1388.0
1028.627563 660.0
1095.697021 400.0
1104.691162 940.0
1105.689941 664.0
1112.721436 1912.0
1113.719849 904.0
1114.721191 428.0
1122.700928 9380.0
1123.706421 5520.0
1124.705444 1952.0
1125.713745 544.0
1140.713013 30348.0
1141.711792 14772.0
1142.716187 5208.0
1143.722534 1244.0
END IONS
