BEGIN IONS
PEPMASS=1795.0
CHARGE=1
MSLEVEL=2
SOURCE_INSTRUMENT=DI-ESI-Ion Trap
FILENAME=Didemnin_Y_IT_1795mz.mzXML
SEQ=*..*
IONMODE=Positive
ORGANISM=GNPS-LIBRARY
NAME=Didemnin Y M+H
PI=Dorrestein/Moore
DATACOLLECTOR=Roland Kersten
SMILES=O=C(N)CCC(NC(=O)C(CCC(N)=O)NC(=O)C(CCC(N)=O)NC(=O)C[C@@H](O)CCCCCCC)C(=O)NC(CCC(N)=O)C(=O)OC(C)C(=O)N1CCCC1C(=O)N(C)[C@H](CC(C)C)C(=O)N[C@@H]3C(=O)N[C@H]([C@@H](O)CC(=O)O[C@@H](C(C)C)C(=O)[C@H](C)C(=O)N[C@@H](CC(C)C)C(=O)N4CCC[C@H]4C(=O)N(C)[C@@H](Cc2ccc(OC)cc2)C(=O)O[C@@H]3C)[C@@H](C)CC
INCHI="InChI=1S/C87H139N15O25/c1-16-18-19-20-21-24-54(103)44-70(109)92-56(31-35-66(88)105)77(113)93-57(32-36-67(89)106)78(114)94-58(33-37-68(90)107)79(115)95-59(34-38-69(91)108)86(122)126-52(12)82(118)101-39-22-25-61(101)84(120)99(13)63(42-47(5)6)80(116)98-73-51(11)125-87(123)64(43-53-27-29-55(124-15)30-28-53)100(14)85(121)62-26-23-40-102(62)83(119)60(41-46(3)4)96-76(112)50(10)74(111)75(48(7)8)127-71(110)45-65(104)72(49(9)17-2)97-81(73)117/h27-30,46-52,54,56-65,72-73,75,103-104H,16-26,31-45H2,1-15H3,(H2,88,105)(H2,89,106)(H2,90,107)(H2,91,108)(H,92,109)(H,93,113)(H,94,114)(H,95,115)(H,96,112)(H,97,117)(H,98,116)/t49-,50-,51+,52?,54-,56?,57?,58?,59?,60-,61?,62-,63+,64-,65-,72-,73-,75-/m0/s1"
INCHIAUX=N/A
PUBMED=22458477
SUBMITUSER=mcruesemann
TAGS=
LIBRARYQUALITY=3
SPECTRUMID=CCMSLIB00000075335
SCANS=45
499.266876 6.519659
501.369659 12.481633
502.29837 9.97295
503.250946 55.831043
504.009583 5.245286
506.048279 9.010097
507.230316 40.66618
508.201385 585.724792
509.149963 741.604797
510.297668 156.431396
511.358337 6.469096
512.014099 17.380478
512.590637 5.402524
513.286682 64.155998
516.325012 11.598288
517.114685 38.51049
517.674255 8.049045
518.200684 51.641415
519.197388 199.290695
520.144531 427.860931
521.19928 72.806671
522.179138 9.216345
522.963928 2.687243
523.478943 24.893824
524.249695 31.432983
525.238342 78.764687
526.164429 379.13382
527.170288 5.477908
528.38678 34.587597
529.389343 7.170602
530.253662 61.218086
530.992065 8.205888
532.324402 2.652875
533.253601 22.836765
534.210266 42.485588
534.727295 1.773058
535.30658 375.313812
536.235901 1715.644653
537.250427 1117.09314
538.230286 593.887329
539.191406 26.078478
540.221375 108.152534
541.409302 10.405907
542.342163 12.97745
543.320068 9.336514
544.231506 2.944776
545.272034 6.259342
546.405762 12.716785
546.95105 8.258056
547.477844 6.872954
548.219238 2.722098
549.178467 26.520628
550.267395 80.086304
551.290527 69.257156
552.269714 51.539375
553.306702 466.467499
554.27948 1273.530151
555.233643 939.040588
556.335876 51.00935
557.317017 21.526373
558.285339 230.419632
559.232178 19.152309
560.27533 49.227306
561.255493 43.264713
562.370117 19.695265
563.258118 27.576717
564.39209 15.060432
565.30304 13.288112
567.192505 42.179413
568.247314 130.894501
569.298157 17.620363
570.272339 40.355377
571.280212 107.532784
572.262878 529.429382
573.345825 17.219149
574.203552 16.770672
575.534729 5.930577
576.373413 18.385489
577.354492 109.628036
578.384888 169.342987
579.31189 218.961655
580.413147 26.41715
581.362061 18.337757
583.309875 3.302349
584.18396 13.979155
585.177124 105.858452
586.255554 55.207523
587.372498 256.099213
588.420593 21.437218
589.368652 5.727556
590.357727 4.655878
591.399475 10.210123
592.331238 36.56842
593.199829 39.822067
594.371948 46.710178
595.250183 344.236084
596.230957 398.970612
597.321228 4.754416
598.303284 11.502499
599.233154 2.534446
600.302368 6.642792
601.310181 90.86676
602.301575 132.037048
603.351318 123.01017
604.287964 96.214592
605.399597 55.460991
606.394775 32.33078
607.374695 24.75543
608.369629 167.43689
609.459839 106.711906
610.367188 77.163963
611.355896 6.332469
612.331848 103.030121
613.264832 41.691139
614.130981 159.162994
615.493774 6.74089
616.257812 29.568399
617.285583 33.632416
618.32428 602.901184
619.223694 609.226624
620.30011 163.935013
621.27301 73.335503
622.382202 41.383163
623.3396 30.911423
624.367188 14.187866
625.371582 48.275902
626.327881 12.996904
627.062805 25.912733
627.678406 40.295521
628.381958 29.28459
629.245361 180.344193
630.26123 307.286896
631.232483 289.529449
632.201172 175.571991
633.245789 42.818008
634.213684 19.999022
635.385437 539.941833
636.25177 873.131287
637.299316 487.806305
638.354431 74.455811
639.244568 37.471073
640.350098 8.82851
641.42041 9.28697
642.523376 20.164333
643.349731 12.237005
643.96167 2.724609
644.472656 14.206244
645.329773 126.735855
646.305481 991.163452
647.300659 1930.829468
648.333923 1119.090454
649.23407 316.204468
650.360657 46.903774
651.484985 49.865948
652.33252 27.089901
653.241577 540.80011
654.256653 67.123283
655.322998 138.670044
656.345825 41.412582
657.300354 20.112598
658.410889 2.103264
659.329773 10.561693
660.58374 9.401473
661.297729 34.587685
662.106262 19.643349
663.359497 2800.279053
664.250061 5700.908691
665.317261 1131.048462
666.294373 1232.8302
667.359375 115.385521
668.386658 35.775291
669.362122 28.7432
670.326782 8.45815
671.352051 32.661907
672.428772 25.523626
673.281555 42.920315
674.267395 34.879616
675.240173 46.766594
676.286133 52.637295
677.304016 25.378822
678.372803 69.073387
679.413025 29.719769
680.223938 26.583309
681.284363 3572.519287
682.292969 1505.585327
683.32428 1420.593506
684.28894 390.625946
685.239624 39.115829
686.310059 67.342705
687.344055 51.959423
688.299438 57.835274
689.283203 111.710693
690.269836 135.019287
691.216553 28.674261
692.318604 111.050056
693.282043 42.541489
694.325562 47.660721
695.277405 26.813715
696.41687 48.419346
697.390991 127.202034
698.486694 86.140793
699.284424 2701.67334
700.433594 94.611732
701.333557 725.439453
702.460999 18.749077
703.263062 121.4459
704.231323 100.464355
705.411499 357.629303
706.326294 579.489746
707.269104 728.016296
707.973877 10.771343
708.545471 1.546845
709.591736 28.312698
710.356262 72.279831
711.547058 18.1852
712.289001 26.080339
712.794067 6.676469
713.307129 23.540409
713.911255 13.955467
714.513062 48.624767
715.373718 598.808838
716.363159 103.20063
717.301331 23.878853
718.359985 27.922876
719.23938 70.267151
720.331482 180.246414
721.236694 214.593918
722.29718 76.652306
723.338501 1139.466797
724.292603 309.601593
725.569641 21.602789
726.493286 2.897102
727.333191 14.388471
728.422058 94.103073
729.337219 322.776978
730.364746 141.047119
731.487183 81.126648
732.343079 284.138519
733.358093 619.468506
734.450073 185.10582
735.598694 12.077951
736.409973 44.73571
737.37854 251.714371
738.279846 380.297424
739.534973 8.921944
740.361511 46.454357
741.310913 150.106308
742.517578 64.031471
743.498535 46.729912
744.458008 25.348682
745.403687 26.996641
746.351074 542.794373
747.316528 479.41983
748.333435 138.604675
749.3302 90.523819
750.087158 16.419487
750.64624 45.127625
751.394836 36.724503
752.457031 79.697777
753.386047 14.778148
754.293152 54.283375
755.273804 800.916138
756.320679 27.788939
757.368347 115.340744
758.33374 311.789795
759.371948 197.352432
760.475037 269.21814
761.517456 38.791996
762.383484 65.586777
763.460693 126.618073
764.332642 719.357849
765.404053 299.932007
766.358215 83.013809
767.451843 34.470242
768.427185 21.525703
769.392883 30.231327
770.515747 99.636612
771.36853 55.340611
772.199585 244.398727
773.32428 130.42131
774.381348 82.224915
775.384705 456.123779
776.360291 697.53064
777.353333 182.905121
778.380371 664.541321
779.399475 73.175789
780.35907 244.12854
781.380005 86.958168
782.359375 153.078415
783.340759 242.111359
784.346375 81.545685
785.483215 55.800007
786.336914 74.581207
787.438721 54.748821
788.40863 857.573975
789.338257 277.183563
790.31665 229.524048
791.390137 231.265335
792.360046 209.687622
793.400391 678.65564
794.350342 893.576538
795.49884 24.5508
796.147522 50.519909
796.672729 22.250401
797.271973 49.611137
798.356567 2596.979248
799.245605 159.28363
800.363037 274.98407
801.314026 326.873779
802.42218 90.40345
803.402039 201.092667
804.322021 63.705318
805.402039 105.973106
806.41748 2899.329834
807.400146 320.009003
808.452515 47.351997
809.282715 123.217316
810.460999 488.540466
811.407288 1396.979736
812.385925 76.646225
813.115906 5.510532
814.357666 33.000633
815.473633 138.548126
816.397278 2953.594238
817.375183 1006.204468
818.284668 792.449036
819.340027 81.511391
820.370728 188.573029
821.443787 579.132202
822.325012 87.172089
823.372864 131.332733
824.276001 958.826599
825.472961 92.393356
826.38385 135.733658
827.653442 33.23835
828.412109 3110.060791
829.387939 76.204666
830.420471 38.201504
831.348145 49.343929
832.485596 53.178715
833.420715 588.072327
834.371277 2854.108154
835.323975 2135.655762
836.309753 108.350723
837.433716 49.453335
838.45929 170.630127
839.356262 46.098194
840.165833 10.661465
840.960266 18.033436
841.640747 14.804172
842.468445 43.543236
843.397278 618.045105
844.50769 92.616318
845.346802 15.272957
845.847839 3.380806
846.679443 11.555664
847.408813 41.934116
848.264099 37.966682
849.396973 61.960861
850.477905 510.322418
851.407654 843.56073
852.354431 3690.886719
853.486389 58.772694
854.417908 59.500168
855.286926 37.83353
856.357361 107.834366
857.345947 24.061495
858.497803 19.459352
859.437927 125.466179
860.429443 108.757729
861.506042 242.70253
862.403015 64.626022
863.545715 4.864729
864.651428 15.483656
865.423523 22.919668
866.329956 57.112045
867.833435 156.421127
868.41626 533.017151
869.448242 69.367142
870.544617 130.696548
871.504639 338.06427
872.438232 89.670685
873.393677 80.636642
874.446655 108.87487
875.341553 106.725914
876.438965 40.512978
877.401733 81.062897
878.458679 29.516726
879.575562 37.92569
880.569092 15.80854
881.234863 33.792416
881.752991 3.630297
882.401794 46.828342
883.085205 27.729849
883.642273 12.361546
884.513428 10.407435
885.455139 276.776123
886.402283 591.766479
887.425354 254.096298
888.517334 960.042542
889.425964 1666.987061
890.440796 199.889771
891.370117 17.907959
892.362305 84.266899
893.439636 98.764671
894.486267 91.091637
895.352417 27.729338
895.93042 37.584682
896.773315 78.19371
897.510986 21.683249
898.533691 220.315338
899.420959 649.845947
900.34552 101.517403
901.386841 32.76804
902.387634 52.830902
903.419922 784.927185
904.396912 1485.722778
905.390015 183.603027
906.427979 1108.769043
907.522766 184.151657
908.483521 45.163116
909.249512 61.658909
910.271912 353.375519
911.510376 160.892731
912.362244 21.586679
913.197876 57.47757
914.460144 47.433411
915.427124 127.682838
916.482788 4333.860352
917.443176 5326.858398
918.524109 118.850777
919.508179 52.450428
920.409729 59.450001
921.459229 977.538696
922.414795 1028.44812
923.394531 58.841358
924.439941 218.387436
925.495605 111.726097
926.442688 185.91507
927.37262 1005.914001
928.341919 352.392548
929.486511 33.310875
930.629456 24.06255
931.44165 184.032654
932.399475 144.948563
933.439392 439.979156
934.455261 9639.612305
935.435913 614.586304
936.521667 42.00589
937.621094 20.73888
938.493347 45.020065
939.423096 478.546478
940.330566 117.734756
941.098145 9.674381
941.972351 7.364159
942.665344 51.225525
943.480286 1278.638306
944.452087 3117.078613
945.368469 2080.022949
946.402649 41.117699
947.356812 23.673826
948.350952 94.84436
949.459656 283.439453
951.303772 768.401611
952.4552 1426.79895
953.460693 117.440178
954.428711 324.421112
955.458862 54.512821
956.451965 68.671707
957.488159 134.78009
958.464111 29.37705
959.531311 16.143555
960.232483 30.918055
960.819397 143.352142
961.456421 7057.268555
962.369019 10382.671875
963.460144 105.800194
964.387451 26.200687
965.429016 55.450588
966.516113 109.26757
967.510132 63.473785
968.591187 9.037166
969.488159 22.395248
970.035156 26.693199
970.575073 23.088541
971.43988 517.370239
972.450256 278.963898
973.547607 52.055832
974.509888 20.770514
975.308838 13.865993
975.811523 12.298298
976.497681 53.186844
977.387329 132.480225
978.529846 289.057343
979.402527 26392.460938
980.429749 147.50592
981.590271 31.695345
982.465332 39.708412
983.276489 70.338165
984.432739 37.14901
985.558594 47.381874
986.440369 8.702839
987.54126 37.605175
988.323914 7.81047
989.482971 239.995651
990.565979 39.347961
991.548828 22.747078
992.394104 18.14015
993.376343 76.827362
994.595459 2.246034
995.406433 26.814993
995.983398 27.529066
996.636658 35.831963
997.437988 23.057024
998.481934 87.12899
999.444885 262.115692
1000.434998 154.43605
1001.440186 94.453415
1002.788391 51.36092
1003.597046 36.632881
1004.385132 30.494617
1005.45697 23.637714
1006.314392 5.239841
1006.871094 6.901309
1007.495667 17.959827
1008.54248 30.820396
1009.56189 42.225464
1010.514893 55.757336
1011.666443 22.757399
1012.642639 40.396381
1013.520203 203.199677
1014.471069 323.200684
1015.473328 157.89595
1016.563416 732.54248
1017.453674 1317.345947
1018.463074 115.742241
1019.48645 64.832977
1020.506592 25.858969
1021.453247 29.280416
1022.441406 106.989838
1023.387695 29.19449
1024.674561 25.770538
1025.567383 47.719795
1026.517578 164.658447
1027.460693 783.396851
1028.444702 219.410889
1029.39563 70.065506
1030.565552 112.929977
1031.491943 761.997498
1032.426025 225.894501
1033.407349 107.517418
1034.469727 679.790649
1035.40686 89.631134
1036.483521 28.079008
1037.497925 26.512028
1038.509766 16.791912
1039.477295 131.11702
1040.592529 816.144287
1041.512695 47.202694
1042.451904 106.843613
1043.454956 94.205101
1044.528198 2885.625244
1045.475952 4888.646484
1046.502441 143.17363
1047.396851 229.448868
1048.159668 8.917142
1048.860962 75.632057
1049.538208 247.504318
1050.54248 45.714737
1051.519531 32.483658
1052.493286 171.611496
1053.575684 30.660009
1054.530151 34.777344
1055.523682 40.002068
1056.355957 24.906906
1057.428345 101.431671
1058.564453 70.456879
1059.471924 348.63855
1060.454834 263.384979
1061.55127 229.49086
1062.460083 5652.381836
1063.495361 495.367859
1064.52124 39.711346
1065.338379 37.183849
1066.435669 152.646637
1067.482544 62.337482
1068.524536 34.127319
1069.307861 8.698215
1070.509888 32.171227
1071.400269 38.554043
1072.364746 40.395477
1073.463013 48.963951
1074.498169 83.980247
1075.453735 22.694006
1076.549072 182.274628
1077.484375 560.311829
1078.466553 76.032318
1079.570312 147.297638
1080.445557 1321.260986
1081.540771 86.875839
1082.468018 126.560921
1083.542725 34.316994
1084.514893 858.701233
1085.515503 21.849379
1086.49939 12.634321
1087.547974 17.748676
1088.530273 21.204861
1089.556519 24.645741
1090.420044 46.449703
1091.453979 91.943062
1092.511475 100.933937
1093.430054 17.070183
1094.44519 1226.076782
1095.055298 58.07531
1095.596924 40.934921
1096.419189 37.931675
1097.210449 27.484955
1097.791138 8.169463
1098.464966 25.973404
1099.055054 21.590572
1099.559937 106.648369
1100.564575 78.837868
1101.586426 22.444786
1102.467041 30.364397
1103.047241 2.713208
1104.012817 12.532588
1104.531982 23.143419
1105.339722 22.454521
1106.349609 16.411777
1107.487427 37.524094
1108.394531 21.688257
1109.454468 137.824387
1110.506958 138.902573
1112.001099 1044.752808
1112.542358 5908.196777
1113.459473 79.009056
1114.525269 29.607418
1115.546753 28.454483
1116.504395 49.474957
1117.458374 56.363903
1118.214111 15.603337
1118.768311 5.029195
1119.281128 15.510934
1119.837891 8.577151
1120.627563 22.026688
1121.588745 2.366146
1122.525513 6.436139
1123.580933 31.709513
1124.469727 53.885395
1125.383667 46.1768
1126.360352 175.373856
1127.496216 883.889282
1128.52356 486.856354
1129.545776 111.664803
1130.466797 80.856583
1131.420654 75.424606
1132.434692 21.643738
1133.466553 20.028297
1134.481567 12.782338
1134.994751 5.468906
1135.525024 16.241955
1136.37439 27.218618
1137.474976 166.431381
1138.500977 218.092682
1139.52124 56.884335
1140.473022 168.586105
1141.55542 134.788635
1142.481079 178.286316
1143.47522 144.72049
1144.569214 1356.349365
1145.497803 2789.060547
1146.52771 135.249969
1147.346436 16.076271
1147.862061 2.497347
1148.589722 42.511101
1149.423462 11.21181
1150.395386 20.004339
1151.672974 11.005987
1152.496338 78.222755
1153.421753 60.048103
1154.544922 292.619354
1155.527222 2922.900879
1156.54126 1000.547852
1157.573608 49.757153
1158.502319 86.422585
1159.560425 360.774536
1160.55542 98.549622
1161.515747 13.91507
1162.446289 1411.010986
1163.03186 88.689774
1163.581787 113.848137
1164.59314 32.43792
1165.300171 41.990822
1165.863159 57.551617
1166.50415 91.238213
1167.518799 100.027107
1168.563477 25.744997
1169.462524 42.333843
1170.511841 104.868484
1171.395386 59.2048
1172.511963 5583.915527
1173.494873 11062.80957
1174.48877 275.277222
1175.553345 218.602554
1176.675293 53.09922
1177.518311 157.222458
1178.637451 49.180523
1179.560669 56.435497
1180.561646 258.315033
1181.66333 11.200341
1182.459595 16.92314
1183.467896 407.964111
1184.477295 568.716125
1185.47937 195.277695
1186.544922 73.217697
1187.477295 164.406021
1188.512207 99.338112
1189.676392 59.135044
1190.519409 10481.31543
1191.475708 959.854065
1192.481323 78.158974
1193.483276 139.268799
1194.563843 181.609756
1195.558472 723.636841
1196.487305 75.928078
1197.452759 12.130165
1198.070923 7.382911
1198.588989 16.339983
1199.418823 21.190872
1200.458374 71.076477
1201.493896 3100.810059
1202.473755 2028.793091
1203.47583 148.821213
1204.550537 558.316467
1205.515869 1435.944214
1206.685303 53.163586
1207.692749 16.175667
1208.497925 1313.897339
1209.464966 151.438187
1210.551392 214.117706
1211.569336 57.699944
1212.53186 581.545288
1213.689209 43.795208
1214.588257 24.731125
1215.406128 38.02998
1216.046509 11.448598
1216.619629 6.206836
1217.510986 61.504368
1218.560303 74.688004
1219.508911 13644.547852
1220.387451 1405.933472
1221.421875 71.477676
1222.501953 4119.437988
1223.486694 7233.830078
1224.415771 93.398773
1225.578613 36.321869
1226.451904 96.348503
1227.419312 180.280075
1228.628784 164.222275
1229.575562 16.759602
1230.505371 18.09907
1231.060425 7.178198
1231.621704 11.369361
1232.546021 75.331543
1233.468384 82.888695
1234.433838 21.850039
1234.958008 2.676097
1235.536865 21.871655
1236.519287 41.134659
1237.490356 5717.981445
1238.098633 195.422379
1238.686157 104.46328
1239.606567 188.186371
1240.531982 19514.570312
1241.191528 224.968887
1241.713257 95.128151
1242.741821 47.467991
1243.931763 17.15637
1245.539062 79.916389
1246.266968 6.187817
1246.843262 13.995065
1247.62915 10.06722
1248.534546 54.227001
1249.728027 50.469555
1250.529419 162.197678
1251.467041 17.343678
1252.550049 122.26281
1253.441284 129.89949
1254.560547 70.435989
1255.505249 141.925186
1256.555786 33.250443
1257.412842 5.801761
1258.254517 30.206923
1258.847412 19.189548
1259.609985 31.575855
1260.515137 23.798706
1261.779541 17.276745
1262.636353 1.484509
1264.592773 29.735613
1265.400757 27.763083
1265.909058 1.553114
1266.525146 34.613705
1267.516846 254.940353
1268.494873 25.743088
1269.588501 329.984131
1270.567749 501.104553
1271.498779 192.489914
1272.619263 101.714638
1273.57959 75.789612
1274.223389 2.228941
1274.736694 22.925949
1275.486816 8.541963
1276.084229 6.682582
1277.623535 7.234696
1278.603149 17.646841
1279.587402 10.752588
1280.266113 10.297895
1280.973145 17.506109
1282.580444 125.360909
1283.506226 150.609756
1284.508179 125.549103
1285.658813 24.67082
1286.392212 22.077147
1287.561768 826.438721
1288.499268 264.042938
1289.561157 124.025436
1290.647217 23.9058
1291.617188 20.27013
1292.753784 13.187435
1293.406006 3.433554
1293.908813 4.07063
1294.71106 11.895639
1295.453247 11.254101
1295.956543 4.421548
1296.583252 34.420902
1297.510376 57.926125
1298.458984 26.798641
1299.473145 24.138172
1300.599243 421.995575
1301.62793 392.369995
1302.546265 42.397484
1303.17334 14.166118
1303.790405 61.086266
1304.688477 80.690628
1305.562622 293.177551
1306.828857 63.030251
1307.683105 33.059338
1308.45166 16.434458
1309.12207 5.580817
1309.817261 5.842282
1310.868286 9.219337
1311.53418 14.522375
1312.708374 16.403564
1313.668091 50.404785
1314.582397 280.470337
1315.525391 134.888321
1316.520508 74.022087
1317.363647 1.810762
1317.865723 16.904751
1318.617676 312.905823
1319.602051 151.205658
1320.609375 69.206932
1321.514404 95.90374
1322.576782 275.156525
1323.60083 478.593903
1324.631348 60.802948
1325.271606 30.146225
1325.790405 34.853626
1326.598389 40.173294
1327.616699 29.37542
1328.831787 11.382927
1329.693604 17.56962
1330.770264 18.363493
1331.615845 108.147453
1332.658569 569.868835
1333.59668 717.88916
1334.621704 184.471939
1335.757324 44.30722
1336.600586 41.925983
1337.640747 98.792336
1338.604614 31.027185
1339.669189 144.983505
1340.575684 486.010101
1341.624512 106.70858
1342.611084 191.500641
1343.55188 116.284576
1344.636963 27.471483
1346.580444 16.669983
1347.609985 39.320202
1348.545532 44.67313
1349.48999 96.126068
1350.612671 3887.887451
1351.565063 5835.97168
1352.614746 94.064926
1353.643188 22.712368
1354.533203 53.257618
1355.758423 30.755526
1356.610107 90.449287
1357.585083 1710.372437
1358.650757 381.343475
1359.616211 133.29213
1360.54834 262.796753
1361.476685 21.526871
1362.076172 7.325611
1362.590088 10.264891
1363.426392 13.257129
1363.941528 16.925051
1364.614502 22.699963
1365.661987 66.737961
1366.583984 92.991982
1367.549561 81.253036
1368.537476 10013.69043
1369.069336 409.355194
1369.662598 220.749573
1370.70105 102.016602
1371.676514 25.786991
1372.638062 54.372845
1373.509155 45.933067
1374.674072 520.195679
1375.585938 1985.396606
1376.627563 89.067856
1377.35791 4.372727
1377.899658 23.967686
1378.660278 38.075977
1379.653442 37.168163
1380.575684 51.428394
1381.263794 32.919495
1381.853149 58.014217
1382.597778 59.303699
1383.578613 177.774368
1384.61377 62.557968
1385.346436 90.45433
1386.541748 2679.982666
1387.684692 25.431183
1388.53479 6.198936
1389.109497 21.710176
1389.780151 42.216076
1390.734863 26.657017
1392.534424 1404.776733
1393.70105 56.430496
1394.461792 16.029537
1395.758179 10.129902
1396.65979 28.315105
1397.687622 55.06897
1398.679321 29.104916
1399.546387 116.289337
1400.578125 20.633224
1401.583496 16.972488
1402.546021 6.572308
1405.036133 3.452778
1405.593994 11.019336
1406.595581 23.632092
1407.588379 46.298447
1408.712402 96.390617
1409.502686 55.886131
1410.026123 55.962208
1410.621826 132.611801
1411.545288 89.401299
1412.803955 25.882113
1413.321655 2.880626
1413.909058 1.027715
1415.500732 103.470978
1416.549438 77.125893
1417.570923 58.067635
1418.540649 35.469452
1419.642456 23.707354
1420.466187 22.526169
1421.265015 8.504052
1421.960693 6.162611
1422.729492 3.826125
1423.591309 2.976031
1424.625366 158.676132
1425.62915 566.701843
1426.62439 555.261963
1427.662842 170.36116
1428.665039 338.896606
1429.6427 202.088409
1430.637573 11.007073
1431.629395 6.006673
1432.669189 56.651588
1433.697632 56.283779
1434.664429 136.697159
1435.663696 227.86969
1436.587524 316.197388
1437.617676 135.491196
1438.676025 16.209524
1439.950806 3.051825
1440.482788 15.199226
1440.989868 4.712611
1441.734863 47.397171
1442.637939 3184.014893
1443.643066 2710.678955
1444.660767 1060.250488
1445.677734 71.13559
1446.557983 1301.48877
1447.730225 41.830666
1448.648071 7.210087
1449.806396 11.672478
1450.624512 131.725677
1451.642578 631.038696
1452.679688 1160.618652
1453.624023 2396.424316
1454.689941 1013.481445
1455.707031 37.025089
1456.740845 20.230143
1458.136108 17.857759
1458.667236 53.449627
1459.181885 1.765158
1460.623047 21423.916016
1461.722168 2140.295898
1462.63562 1034.739258
1463.690063 211.599609
1464.787476 80.491959
1465.534424 19.108768
1466.53186 26.228062
1467.553589 46.047626
1468.603882 727.884827
1469.234009 52.788433
1470.619141 21347.568359
1471.621094 13008.064453
1472.656372 351.932159
1473.665894 19.482943
1474.803467 50.187065
1475.665283 11.898507
1476.585938 27.806837
1477.762695 154.582184
1478.650024 7792.234863
1479.613647 15171.128906
1480.683228 103.979599
1481.645508 828.056458
1482.749634 52.280754
1483.702881 180.995651
1484.721558 29.60379
1485.702637 127.236183
1486.681641 386.828613
1487.663696 569.849426
1488.589355 87859.828125
1489.163696 2913.601318
1489.756104 898.281372
1490.783691 234.162277
1491.794922 24.122423
1492.767578 2.730168
1493.717285 29.958784
1494.604126 118.331757
1495.887573 592.21582
1496.604126 29304.65625
1497.637817 273.226074
1498.606567 41.018867
1499.619751 181.529602
1500.577271 23.254652
1501.362793 24.146477
1501.953247 34.500088
1502.634399 106.062714
1503.516846 16.673134
1504.686035 33.880882
1505.923706 46.657856
1506.623047 725.627441
1507.686035 1085.604614
1508.698364 606.151123
1509.740479 91.85466
1510.733276 17.820034
1511.532104 177.707779
1512.54187 48.175095
1513.890381 15.840774
1514.635254 203.152664
1515.390137 5.575686
1516.820679 9.258368
1517.720947 23.632637
1518.657837 87.089493
1519.53479 5.147016
1520.231567 10.605636
1520.737061 19.050354
1521.631836 29.264263
1522.401611 10.882911
1523.038452 3.227952
1523.695068 54.386429
1525.140625 724.561218
1525.703125 6083.3125
1526.695801 595.016174
1527.756226 24.93292
1528.692017 17.474915
1529.677368 279.459381
1530.99585 4.659988
1531.721313 3.287016
1532.484741 8.603396
1533.366455 7.056572
1533.904907 18.481567
1535.692383 5.308741
1536.619019 53.242851
1537.685303 20.313967
1538.69519 97.300331
1539.587036 54.122456
1540.160522 30.583019
1540.783203 63.676571
1541.73938 130.689346
1542.729492 65.296135
1543.663086 10460.008789
1544.254272 230.353745
1544.897461 63.217155
1545.783447 9.132803
1547.789673 11.317625
1548.475708 7.461184
1549.115601 20.601007
1549.760498 105.821365
1550.636353 153.787048
1551.652832 71.474449
1552.766724 30.178034
1553.756592 26.384182
1554.775391 4.174669
1555.879272 10.644173
1557.689697 106.664215
1558.947754 15.558202
1559.687378 48.168686
1561.57959 8.481123
1562.663818 17.842541
1563.97583 9.961639
1565.70813 63.286606
1566.609985 58.72752
1567.665527 1856.814453
1568.621216 673.938599
1569.694214 100.942001
1570.617188 40.420193
1571.543823 26.488047
1572.147583 28.684538
1572.908203 13.205246
1575.822266 75.457138
1576.780762 46.592873
1577.865356 9.207558
1578.804443 14.073365
1579.783936 18.345194
1580.596558 16.32107
1581.202271 7.486921
1581.915283 24.579268
1582.468872 20.954363
1583.023804 12.099231
1583.65686 98.291695
1585.126831 771.383911
1585.7323 3043.976807
1586.680176 203.123505
1587.504028 53.980778
1588.569824 166.186264
1589.684204 123.913719
1590.759766 80.688293
1591.578247 18.621508
1592.719727 36.417248
1593.754517 97.9394
1594.716553 116.755882
1595.676514 4.314817
1596.376465 16.965508
1596.96936 47.677849
1597.882446 19.518362
1598.661377 18.725323
1599.410645 2.076862
1600.063721 14.625996
1600.806274 19.039257
1601.634399 454.418243
1602.741699 121.757935
1603.680298 994.877441
1604.678467 67.605537
1605.341919 21.289562
1606.660278 575.03363
1607.687988 488.667175
1608.715332 173.395859
1609.774536 179.391815
1610.750732 19.240246
1611.674683 143.857864
1612.363647 1.797034
1613.640137 23.049082
1614.442505 6.017134
1615.381714 8.738338
1616.497681 3.360596
1617.495728 25.765022
1618.130127 2.785885
1618.683594 30.869452
1619.613037 200.133362
1620.681519 559.968994
1621.67334 172.277115
1622.515259 22.55711
1623.027832 3.73984
1623.740723 13.505583
1624.716553 563.173645
1625.707153 491.358887
1626.831787 280.684448
1628.775635 2.790254
1629.619995 25.92263
1630.611328 45.623505
1631.658569 44.106743
1632.679321 29.258377
1633.880615 10.868086
1634.834839 8.997439
1635.713013 31.639938
1636.976074 76.953377
1637.727783 1946.081543
1638.761963 904.77301
1639.784424 42.525455
1641.775391 2.797475
1642.90918 1.0484
1643.635132 163.692871
1644.716919 37.626381
1645.648315 23.324623
1646.217529 25.53907
1646.721436 81.148659
1647.712524 67.195686
1648.704956 366.435089
1649.702637 136.834549
1650.637817 21.625059
1651.681152 70.304672
1652.922363 112.347801
1653.720825 56.761887
1654.849854 8.844713
1655.437622 20.124525
1656.104858 18.147396
1656.800781 104.217148
1657.767944 2.898926
1658.548584 6.680393
1659.13623 2.32744
1659.839478 12.595375
1660.83252 7.853094
1661.950806 115.015541
1662.858032 70.868637
1663.742065 519.305908
1664.807739 221.846527
1665.784302 471.594269
1666.753906 746.365234
1667.920166 55.060997
1668.633423 10.036156
1669.641479 494.428375
1670.160034 63.534977
1670.728638 10.054851
1672.568604 5.343997
1674.617554 7.954196
1675.138062 14.410893
1675.966187 21.032032
1676.915771 21.721201
1677.917358 39.103199
1678.587769 31.617058
1679.679443 500.785034
1680.780884 2547.043213
1681.741211 3889.322266
1682.78186 84.13208
1683.673218 30.05979
1684.231323 3.404953
1684.818237 1.019022
1686.952759 11.280606
1687.856445 9.587833
1688.698853 10.671442
1689.792725 10.348995
1690.730835 24.745337
1691.680298 2.156118
1693.619385 10.732048
1694.120361 15.249247
1694.62207 19.307653
1695.664429 40.819233
1696.654175 34.694592
1697.650391 3825.010498
1698.155151 321.424805
1698.794922 114.227203
1699.545532 1.376051
1700.766602 2.347911
1702.244141 8.662706
1702.818237 1.119437
1703.884521 8.108723
1704.870605 30.194237
1705.676758 25.076771
1707.145752 22.079428
1707.857178 2.389476
1708.90918 1.000628
1709.90564 4.964904
1710.501831 2.337786
1712.861084 2.881559
1713.432861 44.215359
1713.981812 38.134403
1714.787598 106.978973
1715.85437 69.565758
1716.769531 23.655285
1717.917603 7.221747
1718.744385 10.186584
1719.703247 6.286258
1720.931519 16.382055
1721.891602 25.049818
1722.801636 91.42363
1723.780029 96.177292
1724.588989 58.487114
1725.139282 11.760485
1725.742432 20.37011
1727.131592 3.158975
1728.702637 5.319716
1729.267212 7.710954
1730.412109 182.423187
1731.027222 268.18161
1732.063354 133.590729
1732.838135 594.217957
1733.829956 226.12178
1734.659058 37.111488
1735.473022 34.462299
1737.191284 15.885432
1738.462158 11.447854
1739.095703 12.224899
1739.80835 20.923275
1740.708862 189.873032
1741.739136 1033.505127
1742.833374 371.921783
1743.785278 72.333923
1744.545532 1.413879
1745.359985 4.791288
1746.673584 2.810362
1747.36853 9.342306
1748.042847 13.002472
1748.815308 824.162537
1749.813477 3854.840576
1750.839111 4371.269531
1751.863281 88.816811
1752.682373 10.63031
1753.194214 10.359985
1754.375488 17.115292
1755.036987 2.559703
1756.050415 2.707354
1756.823975 54.358231
1758.073853 518.340088
1758.8302 7921.970215
1759.817017 6588.623047
1760.762451 2799.406006
1761.857788 95.837845
1762.885376 24.903976
1763.949707 3.664883
1764.872192 212.131241
1766.806763 100365.875
1767.832764 921.875427
1768.851685 4.433223
1772.420288 12.261705
1774.724731 188.168488
1776.198608 1899.677612
1776.846436 15917.305664
1777.840454 7008.800781
1778.953735 75.383545
1780.502808 4.695271
1794.235962 3.632078
1799.1427 3.433928
1826.776855 2.63292
1834.658081 14.669403
1851.0 1.011121
1855.545532 1.060425
1861.772217 2.119084
1863.501953 4.804144
1900.862915 3.868737
1917.363647 1.12291
1918.225708 3.377349
1920.181885 1.270089
1930.385254 6.875195
1931.109009 11.313467
1934.416504 2.443676
1938.013306 6.592031
1954.760376 2.768027
1974.322021 3.476498
END IONS
