BEGIN IONS
PEPMASS=1235.74
CHARGE=1
MSLEVEL=2
SOURCE_INSTRUMENT=LC-ESI-qTof
FILENAME=f.philipwi/0_WilliamsFreshwaterCyanosStandardsConvertedTo_mzXML_v2/PW-10_v5_P1-B-1_Puwainaphycin_A_1234amu_01_15616_Scan564-587.mzXML;
SEQ=*..*
IONMODE=Positive
ORGANISM=GNPS-LIBRARY
NAME=Puwainaphycin A M+H
PI=Philip Williams
DATACOLLECTOR=Williams
SMILES=CCCCC(=O)CCCCCCCCCC(C)C1C(C(=O)NC(C(=O)NC(=CC)C(=O)NC(C(=O)NC(C(=O)NC(C(=O)NCC(=O)NC(C(=O)N(C(C(=O)N2CCCC2C(=O)N1)CC(=O)N)C)C(C)OC)CCC(=O)N)C(C)O)C(C)O)C(C)C)O
INCHI=
INCHIAUX=
PUBMED=
SUBMITUSER=philipwi
TAGS=
LIBRARYQUALITY=3
SPECTRUMID=CCMSLIB00000424829
SCANS=573
59.264595 116.0
86.449203 68.0
96.453987 52.0
109.020409 64.0
142.232468 96.0
153.074249 28.0
157.410477 36.0
163.153397 116.0
166.102524 120.0
167.088455 116.0
168.088715 124.0
169.066101 408.0
169.5271 40.0
171.124329 132.0
172.327164 64.0
175.108994 332.0
176.104752 100.0
177.104309 120.0
178.061264 128.0
179.052231 76.0
179.171661 64.0
181.101776 112.0
181.190933 64.0
183.031754 24.0
183.115189 224.0
183.843277 108.0
183.947006 40.0
184.116074 116.0
184.292984 48.0
184.951233 36.0
185.097809 392.0
185.194031 32.0
185.289459 24.0
185.645386 64.0
186.01033 52.0
186.094269 356.0
187.103088 128.0
190.013321 132.0
192.013123 72.0
192.543457 24.0
193.012527 32.0
193.101089 84.0
194.13884 128.0
194.352066 24.0
195.078873 376.0
195.544662 24.0
195.830002 48.0
195.990601 64.0
196.061996 68.0
197.096481 96.0
197.591217 36.0
198.129196 168.0
199.118744 80.0
201.806839 56.0
202.119247 296.0
202.913086 28.0
203.111145 212.0
204.113419 112.0
204.787888 24.0
205.399521 48.0
206.091003 192.0
206.259155 24.0
206.433121 32.0
207.091446 136.0
207.230682 24.0
208.063339 80.0
209.092102 436.0
211.109375 60.0
211.269333 28.0
212.108322 716.0
212.670685 40.0
213.096512 112.0
213.349823 28.0
214.094238 68.0
215.122528 80.0
216.077209 24.0
219.114319 164.0
219.293625 80.0
220.153458 76.0
220.50354 24.0
221.132858 108.0
221.74527 40.0
222.124069 204.0
223.113419 308.0
224.010147 44.0
224.108261 488.0
224.239182 24.0
224.506531 40.0
224.661102 44.0
225.091476 324.0
226.115295 96.0
227.108276 156.0
227.804108 32.0
228.989014 36.0
229.133728 52.0
229.52951 32.0
229.983627 24.0
230.117416 1772.0
230.39949 24.0
230.554321 32.0
230.62207 24.0
230.718887 44.0
231.116028 36.0
232.129929 92.0
233.097153 212.0
233.248764 104.0
233.808136 44.0
234.022614 28.0
234.120361 96.0
234.241302 104.0
234.988998 36.0
235.085007 88.0
235.146133 192.0
235.248322 104.0
236.118423 108.0
237.122894 248.0
237.428391 44.0
237.585571 40.0
238.126602 464.0
239.111847 108.0
239.534973 36.0
239.880386 24.0
240.008743 32.0
240.137375 480.0
240.464874 24.0
241.125412 860.0
241.656525 112.0
242.119705 576.0
242.305298 32.0
243.14093 152.0
243.527283 24.0
244.136627 332.0
245.031677 44.0
245.125061 100.0
246.046753 40.0
246.120499 76.0
247.125 104.0
247.241791 96.0
247.311966 64.0
247.994095 40.0
248.114563 52.0
249.129715 104.0
249.381317 144.0
250.129074 820.0
250.267929 36.0
250.560455 172.0
250.7724 60.0
250.923828 36.0
251.111282 1980.0
251.627777 48.0
251.733398 36.0
251.889359 36.0
251.973618 28.0
252.102585 1756.0
252.309082 36.0
252.440735 32.0
252.636246 56.0
252.785187 36.0
252.98793 96.0
253.112106 260.0
253.261749 580.0
253.606781 32.0
253.860626 24.0
254.11174 104.0
254.256866 56.0
255.01976 24.0
255.15889 96.0
256.12677 416.0
256.681702 32.0
257.018829 40.0
257.137939 112.0
257.744934 28.0
258.128265 80.0
259.146545 152.0
259.682739 24.0
259.960144 76.0
260.145172 76.0
261.143402 80.0
262.124969 80.0
263.249054 168.0
264.131287 96.0
264.253204 64.0
265.116425 112.0
265.262085 152.0
266.126984 172.0
266.23941 176.0
266.87265 24.0
266.985474 32.0
267.149292 308.0
267.339722 84.0
267.44397 24.0
267.936951 56.0
268.134003 1712.0
268.268707 10692.0
268.474365 64.0
268.565765 80.0
268.601288 40.0
268.738159 24.0
268.860077 36.0
269.126709 5604.0
269.269135 3096.0
269.430206 36.0
269.62085 60.0
269.752747 44.0
269.847687 32.0
269.966827 72.0
270.126801 1132.0
270.274872 240.0
270.3862 36.0
270.685333 28.0
271.10791 796.0
271.356934 24.0
271.630035 36.0
271.787628 28.0
271.928467 40.0
272.134552 60.0
272.460632 92.0
273.158539 180.0
273.598175 40.0
273.988434 36.0
274.128021 140.0
274.915436 56.0
275.153839 120.0
275.541656 88.0
276.152527 132.0
276.473572 32.0
277.147766 84.0
278.112823 168.0
278.24646 60.0
278.948669 40.0
279.114166 256.0
279.226135 72.0
279.423584 68.0
279.513214 104.0
279.662445 84.0
280.123474 104.0
280.267395 948.0
280.98584 44.0
281.161774 200.0
281.260742 512.0
281.595245 36.0
281.734314 44.0
281.869019 68.0
282.132263 156.0
282.273315 172.0
283.011658 32.0
283.148743 276.0
283.287872 36.0
283.80307 32.0
284.145569 184.0
284.759613 32.0
285.153351 152.0
285.693146 112.0
285.944092 100.0
286.143616 464.0
286.375427 36.0
286.466766 60.0
286.731506 24.0
286.85968 32.0
287.051086 40.0
287.135284 1592.0
287.246246 36.0
287.330872 48.0
287.833527 132.0
288.143707 244.0
288.414917 60.0
288.526093 68.0
289.134552 192.0
289.43634 28.0
290.1091 120.0
290.250244 40.0
290.347992 36.0
290.858734 24.0
291.116241 332.0
291.238525 348.0
291.59845 40.0
292.097992 232.0
292.249207 268.0
292.522247 40.0
293.175476 124.0
293.253357 220.0
294.156342 96.0
295.14563 408.0
295.508331 28.0
296.140686 168.0
296.38562 28.0
296.511841 48.0
296.591034 84.0
296.779449 64.0
296.897247 60.0
296.988525 44.0
297.030701 32.0
297.140442 240.0
297.681976 72.0
297.929993 44.0
298.14743 116.0
298.278442 7028.0
298.42572 48.0
298.501465 28.0
298.661621 76.0
298.77179 40.0
298.966644 60.0
299.139832 132.0
299.279541 1376.0
299.455292 24.0
299.532532 44.0
299.709076 48.0
299.810242 36.0
299.985016 32.0
300.062317 24.0
300.166016 160.0
300.284302 216.0
300.415741 32.0
300.769409 24.0
300.857849 52.0
300.935272 76.0
301.023743 32.0
301.15274 1596.0
301.347321 32.0
301.532684 36.0
301.702423 36.0
302.15802 204.0
302.518646 32.0
303.116577 84.0
303.284119 108.0
303.361847 32.0
303.495087 44.0
303.639465 80.0
303.8172 52.0
303.894989 64.0
304.166992 160.0
304.651093 32.0
305.1297 108.0
305.441559 40.0
306.145081 212.0
306.556641 48.0
307.147278 152.0
307.908569 44.0
308.128662 144.0
308.258087 720.0
308.512878 36.0
309.125854 152.0
309.253448 148.0
310.143677 152.0
310.304108 80.0
310.913574 24.0
311.099976 96.0
311.175873 160.0
311.273346 56.0
311.824677 44.0
312.049835 28.0
312.152893 156.0
312.489136 40.0
312.62439 36.0
313.041534 52.0
313.156891 1272.0
313.594421 24.0
313.718597 32.0
313.83548 44.0
314.159882 348.0
314.452911 28.0
315.139862 92.0
315.163452 68.0
315.30127 36.0
316.048737 40.0
316.921936 60.0
317.133331 220.0
317.444153 24.0
318.109009 216.0
318.330658 24.0
318.608551 28.0
319.143555 176.0
319.97049 44.0
320.164368 68.0
320.289856 88.0
321.161407 140.0
321.625977 48.0
322.181396 108.0
322.307037 192.0
322.400726 148.0
323.146881 116.0
323.320129 64.0
323.767303 44.0
324.14209 144.0
324.298492 104.0
324.714264 40.0
325.018707 24.0
325.160767 576.0
326.15564 176.0
326.27594 556.0
327.134491 168.0
327.275909 260.0
328.135559 64.0
328.302185 80.0
328.394592 32.0
329.018677 24.0
329.149536 164.0
329.49292 48.0
329.759094 40.0
329.944336 36.0
330.17627 148.0
330.940857 44.0
331.165527 740.0
332.180298 300.0
332.450104 56.0
332.787231 28.0
333.158051 196.0
334.144562 408.0
334.743713 52.0
335.137634 596.0
335.265717 108.0
335.478851 40.0
335.630646 96.0
336.132172 64.0
336.28244 56.0
336.565552 32.0
337.145599 240.0
337.280518 100.0
338.175873 272.0
338.303741 56.0
338.615173 32.0
339.160248 256.0
339.303436 56.0
339.612976 32.0
339.836212 68.0
340.158875 284.0
340.294647 48.0
340.44754 32.0
341.147705 156.0
342.163574 220.0
342.438141 32.0
342.532532 24.0
343.170227 312.0
343.819672 28.0
344.159058 312.0
344.328125 84.0
345.286896 32.0
346.223267 88.0
346.626648 68.0
346.848236 48.0
347.065918 48.0
347.291595 24.0
347.505432 64.0
348.19043 84.0
348.425781 60.0
349.160431 144.0
349.322693 324.0
349.516571 32.0
349.862244 32.0
350.170166 216.0
350.313141 124.0
351.170929 420.0
351.306427 100.0
351.528076 44.0
351.939972 36.0
352.160889 1688.0
352.319641 116.0
352.461853 64.0
352.94519 44.0
353.152466 1544.0
353.317596 184.0
353.61615 24.0
353.748016 36.0
353.86792 44.0
354.155487 352.0
354.264801 184.0
354.359741 52.0
354.505035 36.0
355.169037 196.0
355.596771 36.0
356.173096 108.0
356.282257 120.0
356.366486 36.0
356.932281 40.0
357.184845 124.0
358.053162 28.0
358.175293 340.0
358.716888 116.0
358.837616 36.0
358.94632 36.0
359.163727 120.0
359.308716 96.0
359.695465 24.0
359.910889 44.0
360.199585 272.0
360.287537 84.0
361.179901 236.0
361.319916 84.0
361.579285 64.0
361.971893 68.0
362.144318 112.0
362.306305 444.0
362.580811 128.0
362.845642 68.0
363.146393 96.0
363.306335 284.0
363.914948 44.0
364.170074 92.0
364.305176 96.0
364.474548 28.0
365.038208 40.0
365.182098 140.0
365.318878 1028.0
365.491974 44.0
365.753479 44.0
366.18277 136.0
366.321442 332.0
366.497498 28.0
366.631744 44.0
366.957947 92.0
367.158051 200.0
367.251434 96.0
368.184967 332.0
368.337311 132.0
368.497192 144.0
368.68692 28.0
368.819794 44.0
368.991211 28.0
369.169556 248.0
369.986145 40.0
370.175354 2964.0
370.427002 28.0
370.553223 32.0
370.678467 44.0
370.837494 128.0
371.178375 464.0
371.677704 32.0
372.160217 128.0
372.292419 32.0
372.624573 36.0
372.925323 96.0
373.153198 84.0
373.671234 24.0
373.930054 36.0
374.207184 476.0
374.830414 32.0
375.015564 28.0
375.147583 92.0
375.228668 92.0
375.310425 68.0
375.435394 120.0
376.003754 32.0
376.208832 68.0
376.721008 32.0
376.820007 64.0
377.170959 224.0
377.319244 1704.0
377.488495 36.0
377.675537 40.0
378.006378 40.0
378.179657 832.0
378.314087 380.0
378.616364 44.0
378.811401 116.0
379.163086 1796.0
379.337708 600.0
379.596893 36.0
379.696259 112.0
380.160828 784.0
380.31723 4232.0
380.51236 36.0
380.584869 48.0
380.68811 52.0
380.916107 92.0
381.162079 412.0
381.32019 944.0
381.437195 44.0
381.751282 36.0
381.910431 68.0
382.043335 108.0
382.165405 164.0
382.317596 232.0
382.470093 44.0
382.757996 40.0
383.117157 96.0
383.196259 280.0
383.584412 52.0
383.793793 56.0
383.891907 56.0
384.191071 384.0
385.195679 264.0
385.93222 28.0
386.180237 252.0
386.658875 72.0
387.172974 76.0
387.361145 32.0
388.089142 128.0
388.186707 888.0
388.541351 44.0
388.819214 36.0
388.943542 40.0
389.179749 232.0
389.32077 136.0
389.798859 32.0
389.987671 24.0
390.18222 48.0
390.305908 208.0
390.516571 40.0
391.155426 92.0
391.297974 44.0
391.588043 128.0
391.827759 24.0
392.167908 204.0
392.345245 84.0
392.921265 20.0
393.048248 64.0
393.155792 212.0
393.31134 388.0
393.425964 68.0
393.559814 68.0
393.729462 64.0
393.854462 116.0
394.159882 252.0
394.323761 140.0
394.530426 44.0
394.70993 32.0
394.889679 116.0
395.023254 84.0
395.110352 68.0
395.211639 212.0
395.3284 33920.0
395.698395 56.0
395.902863 72.0
395.982849 40.0
396.190826 768.0
396.333435 7980.0
396.505859 68.0
396.637268 60.0
396.746887 76.0
396.784973 76.0
396.879456 124.0
396.973785 64.0
397.180176 2940.0
397.341675 4716.0
397.710114 48.0
397.898926 84.0
398.180695 476.0
398.347076 504.0
398.655304 92.0
398.862061 52.0
399.07428 24.0
399.181946 156.0
399.362488 84.0
399.505615 68.0
399.753723 28.0
399.868439 40.0
400.001495 64.0
400.190857 140.0
400.745239 32.0
401.191711 132.0
401.331421 36.0
401.760834 28.0
402.204407 1044.0
402.485809 32.0
402.971924 48.0
403.202972 220.0
403.345642 100.0
403.671112 84.0
403.804108 52.0
404.178345 84.0
404.688446 36.0
404.823547 60.0
405.203888 160.0
405.313019 2424.0
405.455353 36.0
405.610535 60.0
405.80484 68.0
405.940582 64.0
406.125671 164.0
406.315826 504.0
406.485718 72.0
406.685638 72.0
407.077118 132.0
407.202362 180.0
407.329651 5356.0
407.585052 100.0
407.887787 40.0
408.002228 36.0
408.189667 428.0
408.326202 1808.0
408.725006 68.0
409.182739 820.0
409.319855 324.0
409.51886 32.0
409.873932 44.0
410.027679 32.0
410.169525 228.0
410.350433 196.0
410.479553 24.0
410.608734 36.0
410.905853 24.0
411.205231 436.0
411.50354 100.0
411.86261 32.0
412.187469 432.0
412.496765 44.0
412.690979 32.0
412.924103 44.0
413.190338 140.0
413.338715 284.0
413.909149 28.0
414.038849 44.0
414.20697 564.0
414.365601 148.0
414.752533 40.0
415.204956 456.0
415.627106 36.0
416.203308 212.0
416.321594 144.0
416.650085 40.0
416.897339 40.0
417.127869 140.0
417.300903 108.0
417.483215 32.0
417.82193 40.0
418.173157 624.0
418.333832 44.0
418.786713 36.0
419.155457 284.0
419.324768 184.0
419.530609 28.0
420.156372 108.0
420.319519 68.0
420.51474 144.0
420.889587 32.0
421.16272 76.0
421.348694 388.0
421.661499 44.0
421.910248 28.0
422.195221 48.0
422.340027 152.0
422.460358 40.0
422.59137 28.0
422.771881 88.0
422.945282 48.0
423.199005 288.0
423.322754 3080.0
423.496033 232.0
423.601013 64.0
423.873535 52.0
424.020935 24.0
424.187592 224.0
424.325867 724.0
424.473083 64.0
424.743195 40.0
425.204803 312.0
425.328033 424.0
425.466034 108.0
425.676453 40.0
426.057922 32.0
426.195831 612.0
426.834595 32.0
427.192474 268.0
428.20462 176.0
428.399628 44.0
428.601166 32.0
429.21463 800.0
429.670776 40.0
429.961517 108.0
430.212494 400.0
430.345703 168.0
430.746674 160.0
430.860809 116.0
431.216156 144.0
431.350494 104.0
431.533447 44.0
431.800751 60.0
432.181 128.0
432.33075 88.0
432.896851 92.0
433.099854 64.0
433.314972 1352.0
433.53772 48.0
433.930084 36.0
434.189789 108.0
434.336639 992.0
434.749359 36.0
435.025543 36.0
435.199554 956.0
435.318817 1360.0
435.530914 48.0
435.730499 32.0
435.842682 32.0
436.023285 32.0
436.190002 528.0
436.330627 464.0
436.769012 24.0
437.187805 684.0
437.327515 288.0
437.555359 44.0
437.768738 32.0
437.9021 40.0
438.194 56.0
438.462524 36.0
439.090118 36.0
439.222229 220.0
440.217865 116.0
440.347229 380.0
440.614166 80.0
440.948761 24.0
441.04245 32.0
441.217651 276.0
441.351776 172.0
442.194489 68.0
442.357056 260.0
442.610138 44.0
442.995789 72.0
443.204346 260.0
443.324188 508.0
444.032837 28.0
444.204102 32.0
444.321472 264.0
445.183136 120.0
445.335114 204.0
446.076904 36.0
446.171143 132.0
446.341095 688.0
446.979401 32.0
447.21344 88.0
447.337677 408.0
447.491669 40.0
447.734436 36.0
448.189667 80.0
449.179504 76.0
449.346924 116.0
450.180756 236.0
450.371887 80.0
450.641785 40.0
450.877777 44.0
451.055511 36.0
451.356842 620.0
451.74527 92.0
451.911987 44.0
452.027832 24.0
452.244049 80.0
452.350616 704.0
452.942474 32.0
453.076172 28.0
453.212341 1952.0
453.341553 228.0
453.648193 32.0
453.839081 140.0
453.929016 100.0
454.201324 1968.0
454.531128 192.0
454.653442 32.0
454.84375 40.0
454.941071 76.0
455.195068 384.0
455.328918 88.0
455.605408 24.0
456.216339 140.0
456.789917 96.0
457.062439 32.0
457.247833 168.0
457.703186 24.0
458.238464 116.0
458.358704 80.0
458.644653 40.0
458.863098 24.0
459.216064 576.0
459.318695 168.0
459.819458 24.0
460.219208 84.0
460.337524 172.0
461.050507 44.0
461.146301 120.0
461.338135 652.0
461.57077 64.0
461.995392 36.0
462.207275 52.0
462.341858 336.0
462.612183 36.0
462.721863 32.0
462.941284 64.0
463.201752 240.0
463.361511 152.0
463.87439 32.0
464.184265 348.0
464.348358 996.0
464.530914 40.0
464.605072 40.0
464.752106 40.0
465.028381 24.0
465.361145 492.0
466.059906 48.0
466.215668 408.0
466.362183 344.0
466.624329 40.0
466.860748 48.0
467.222961 504.0
467.432556 196.0
467.671417 52.0
468.198792 148.0
468.384277 52.0
468.712769 28.0
469.205414 64.0
469.921112 36.0
470.181366 96.0
470.336182 124.0
470.721191 32.0
470.79007 60.0
471.057983 36.0
471.222076 3244.0
471.531586 40.0
471.705383 24.0
471.899231 52.0
472.220215 612.0
472.370148 92.0
472.875549 68.0
473.221619 284.0
473.346222 340.0
473.719818 92.0
474.06192 132.0
474.213776 68.0
474.333252 136.0
474.797791 68.0
475.316864 888.0
475.534241 96.0
475.798401 28.0
476.180847 300.0
476.331573 492.0
476.54953 64.0
476.883575 32.0
477.219147 128.0
477.372803 232.0
477.677368 44.0
478.123291 32.0
478.226807 132.0
478.364075 396.0
478.973907 32.0
479.214752 152.0
479.360107 208.0
479.569458 100.0
480.219299 544.0
480.372253 184.0
481.020233 48.0
481.20813 1144.0
481.81015 36.0
481.950073 28.0
482.07254 32.0
482.205322 232.0
482.359802 132.0
483.088928 40.0
483.215668 100.0
484.190979 72.0
485.235596 688.0
485.890442 32.0
486.008423 112.0
486.220825 244.0
486.346283 104.0
486.647369 52.0
486.811249 32.0
487.237457 244.0
487.395111 156.0
487.97226 52.0
488.260986 208.0
488.350616 168.0
488.507507 64.0
488.728546 64.0
489.248901 72.0
489.349091 68.0
489.5242 32.0
489.776337 24.0
490.072632 108.0
490.242004 196.0
490.36734 948.0
490.508545 36.0
490.778473 28.0
491.103333 52.0
491.348877 932.0
491.626923 100.0
492.007843 40.0
492.231384 316.0
492.349854 732.0
492.545288 64.0
492.799988 32.0
492.899048 176.0
493.012268 24.0
493.209656 216.0
493.330536 732.0
493.536102 40.0
493.646576 40.0
493.813721 40.0
493.931427 88.0
494.058655 36.0
494.216522 176.0
494.39743 8236.0
494.734131 48.0
495.22113 168.0
495.400909 2068.0
495.847107 48.0
496.224213 64.0
496.395233 452.0
496.547577 48.0
496.983307 36.0
497.24292 60.0
497.409729 144.0
497.750977 64.0
497.891937 44.0
498.231354 2224.0
498.647369 36.0
498.775482 60.0
498.989044 96.0
499.232758 728.0
499.640869 76.0
499.75827 32.0
500.022491 52.0
500.229248 156.0
500.713501 60.0
500.956024 60.0
501.206512 376.0
501.469788 56.0
501.955231 32.0
502.18924 300.0
502.330322 140.0
502.626709 56.0
502.984039 24.0
503.098419 52.0
503.287231 716.0
503.507568 72.0
503.813568 24.0
504.007324 28.0
504.381592 1588.0
505.087799 32.0
505.265167 148.0
505.385071 504.0
505.768524 52.0
506.060883 36.0
506.184113 76.0
506.364868 1200.0
506.689056 60.0
507.052399 28.0
507.195953 44.0
507.3685 180.0
507.727264 52.0
508.10318 24.0
508.377808 4456.0
508.830658 36.0
508.977661 32.0
509.237396 208.0
509.379395 960.0
509.610626 40.0
509.791534 56.0
509.999237 36.0
510.227448 156.0
510.373993 244.0
510.58963 36.0
511.021851 28.0
511.238342 276.0
511.386047 108.0
512.252075 512.0
512.713806 100.0
512.997925 64.0
513.238037 512.0
514.254028 172.0
514.354126 280.0
515.006775 28.0
515.252686 64.0
515.393799 96.0
516.034363 84.0
516.249878 1080.0
516.406128 96.0
516.642761 24.0
516.874573 24.0
517.062988 32.0
517.246216 280.0
517.36853 236.0
517.657471 28.0
517.918579 36.0
518.042419 104.0
518.237793 396.0
518.362854 1092.0
518.658691 92.0
518.992615 32.0
519.237305 316.0
519.363647 208.0
519.612671 52.0
519.770447 104.0
520.214539 588.0
520.368652 264.0
520.562195 92.0
520.664001 32.0
520.809509 36.0
521.076172 36.0
521.239197 452.0
521.381409 72.0
521.643005 44.0
521.8396 36.0
522.028564 32.0
522.250671 112.0
522.395203 3580.0
522.935547 32.0
523.24353 108.0
523.388428 2820.0
523.898132 36.0
524.243286 264.0
524.391479 660.0
524.584106 32.0
524.715515 60.0
524.876099 124.0
525.24054 280.0
525.391479 360.0
525.606567 36.0
526.261414 312.0
526.3974 212.0
526.849548 32.0
526.99585 32.0
527.533386 52.0
527.903503 40.0
528.006042 44.0
528.220154 124.0
528.378418 188.0
528.665405 36.0
528.973267 28.0
529.269958 216.0
529.462402 56.0
529.690979 44.0
529.820679 36.0
529.935181 24.0
530.25946 1916.0
530.660583 32.0
530.876038 36.0
530.971802 100.0
531.262512 460.0
531.468567 48.0
531.586121 56.0
531.718384 40.0
531.817627 32.0
531.926331 52.0
532.068665 52.0
532.377075 8076.0
532.693848 72.0
532.91626 36.0
533.039978 68.0
533.220947 224.0
533.384827 2692.0
533.68988 48.0
533.822449 64.0
533.956848 32.0
534.102295 56.0
534.271423 220.0
534.389648 864.0
534.55542 32.0
534.672974 44.0
535.045593 36.0
535.22937 60.0
535.37793 404.0
535.599304 24.0
535.783081 24.0
535.930603 24.0
536.088074 80.0
536.246399 780.0
536.376343 1112.0
536.733887 68.0
536.831909 80.0
536.929688 96.0
537.082275 32.0
537.232971 3116.0
537.37085 300.0
537.660217 36.0
537.819031 80.0
538.085205 28.0
538.239136 1228.0
538.501465 40.0
538.662842 44.0
539.062378 44.0
539.233704 204.0
539.424805 1016.0
539.702759 24.0
540.254944 72.0
540.415771 420.0
540.826355 36.0
541.033936 36.0
541.264099 348.0
541.425171 192.0
541.538147 36.0
541.716187 44.0
542.072327 64.0
542.249023 288.0
542.430115 40.0
543.241699 48.0
543.420227 92.0
544.149414 88.0
544.494202 84.0
544.717346 44.0
545.05957 48.0
545.399292 356.0
545.878418 40.0
546.206116 104.0
546.386902 76.0
547.032349 56.0
547.219116 216.0
547.393188 100.0
547.547729 124.0
547.74353 32.0
548.303467 128.0
548.777771 156.0
549.279358 156.0
549.392822 128.0
549.712708 48.0
550.267944 332.0
550.880432 44.0
551.247864 328.0
551.401367 352.0
551.807129 68.0
552.061707 32.0
552.27002 236.0
552.391479 184.0
552.930725 32.0
553.272217 184.0
553.374329 176.0
554.040466 48.0
554.258667 3024.0
554.415649 40.0
554.5849 44.0
555.001221 28.0
555.265442 860.0
556.113037 32.0
556.26123 240.0
556.374573 124.0
556.789673 28.0
556.985229 40.0
557.270508 116.0
557.381348 88.0
557.707642 60.0
557.947266 24.0
558.279785 316.0
558.373657 172.0
559.431091 260.0
559.786987 100.0
560.058533 52.0
560.17688 52.0
560.386169 460.0
561.229797 156.0
561.40448 232.0
561.772888 40.0
562.112061 32.0
562.396057 128.0
563.264038 196.0
563.422668 456.0
563.71521 32.0
564.034729 36.0
564.252991 404.0
564.409851 300.0
564.767517 56.0
565.032654 28.0
565.21582 276.0
565.421326 440.0
565.532837 28.0
565.745056 36.0
565.881531 32.0
566.124207 28.0
566.240356 156.0
566.442749 136.0
566.761353 32.0
566.943481 148.0
567.398499 140.0
567.717834 32.0
567.839355 24.0
567.991272 36.0
568.284729 648.0
568.412476 80.0
568.887939 40.0
569.260315 1000.0
569.526733 56.0
569.898804 44.0
570.074524 72.0
570.275024 116.0
571.049011 64.0
571.278809 76.0
571.826172 64.0
572.275452 68.0
572.817383 44.0
573.258545 44.0
573.403381 376.0
573.67041 36.0
573.849243 36.0
574.386292 1412.0
574.634338 76.0
574.833008 32.0
574.955261 84.0
575.388916 360.0
575.842163 64.0
575.995117 32.0
576.375366 156.0
576.790955 32.0
577.234985 40.0
577.433838 768.0
577.664673 48.0
577.932068 28.0
578.108276 40.0
578.274292 100.0
578.425537 304.0
578.598877 28.0
578.752197 52.0
579.255432 68.0
579.414795 372.0
579.611328 24.0
579.887573 32.0
580.056458 36.0
580.271973 72.0
580.41803 176.0
580.720642 32.0
581.266174 568.0
581.761841 32.0
582.023254 36.0
582.254456 1540.0
582.409851 124.0
582.561646 24.0
582.761658 24.0
582.930969 96.0
583.258728 608.0
583.78302 76.0
584.008789 144.0
584.273315 96.0
584.594299 44.0
584.840942 32.0
585.381592 180.0
585.642822 132.0
585.843384 24.0
586.284058 1668.0
586.491577 48.0
586.592468 32.0
586.754089 32.0
587.277283 388.0
587.4198 700.0
587.897278 32.0
588.005432 36.0
588.304443 192.0
588.424011 344.0
588.789307 52.0
589.026062 88.0
589.281372 176.0
589.429993 196.0
589.830872 64.0
590.29541 100.0
590.422668 104.0
591.30072 160.0
591.408936 936.0
591.577148 112.0
591.87616 40.0
591.978088 32.0
592.271179 168.0
592.413818 248.0
593.164062 48.0
593.272766 44.0
593.420959 92.0
593.723083 36.0
594.080383 164.0
594.422241 64.0
594.950806 32.0
595.28833 456.0
595.442017 124.0
596.269836 432.0
596.491089 40.0
596.677917 24.0
597.020508 28.0
597.145142 24.0
597.273438 100.0
597.487915 32.0
597.986633 56.0
598.259766 44.0
598.376343 32.0
599.015869 60.0
599.28241 4040.0
599.577637 32.0
599.71814 48.0
599.973389 68.0
600.088928 48.0
600.289978 1676.0
600.849854 28.0
601.296753 312.0
601.514709 76.0
601.827454 36.0
602.054382 92.0
602.382568 512.0
602.71228 36.0
602.85376 40.0
602.961731 40.0
603.103088 88.0
603.322205 340.0
603.564514 24.0
603.705444 40.0
603.827393 56.0
604.055664 36.0
604.408203 208.0
604.63678 64.0
604.749084 76.0
604.880737 80.0
604.956665 100.0
605.165222 84.0
605.429382 22728.0
605.700134 48.0
605.862793 52.0
605.968567 88.0
606.074402 72.0
606.261963 76.0
606.432434 8148.0
606.801514 104.0
606.947449 56.0
607.117737 72.0
607.294006 152.0
607.428711 1888.0
607.723694 32.0
607.973145 44.0
608.094177 40.0
608.318604 104.0
608.440674 452.0
608.752258 64.0
608.900879 52.0
609.058167 48.0
609.307617 56.0
609.436035 268.0
609.782043 40.0
610.053162 36.0
610.317383 72.0
610.459412 212.0
610.565308 140.0
610.837158 44.0
611.28363 60.0
611.451782 68.0
611.861633 28.0
612.271667 128.0
612.38208 84.0
612.715393 32.0
612.962402 36.0
613.296936 596.0
613.840149 32.0
614.282043 788.0
614.4953 52.0
614.703186 28.0
614.892822 36.0
615.155701 64.0
615.284058 396.0
615.412109 1944.0
615.641235 92.0
616.054321 36.0
616.418579 700.0
616.775269 24.0
616.932129 48.0
617.051331 148.0
617.434753 432.0
617.932617 56.0
618.434998 208.0
618.676514 32.0
618.914368 64.0
619.104675 24.0
619.299255 56.0
619.425293 628.0
620.078491 64.0
620.270935 220.0
620.408997 472.0
620.520935 104.0
620.726685 40.0
620.929993 40.0
621.321594 100.0
621.424988 132.0
622.454834 1596.0
622.598999 28.0
622.933044 132.0
623.108093 28.0
623.452393 816.0
623.872131 40.0
624.063171 32.0
624.3302 104.0
624.424988 64.0
625.37854 236.0
625.646362 112.0
625.863953 24.0
626.128235 56.0
626.315857 60.0
626.437378 80.0
626.789246 40.0
627.315979 56.0
627.421509 56.0
627.603394 36.0
627.7547 40.0
628.296143 136.0
628.486206 76.0
629.252991 112.0
629.44873 68.0
630.249878 88.0
630.419495 248.0
630.577209 36.0
630.68927 32.0
630.805359 116.0
631.031128 52.0
631.14563 112.0
631.30603 4568.0
631.714233 44.0
632.02002 48.0
632.3125 916.0
632.757812 44.0
633.058472 28.0
633.309753 324.0
633.434082 460.0
634.076965 156.0
634.304932 172.0
634.450134 380.0
634.778137 176.0
635.303406 256.0
635.485657 152.0
635.826904 72.0
635.999268 64.0
636.240479 152.0
636.440613 192.0
637.290527 132.0
637.444153 192.0
637.76886 120.0
638.090881 56.0
638.317322 108.0
638.443115 76.0
639.239258 84.0
639.411926 144.0
639.573181 56.0
639.863342 32.0
640.072998 44.0
640.202026 104.0
640.34375 76.0
640.465698 68.0
640.669861 32.0
640.782776 72.0
640.992615 52.0
641.170105 40.0
641.439941 80.0
642.090515 28.0
642.327881 116.0
642.81488 24.0
642.96875 48.0
643.278259 128.0
643.412415 4608.0
643.787659 40.0
643.907959 36.0
644.04187 28.0
644.420715 1372.0
644.880737 36.0
645.130798 48.0
645.424805 452.0
646.118835 24.0
646.309448 152.0
646.429199 296.0
646.637451 24.0
646.880615 40.0
647.010315 32.0
647.117065 28.0
647.279175 200.0
647.47168 148.0
647.960754 64.0
648.255981 288.0
648.435181 308.0
648.675293 104.0
648.95752 36.0
649.082581 40.0
649.122253 28.0
649.295654 180.0
649.652771 40.0
649.855042 48.0
650.036194 40.0
650.272278 100.0
650.453613 4728.0
650.694214 32.0
650.901306 44.0
651.200439 36.0
651.452393 1856.0
651.672241 48.0
651.796326 96.0
651.948914 48.0
652.084534 24.0
652.291748 116.0
652.452271 696.0
652.68158 32.0
653.318054 216.0
653.470337 120.0
653.764099 36.0
654.039001 52.0
654.281433 116.0
654.445679 64.0
654.61731 36.0
655.012451 28.0
655.453003 72.0
655.869263 24.0
656.428467 108.0
657.429016 252.0
657.564209 80.0
658.433716 308.0
658.59021 36.0
658.711731 56.0
659.39856 80.0
659.719421 52.0
660.292603 100.0
660.462341 276.0
661.317688 72.0
661.457458 548.0
662.283081 168.0
662.46759 1300.0
662.850403 32.0
663.050598 40.0
663.309998 80.0
663.463257 396.0
663.819031 44.0
664.030762 36.0
664.316895 336.0
664.456665 324.0
664.689758 32.0
664.942749 92.0
665.302856 1360.0
665.8078 32.0
665.939392 32.0
666.304565 212.0
666.460266 220.0
666.601501 64.0
667.358154 140.0
667.446167 44.0
667.799561 36.0
668.340393 96.0
668.467773 40.0
669.338684 140.0
669.596313 184.0
669.81073 44.0
670.008728 32.0
670.324463 284.0
670.476685 80.0
670.602905 24.0
670.999146 44.0
671.114685 60.0
671.351013 84.0
671.463196 200.0
672.445374 148.0
673.459351 56.0
673.678833 32.0
673.991211 32.0
674.156677 44.0
674.460693 1288.0
675.166687 32.0
675.47052 600.0
675.969238 36.0
676.465576 252.0
677.012939 164.0
677.460815 184.0
677.847656 40.0
678.018616 48.0
678.307739 96.0
678.474548 652.0
678.761597 32.0
679.05719 44.0
679.097961 24.0
679.305359 212.0
679.478333 256.0
679.793335 136.0
680.334839 180.0
680.454712 132.0
681.1875 52.0
681.4422 40.0
682.074707 32.0
682.319641 4488.0
682.599854 52.0
682.7724 36.0
683.035095 160.0
683.17395 92.0
683.324219 1768.0
683.723877 24.0
683.923889 68.0
684.323792 280.0
684.485291 36.0
684.657593 80.0
684.999573 32.0
685.141418 56.0
685.258179 64.0
685.424622 1240.0
685.59729 68.0
685.75293 36.0
685.887878 44.0
686.412292 680.0
687.053589 48.0
687.266968 68.0
687.444946 148.0
687.713379 32.0
688.468872 3052.0
688.850586 36.0
689.019592 40.0
689.229004 52.0
689.469238 1004.0
689.871521 36.0
689.988708 44.0
690.139404 32.0
690.306885 116.0
690.469055 248.0
691.328918 88.0
691.496521 52.0
691.882141 32.0
692.47998 72.0
693.140259 116.0
693.487732 184.0
694.181152 32.0
694.446167 36.0
694.735535 24.0
694.920349 32.0
695.474976 244.0
696.097107 28.0
696.34967 316.0
696.534485 68.0
697.106628 40.0
697.317627 648.0
697.678955 108.0
698.333801 288.0
698.466309 120.0
698.841248 40.0
699.345398 76.0
699.512085 100.0
700.481018 112.0
700.763611 28.0
701.247559 172.0
701.446716 96.0
701.995972 24.0
702.45697 396.0
702.671753 116.0
702.908325 44.0
703.289734 92.0
703.441833 204.0
703.787415 40.0
704.44751 176.0
704.599365 24.0
704.717834 32.0
704.903992 24.0
705.197327 108.0
705.543518 36.0
705.810486 140.0
705.957642 68.0
706.478882 4520.0
706.970276 44.0
707.224548 60.0
707.480042 1616.0
707.76709 36.0
708.089355 88.0
708.482056 508.0
708.751038 28.0
709.090515 60.0
709.454407 204.0
709.718689 48.0
710.126343 44.0
710.475037 224.0
710.721008 24.0
711.495056 224.0
711.775024 44.0
711.911072 28.0
712.058838 44.0
712.523499 88.0
712.914917 36.0
713.255371 76.0
713.423096 80.0
713.792664 36.0
713.953552 24.0
714.139099 76.0
714.16803 68.0
714.34375 2104.0
714.801208 32.0
715.030945 52.0
715.208008 52.0
715.353577 732.0
715.657837 44.0
715.777222 32.0
715.998962 48.0
716.186584 24.0
716.4552 744.0
716.886169 64.0
717.469971 372.0
717.791077 40.0
718.463867 268.0
718.781921 44.0
719.138733 32.0
719.338074 88.0
719.518066 224.0
719.687988 36.0
720.479492 308.0
720.988281 52.0
721.525574 196.0
721.673096 164.0
722.460999 52.0
723.382812 144.0
723.502563 104.0
724.496094 244.0
724.758789 56.0
725.342407 72.0
725.477112 104.0
725.805969 40.0
726.448914 232.0
726.727966 60.0
726.905518 72.0
727.482605 212.0
728.531494 172.0
728.711243 72.0
728.917725 104.0
729.111877 128.0
729.460144 196.0
729.778503 64.0
729.899048 36.0
730.071289 28.0
730.226318 44.0
730.346863 88.0
730.492126 84.0
730.979797 148.0
731.553284 44.0
731.706543 36.0
732.001648 36.0
732.191345 32.0
732.48114 100.0
732.713501 60.0
732.945801 44.0
732.986572 44.0
733.243896 28.0
733.489197 4968.0
734.074829 32.0
734.494385 1732.0
734.758423 92.0
734.944458 52.0
735.488831 652.0
736.336914 44.0
736.516113 144.0
736.965088 116.0
737.21936 36.0
737.513611 148.0
737.669434 84.0
738.477844 112.0
738.725952 24.0
739.14325 148.0
739.34845 52.0
739.509216 40.0
740.182007 96.0
740.466614 84.0
741.502563 108.0
742.03479 120.0
742.410095 116.0
743.462585 84.0
744.210999 32.0
744.4729 396.0
745.18219 24.0
745.490723 644.0
746.494019 172.0
747.509583 84.0
747.797607 40.0
748.322876 188.0
748.489685 52.0
748.721802 152.0
749.501831 176.0
749.960693 36.0
750.490662 96.0
750.636414 120.0
751.454834 44.0
752.529053 32.0
753.515198 160.0
754.466248 128.0
754.996704 116.0
755.329529 80.0
755.481995 132.0
755.750061 24.0
756.048035 32.0
756.20575 28.0
756.503784 76.0
757.488892 244.0
757.623047 64.0
758.509521 140.0
759.487366 40.0
759.786011 68.0
760.576904 52.0
761.520874 68.0
761.702454 124.0
761.895996 60.0
762.353516 108.0
762.502014 276.0
763.128174 36.0
763.510254 576.0
763.797485 28.0
764.343689 60.0
764.499268 276.0
764.81958 132.0
765.485107 140.0
766.389404 56.0
766.554443 80.0
766.707092 100.0
767.430908 64.0
767.625183 60.0
767.960754 48.0
768.44281 164.0
769.440979 32.0
769.975952 24.0
770.481934 60.0
771.055298 40.0
771.508789 572.0
771.905151 40.0
772.50885 588.0
773.502869 264.0
774.067383 108.0
774.209229 40.0
774.524658 84.0
775.501953 144.0
775.760071 112.0
775.895142 32.0
776.495361 264.0
776.694397 36.0
777.014221 32.0
777.512817 228.0
778.614258 48.0
779.183533 28.0
779.542542 292.0
780.215088 84.0
780.53186 624.0
780.785828 196.0
781.378601 212.0
781.557922 72.0
781.801453 40.0
782.44281 180.0
782.933105 60.0
783.469116 60.0
783.816772 24.0
783.977417 44.0
784.941528 48.0
785.423828 32.0
785.566711 36.0
786.479736 444.0
787.068237 28.0
787.456299 136.0
788.177429 44.0
788.496216 148.0
789.521484 956.0
789.755981 24.0
789.950134 56.0
790.316223 84.0
790.513367 924.0
790.951111 132.0
791.512024 188.0
791.706909 44.0
792.31897 68.0
792.510742 228.0
793.359863 36.0
793.506592 72.0
794.435547 52.0
794.651184 64.0
795.370117 76.0
796.504395 60.0
796.70105 36.0
797.499512 76.0
797.79895 32.0
798.519348 44.0
799.059814 28.0
799.497375 196.0
800.530212 156.0
801.48822 96.0
802.053833 32.0
802.198242 104.0
802.559387 36.0
803.010925 92.0
803.484192 184.0
804.166138 56.0
804.518677 136.0
805.288574 48.0
805.516846 100.0
806.211365 32.0
806.536255 312.0
806.808777 36.0
807.004272 100.0
807.527832 1904.0
807.786804 44.0
808.304688 56.0
808.528687 1020.0
808.925232 64.0
809.533569 208.0
809.944275 24.0
810.180115 64.0
810.508423 108.0
810.760803 96.0
811.378052 44.0
811.559631 192.0
812.484802 108.0
813.14032 120.0
813.400635 480.0
814.067627 24.0
814.410278 248.0
815.068237 32.0
815.414062 68.0
815.56427 80.0
816.338867 56.0
816.532349 416.0
817.126038 40.0
817.515869 776.0
817.881592 24.0
818.089661 60.0
818.274414 32.0
818.518494 336.0
818.66864 64.0
819.510742 124.0
820.263184 80.0
820.529236 112.0
821.516296 92.0
821.907166 76.0
822.554749 152.0
823.15033 36.0
823.5047 64.0
823.936951 84.0
824.110779 24.0
824.552429 1564.0
825.126709 28.0
825.560364 492.0
826.55188 364.0
826.867188 48.0
827.032166 28.0
827.3255 36.0
827.501953 168.0
828.08783 120.0
828.519958 76.0
829.178345 32.0
829.506104 96.0
830.532532 92.0
831.08844 32.0
831.353638 120.0
831.511475 156.0
832.11792 28.0
832.523621 124.0
833.387146 32.0
833.529663 96.0
833.957764 40.0
834.540283 988.0
835.044189 36.0
835.533264 352.0
835.836487 104.0
836.260376 36.0
836.552185 184.0
837.543213 92.0
838.523865 136.0
838.880066 56.0
839.427429 56.0
839.471008 36.0
841.518005 124.0
842.354675 124.0
842.51355 172.0
842.817261 36.0
843.594727 68.0
844.316956 24.0
844.539185 104.0
844.835632 28.0
845.057983 52.0
845.632568 52.0
846.040405 40.0
846.515747 76.0
847.530884 88.0
848.526489 296.0
849.176819 36.0
849.526733 104.0
850.347473 108.0
850.570557 44.0
851.532043 40.0
851.909668 36.0
852.483643 52.0
853.566345 100.0
854.457214 116.0
855.535095 172.0
856.306274 44.0
856.498596 80.0
856.697998 24.0
857.528809 56.0
858.561035 40.0
858.845032 36.0
859.526733 124.0
860.284058 40.0
860.523804 132.0
860.957275 28.0
861.521851 240.0
862.491699 60.0
863.128357 28.0
863.568787 88.0
864.545227 32.0
864.657959 56.0
865.039673 28.0
865.470886 116.0
865.611572 40.0
866.03363 36.0
867.530884 108.0
868.450989 88.0
869.503601 228.0
869.778198 80.0
870.516968 44.0
870.665833 36.0
871.563904 48.0
872.272888 52.0
872.541626 80.0
872.894287 28.0
873.1203 96.0
873.308655 68.0
873.536804 36.0
874.382751 92.0
874.557251 148.0
874.891724 56.0
875.080322 76.0
875.553101 112.0
876.561218 72.0
877.549072 164.0
878.081116 116.0
878.584595 148.0
879.679077 100.0
881.162781 44.0
881.584167 104.0
882.552795 96.0
882.885559 32.0
883.397034 96.0
883.586548 76.0
884.532288 76.0
884.59552 68.0
884.633911 92.0
885.23584 100.0
885.558289 92.0
886.57251 80.0
887.543152 188.0
888.552917 144.0
889.185181 44.0
889.539673 192.0
889.907593 56.0
890.04071 36.0
890.612671 112.0
890.953796 36.0
891.581543 176.0
891.834778 124.0
892.55835 132.0
893.200439 28.0
893.549194 88.0
894.267639 116.0
895.530396 184.0
896.270325 24.0
896.594788 80.0
897.545349 96.0
899.569946 240.0
899.727844 56.0
900.558716 432.0
900.97113 24.0
901.557373 200.0
902.569519 88.0
903.172852 32.0
903.517761 36.0
904.092651 84.0
904.218872 28.0
904.520203 180.0
905.562073 216.0
906.278992 48.0
906.562073 116.0
906.835632 56.0
907.590271 492.0
908.103027 64.0
908.601318 212.0
909.587708 184.0
909.948059 52.0
910.609924 68.0
910.929016 96.0
911.583252 68.0
911.968201 40.0
912.52655 24.0
913.547424 76.0
913.971375 36.0
914.564514 116.0
914.723083 136.0
915.513733 44.0
915.923645 32.0
916.381897 36.0
916.564758 92.0
916.748535 24.0
916.960876 36.0
917.576843 1040.0
918.570374 676.0
919.027466 36.0
919.182068 32.0
919.430603 60.0
919.561096 268.0
920.167969 32.0
920.34198 36.0
920.597778 72.0
921.56604 56.0
921.958557 72.0
922.625366 36.0
923.090088 152.0
923.590393 116.0
924.555176 52.0
925.522339 48.0
927.336426 24.0
927.558777 48.0
928.524902 120.0
929.539795 100.0
930.1922 44.0
930.587769 228.0
931.145081 24.0
931.320129 24.0
931.601318 76.0
931.954468 40.0
932.23468 96.0
932.597046 84.0
933.422302 32.0
933.591064 140.0
934.565613 224.0
935.175903 32.0
935.351379 28.0
935.589417 2108.0
936.287415 48.0
936.591858 1236.0
937.590271 532.0
938.358704 240.0
938.593628 284.0
939.020142 48.0
939.15686 44.0
939.29364 32.0
939.602722 44.0
939.860291 32.0
940.407532 124.0
940.583496 48.0
941.414551 40.0
941.587952 64.0
943.578979 332.0
944.536743 116.0
944.830627 32.0
945.614563 32.0
946.583862 212.0
946.810669 60.0
947.443787 160.0
947.610718 72.0
948.380493 56.0
948.595947 268.0
949.629761 116.0
950.606689 48.0
950.796631 32.0
951.077026 44.0
951.489441 100.0
951.76001 48.0
952.330383 40.0
952.608887 184.0
953.615479 52.0
954.615356 100.0
955.007629 32.0
955.559265 104.0
956.606995 292.0
956.899719 28.0
957.59613 128.0
958.376404 28.0
958.588745 156.0
959.212524 36.0
959.597717 160.0
960.584045 64.0
961.609192 52.0
962.606934 32.0
963.259705 36.0
963.523071 76.0
964.604858 492.0
965.620605 124.0
966.665588 32.0
967.475708 88.0
968.25177 40.0
968.628723 68.0
969.552246 220.0
969.799561 28.0
969.978271 28.0
970.544128 44.0
971.587036 52.0
971.805603 44.0
972.608704 108.0
972.839233 24.0
973.567078 100.0
974.092224 28.0
974.60553 416.0
975.087219 40.0
975.604675 420.0
976.242065 56.0
976.599854 312.0
977.238159 28.0
977.59552 56.0
978.607117 464.0
979.012512 24.0
979.271851 28.0
979.590576 104.0
980.479858 132.0
980.612549 120.0
981.538025 88.0
982.469727 44.0
982.606628 120.0
983.265503 44.0
983.643738 168.0
984.651306 52.0
985.565979 100.0
986.40625 56.0
986.58844 80.0
987.187195 44.0
987.347412 28.0
987.607849 76.0
988.586853 144.0
988.810181 56.0
989.391541 48.0
989.592041 76.0
990.640076 76.0
991.417725 32.0
991.587219 36.0
991.899475 72.0
992.401428 28.0
992.612793 1628.0
993.34552 52.0
993.618469 1092.0
993.853638 96.0
994.3302 24.0
994.618225 296.0
995.180603 40.0
995.606201 112.0
996.088684 36.0
996.602905 64.0
997.057312 124.0
997.26709 40.0
997.572388 96.0
998.233582 44.0
998.551758 76.0
999.543152 152.0
1000.56665 76.0
1000.813171 76.0
1001.582825 52.0
1002.588623 112.0
1003.62616 132.0
1004.606323 64.0
1005.214294 32.0
1005.639343 72.0
1005.800476 32.0
1006.063293 24.0
1006.65033 108.0
1006.973328 32.0
1007.640991 68.0
1008.713745 64.0
1009.422424 36.0
1009.608215 176.0
1010.061646 40.0
1010.62439 440.0
1011.622009 156.0
1012.614136 84.0
1013.618652 88.0
1014.658875 72.0
1014.857483 32.0
1015.599792 184.0
1015.994995 44.0
1016.320129 48.0
1016.639954 44.0
1017.627502 124.0
1018.63562 128.0
1019.630249 100.0
1020.184998 72.0
1020.368225 40.0
1020.623413 100.0
1021.653198 136.0
1022.63446 52.0
1023.602051 64.0
1024.741089 92.0
1025.608032 36.0
1026.567749 72.0
1026.915039 92.0
1027.589233 36.0
1028.127808 92.0
1028.562744 80.0
1029.654053 64.0
1030.165527 32.0
1030.59375 436.0
1031.352539 140.0
1031.626099 196.0
1032.625732 240.0
1033.603516 124.0
1033.954102 36.0
1034.630615 156.0
1035.204834 56.0
1035.697998 84.0
1036.610229 80.0
1037.523682 68.0
1037.975464 100.0
1038.858765 80.0
1039.607544 152.0
1040.62561 164.0
1041.654907 36.0
1042.60144 44.0
1042.848511 32.0
1043.280884 28.0
1043.617554 52.0
1044.573608 52.0
1045.011108 24.0
1045.625732 224.0
1046.165405 40.0
1046.633057 216.0
1047.052124 44.0
1047.62915 192.0
1048.18689 28.0
1048.650024 120.0
1049.074585 84.0
1049.638672 136.0
1050.670166 120.0
1051.633789 64.0
1052.297974 40.0
1052.649536 40.0
1053.601074 36.0
1054.657837 64.0
1055.691895 64.0
1056.168335 36.0
1057.629517 260.0
1058.095825 84.0
1058.640381 236.0
1059.029175 28.0
1059.628906 200.0
1059.930298 32.0
1060.638794 68.0
1061.312256 64.0
1061.65625 144.0
1062.371582 52.0
1062.652954 240.0
1062.932739 76.0
1063.259521 44.0
1063.657471 588.0
1063.914307 36.0
1064.657227 212.0
1065.053589 36.0
1065.662354 156.0
1068.447266 36.0
1068.676514 48.0
1068.884888 140.0
1069.760376 44.0
1069.947998 32.0
1070.693848 84.0
1070.917847 32.0
1071.653198 240.0
1072.621582 308.0
1073.349487 68.0
1073.639771 44.0
1074.008423 68.0
1074.63855 108.0
1075.033569 188.0
1075.334351 44.0
1075.649048 3960.0
1075.961548 68.0
1076.10791 36.0
1076.651733 3028.0
1077.093262 200.0
1077.404785 52.0
1077.657593 1088.0
1078.139893 32.0
1078.665283 480.0
1079.05835 48.0
1079.246826 28.0
1079.679688 1920.0
1080.43042 32.0
1080.678345 1340.0
1081.006714 32.0
1081.300171 24.0
1081.677002 588.0
1082.390381 36.0
1082.70166 152.0
1083.746948 40.0
1084.320679 36.0
1084.651001 96.0
1084.91626 88.0
1085.202515 32.0
1085.644531 92.0
1086.134521 32.0
1086.640747 96.0
1087.324463 36.0
1087.676025 160.0
1088.664673 408.0
1089.672241 376.0
1090.670898 388.0
1091.174438 76.0
1091.66394 276.0
1092.65979 176.0
1093.664307 452.0
1093.871338 32.0
1094.688843 52.0
1095.6521 56.0
1096.149536 80.0
1096.915771 68.0
1097.289551 32.0
1097.669678 68.0
1098.282227 64.0
1098.47229 84.0
1098.683594 88.0
1099.613525 32.0
1100.163086 28.0
1100.607178 60.0
1101.326294 40.0
1101.659058 44.0
1101.96106 24.0
1102.230835 32.0
1102.681274 124.0
1102.919678 56.0
1103.294556 24.0
1103.482544 32.0
1103.647949 412.0
1104.317505 40.0
1104.630493 248.0
1104.946777 36.0
1105.290161 136.0
1105.636353 256.0
1106.193848 48.0
1106.657959 156.0
1107.189697 40.0
1107.427368 44.0
1107.673096 4844.0
1108.112549 84.0
1108.681763 3080.0
1109.209961 36.0
1109.683228 1312.0
1110.059326 56.0
1110.229248 44.0
1110.42041 48.0
1110.678467 312.0
1110.902222 120.0
1111.206421 68.0
1111.418945 36.0
1111.66394 92.0
1111.886597 80.0
1112.396729 24.0
1112.864502 44.0
1113.35376 36.0
1113.630249 36.0
1114.640015 116.0
1114.949463 60.0
1115.375244 24.0
1115.666626 44.0
1116.120483 36.0
1116.702759 48.0
1117.649048 64.0
1118.698853 56.0
1119.57312 40.0
1120.063843 32.0
1120.681274 1592.0
1121.675781 800.0
1122.684937 508.0
1123.687866 60.0
1123.907227 40.0
1124.505615 24.0
1124.705688 72.0
1125.689087 452.0
1126.088013 32.0
1126.685425 284.0
1126.906372 48.0
1127.46814 32.0
1127.686035 240.0
1128.627441 112.0
1129.675293 72.0
1130.17749 96.0
1132.53125 144.0
1132.965088 36.0
1134.252808 24.0
1134.446045 76.0
1134.854004 40.0
1135.788696 60.0
1136.701538 124.0
1137.616577 140.0
1138.709595 624.0
1139.694702 176.0
1140.121338 132.0
1140.701294 124.0
1141.219238 52.0
1141.759521 92.0
1142.657471 156.0
1143.007324 48.0
1143.655029 100.0
1144.702271 124.0
1145.643555 108.0
1146.73877 72.0
1147.084106 44.0
1147.229858 32.0
1147.716553 84.0
1148.418213 140.0
1148.680542 116.0
1149.667603 64.0
1150.670898 168.0
1151.658813 184.0
1151.925293 120.0
1154.219849 32.0
1155.604248 44.0
1156.693848 68.0
1157.188721 24.0
1157.362183 116.0
1157.65271 72.0
1158.673828 184.0
1159.488403 48.0
1159.69751 352.0
1160.699219 232.0
1161.683838 168.0
1162.708252 84.0
1163.681396 24.0
1165.212402 84.0
1165.72644 48.0
1166.183472 48.0
1167.674683 172.0
1168.685303 136.0
1169.662598 176.0
1170.323242 40.0
1170.654419 84.0
1171.261108 36.0
1171.443726 44.0
1171.640015 64.0
1172.745117 44.0
1173.67981 256.0
1174.492065 24.0
1174.698486 204.0
1175.322388 24.0
1175.709351 192.0
1176.708496 328.0
1177.246338 36.0
1177.707764 132.0
1178.694702 132.0
1179.303223 36.0
1179.653442 48.0
1181.677002 64.0
1182.106812 36.0
1182.523315 52.0
1182.808228 96.0
1183.687622 80.0
1184.167969 36.0
1184.650513 44.0
1185.680664 100.0
1186.684204 1012.0
1187.055298 24.0
1187.372681 32.0
1187.688843 1136.0
1188.34082 136.0
1188.687988 264.0
1189.064697 60.0
1189.284546 136.0
1189.680176 112.0
1190.723145 136.0
1191.241821 40.0
1191.718262 576.0
1192.120972 52.0
1192.705322 360.0
1193.529663 64.0
1193.691895 52.0
1194.037598 36.0
1194.323975 24.0
1194.830688 88.0
1195.778442 84.0
1196.431274 52.0
1197.233643 40.0
1197.635376 148.0
1198.138184 28.0
1198.689819 32.0
1199.042969 64.0
1199.712402 380.0
1200.213135 24.0
1200.707397 744.0
1200.986206 56.0
1201.154663 64.0
1201.705688 372.0
1201.980469 24.0
1202.642456 176.0
1202.889893 28.0
1203.351074 48.0
1203.708252 6048.0
1204.210571 36.0
1204.361938 40.0
1204.714233 3064.0
1205.342163 68.0
1205.707275 1064.0
1206.185303 44.0
1206.718262 232.0
1207.012695 52.0
1207.411621 60.0
1207.734131 1324.0
1208.171753 64.0
1208.375977 60.0
1208.741333 748.0
1209.009155 56.0
1209.328979 64.0
1209.744507 356.0
1210.526367 36.0
1210.804688 88.0
1211.657715 24.0
1212.168091 32.0
1212.412231 36.0
1212.745239 52.0
1212.900635 28.0
1213.144897 36.0
1213.522339 32.0
1214.099731 24.0
1214.258545 108.0
1215.232788 24.0
1215.432739 64.0
1216.423462 56.0
1216.722168 32.0
1217.206421 36.0
1217.455933 40.0
1217.721802 764.0
1218.21228 56.0
1218.711914 3308.0
1219.191528 32.0
1219.381958 72.0
1219.720215 2432.0
1220.033936 76.0
1220.326904 36.0
1220.720459 920.0
1221.106445 48.0
1221.715698 204.0
1221.975342 64.0
1222.408813 88.0
1222.720215 124.0
1223.140747 124.0
1223.491089 100.0
1223.847778 44.0
1224.316162 28.0
1224.583862 40.0
1225.699463 192.0
1226.659302 36.0
1228.401367 24.0
1228.595459 76.0
1228.858154 72.0
1229.557129 100.0
1229.959106 128.0
1230.240112 40.0
1230.523315 36.0
1230.998047 24.0
1231.369385 52.0
1231.432739 40.0
1231.49707 76.0
1231.732544 16.0
1232.179932 36.0
1232.470947 64.0
1232.692749 48.0
1233.157227 80.0
1234.349487 72.0
1234.642578 96.0
1235.040161 140.0
1235.153442 52.0
1235.186157 144.0
1235.740234 34580.0
1236.217407 196.0
1236.501709 84.0
1236.740723 21544.0
1237.091187 156.0
1237.455688 116.0
1237.740967 7828.0
1238.329224 160.0
1238.486938 60.0
1238.747925 2524.0
1239.293457 132.0
1239.568848 100.0
1239.771729 336.0
1240.36084 80.0
1240.728638 56.0
1240.982788 40.0
1241.133545 68.0
1241.223755 56.0
1241.312622 72.0
1241.744141 20.0
1242.584351 32.0
1242.812256 28.0
1243.024658 64.0
1243.351318 32.0
1243.550781 24.0
1243.775635 136.0
1243.955444 36.0
1244.247803 32.0
1244.472656 32.0
1244.989868 64.0
1245.59729 48.0
1246.204712 32.0
1246.812378 32.0
1247.217651 28.0
1247.802979 52.0
1248.38855 60.0
1248.681274 68.0
1249.653931 116.0
1252.468506 28.0
1253.269531 56.0
1257.664917 40.0
1258.793091 32.0
1258.951416 32.0
1259.227783 36.0
1261.780273 132.0
1262.278442 108.0
1262.844727 36.0
1263.18457 32.0
1263.479126 24.0
1264.045654 28.0
1265.768677 56.0
1270.603882 164.0
1271.30835 24.0
1271.467529 48.0
1272.786133 28.0
1273.059082 84.0
1274.678955 164.0
1276.017578 40.0
1281.876343 28.0
1285.576294 120.0
1287.062378 32.0
1288.229004 116.0
1293.874878 48.0
1296.937866 52.0
1300.452515 84.0
1303.580811 52.0
1314.836426 124.0
1319.810669 40.0
1322.637573 56.0
1324.956787 36.0
1336.956787 36.0
1337.376343 52.0
1339.241943 36.0
1343.818115 44.0
1346.226074 104.0
1351.728027 44.0
1353.556763 76.0
1368.18335 40.0
1388.369873 88.0
1394.88562 48.0
1397.076782 36.0
1397.624878 80.0
1406.169312 104.0
1410.594971 100.0
1411.552856 44.0
1423.817505 76.0
1428.68042 36.0
1431.356201 148.0
1442.035767 28.0
1447.802612 32.0
1456.304321 40.0
1474.483765 56.0
1499.9021 32.0
1502.198975 136.0
1550.536987 64.0
1555.460693 100.0
1593.578369 64.0
1599.385498 104.0
1609.931519 68.0
1626.779541 48.0
1630.869995 44.0
1640.537842 24.0
1670.103638 36.0
1678.241333 64.0
1729.152344 112.0
1748.743286 52.0
1788.930298 116.0
1807.988647 56.0
1834.894531 48.0
1840.578491 76.0
1869.488403 36.0
1935.352417 60.0
1936.390137 80.0
1938.129639 64.0
1943.521606 96.0
END IONS
