BEGIN IONS
PEPMASS=831.415
CHARGE=0
MSLEVEL=2
SOURCE_INSTRUMENT=LC-ESI-qTof
FILENAME=f.philipwi/GNPS_Marine_Invertebrate_Secondary_Metabolites_UHManoa/GNPS_SpongeSpectraAlreadyConvertedTo_mzXML/PW-125_P2-C-7_01_Hymenamide_B_830amu_Scan526-573_15591.mzML;
SEQ=*..*
IONMODE=Positive
ORGANISM=GNPS-LIBRARY
NAME=Hymenamide B M+H
PI=Philip Williams
DATACOLLECTOR=Williams
SMILES=O=C2N5[C@H](C(=O)N1CCC[C@H]1C(=O)N[C@H](C(=O)N[C@H](C(=O)N[C@H](C(=O)N[C@H](C(=O)N[C@H]2Cc3ccccc3)CCC(=O)O)C(C)C)Cc4ccccc4)CC(=O)N)CCC5
INCHI=
INCHIAUX=
PUBMED=
SUBMITUSER=philipwi
TAGS=
LIBRARYQUALITY=3
SPECTRUMID=CCMSLIB00000425023
SCANS=547
70.314926 48.0
110.060791 76.0
113.776138 24.0
114.996391 28.0
124.174652 24.0
134.192215 52.0
140.753555 36.0
143.924683 36.0
147.998367 36.0
149.078201 80.0
150.130722 60.0
151.139923 76.0
151.456848 76.0
153.073807 72.0
153.207916 52.0
153.68956 36.0
154.091904 228.0
155.464752 44.0
157.370056 32.0
157.434036 68.0
158.258896 36.0
163.32663 20.0
164.791428 68.0
165.10733 100.0
166.88945 24.0
166.955322 56.0
167.012985 92.0
167.094116 936.0
168.113327 164.0
168.52388 60.0
169.135635 192.0
170.096985 156.0
171.106339 112.0
171.240601 36.0
171.428131 40.0
171.944946 44.0
172.117508 2860.0
172.226288 36.0
172.326691 68.0
172.521286 48.0
172.829117 48.0
172.97998 24.0
173.123886 740.0
173.550537 36.0
174.130432 348.0
174.669174 32.0
175.083481 80.0
175.141266 96.0
176.713821 36.0
177.103821 100.0
178.252991 32.0
178.582916 64.0
179.114502 128.0
180.119492 52.0
180.316299 24.0
181.10379 132.0
182.088608 116.0
182.402252 32.0
182.462524 52.0
182.600311 64.0
183.122391 100.0
183.41951 40.0
183.549026 40.0
184.111588 1440.0
184.361694 28.0
184.985382 32.0
185.11293 384.0
186.096939 92.0
186.827911 104.0
187.089386 112.0
187.228912 36.0
189.029953 84.0
189.108841 80.0
190.095459 88.0
190.575546 88.0
191.421249 44.0
192.115311 88.0
192.985413 32.0
193.095734 140.0
193.26889 36.0
193.667862 24.0
193.916321 36.0
194.12085 112.0
194.475937 44.0
195.115936 1680.0
195.241165 60.0
195.451172 56.0
195.702606 180.0
195.802689 48.0
195.891907 20.0
195.972198 24.0
196.120941 224.0
196.780106 36.0
197.138718 104.0
198.18248 24.0
199.094833 108.0
200.110519 188.0
200.256287 52.0
200.639832 20.0
201.131485 452.0
201.498505 32.0
202.133301 176.0
202.531342 56.0
202.9216 32.0
203.103241 96.0
203.16925 128.0
204.110519 360.0
204.48526 112.0
204.860291 40.0
206.139587 132.0
208.102753 52.0
208.409378 48.0
208.98645 44.0
209.097794 120.0
209.779694 132.0
210.084473 36.0
210.223083 24.0
210.935333 36.0
211.061859 92.0
211.086838 44.0
211.265427 56.0
211.417007 68.0
211.681473 40.0
211.79718 84.0
211.904694 52.0
211.920303 72.0
212.003052 36.0
212.108536 15164.0
212.241669 80.0
212.327133 40.0
212.478241 64.0
212.51442 80.0
212.650177 28.0
212.696945 36.0
212.767029 60.0
212.954132 44.0
213.013245 40.0
213.111877 2156.0
213.259323 128.0
213.479599 52.0
213.572739 40.0
213.703171 36.0
213.833649 28.0
213.917557 44.0
213.992142 28.0
214.106812 68.0
214.182663 56.0
214.22377 24.0
214.239685 52.0
214.374634 24.0
214.822845 100.0
215.000397 36.0
215.149963 100.0
216.118362 228.0
216.198425 24.0
216.34935 40.0
216.554733 48.0
216.911331 48.0
217.024002 44.0
217.133743 2420.0
217.634811 40.0
217.945251 40.0
218.138046 640.0
218.537872 120.0
219.032761 76.0
219.151611 2144.0
219.245819 32.0
219.425186 36.0
219.566833 32.0
219.755783 24.0
219.869202 40.0
220.152847 200.0
220.597595 28.0
221.611771 44.0
221.70668 28.0
222.130539 232.0
222.419098 32.0
222.514175 32.0
222.847092 40.0
224.066757 64.0
224.143097 72.0
225.133759 152.0
226.036652 128.0
226.823181 80.0
227.104645 272.0
227.688019 108.0
227.938171 72.0
228.104568 368.0
228.188461 36.0
228.400345 28.0
228.660522 136.0
229.017303 28.0
229.12439 1944.0
229.683395 32.0
229.751022 32.0
229.989151 144.0
230.128586 360.0
230.282745 32.0
230.379486 36.0
230.805389 80.0
230.950668 28.0
231.116898 396.0
232.118744 236.0
232.406036 32.0
232.522659 48.0
232.940811 24.0
233.028366 32.0
233.108994 84.0
233.359329 44.0
233.515152 64.0
233.904953 32.0
234.128769 5600.0
234.361664 36.0
234.646454 32.0
234.855728 28.0
235.017654 40.0
235.131973 512.0
235.301117 20.0
235.391327 160.0
235.61412 32.0
235.741333 32.0
236.138168 280.0
236.37793 28.0
236.564178 108.0
236.897629 36.0
237.156067 84.0
237.270599 40.0
237.408081 36.0
237.850266 28.0
238.160263 84.0
239.113937 148.0
240.101166 420.0
240.571304 36.0
241.094528 296.0
241.650177 36.0
242.081696 212.0
242.890381 52.0
243.095001 88.0
243.800522 36.0
244.10968 248.0
245.130829 2168.0
245.350388 36.0
245.660004 52.0
246.132431 404.0
246.359863 24.0
246.910461 32.0
247.037674 40.0
247.147446 1500.0
247.331314 36.0
247.421555 44.0
247.541885 24.0
247.812744 36.0
248.149704 296.0
248.244415 32.0
248.415176 24.0
248.736786 36.0
248.958008 44.0
249.129868 2240.0
249.360474 28.0
249.551773 56.0
250.132339 432.0
250.502335 52.0
250.670761 88.0
251.03421 32.0
251.145325 188.0
251.236252 60.0
251.387817 20.0
251.711334 32.0
252.136276 68.0
252.956802 44.0
253.166702 388.0
253.382782 24.0
253.768509 32.0
253.931 40.0
254.127319 112.0
255.116974 84.0
255.192123 32.0
255.987015 124.0
256.282867 28.0
257.137665 64.0
257.877258 20.0
257.969391 24.0
258.379089 88.0
258.809601 56.0
259.115326 484.0
259.219971 32.0
259.39447 40.0
260.13092 112.0
260.817963 60.0
260.916107 28.0
261.008789 68.0
261.225098 28.0
261.493042 40.0
261.997894 48.0
262.124725 4180.0
262.473206 32.0
262.576477 36.0
262.755035 56.0
262.941284 136.0
263.138123 468.0
263.382782 24.0
263.931335 32.0
264.138916 1364.0
264.366455 36.0
264.459747 40.0
265.133026 128.0
266.006561 36.0
266.162537 120.0
266.65155 112.0
267.158112 56.0
267.495331 52.0
268.121246 36.0
268.580688 140.0
268.883728 20.0
269.121033 172.0
269.783386 32.0
270.145111 164.0
270.894348 108.0
271.184845 236.0
271.324677 40.0
271.419189 32.0
271.597748 148.0
271.870941 28.0
272.107971 312.0
273.12561 660.0
274.146301 112.0
274.621094 48.0
276.218506 36.0
276.939362 24.0
277.124817 1860.0
277.289551 32.0
277.756775 44.0
278.125671 268.0
278.432709 40.0
278.777588 40.0
279.02243 40.0
279.144775 236.0
279.533752 40.0
279.917542 52.0
280.159851 192.0
280.803436 28.0
280.942322 180.0
281.1651 2696.0
281.380554 32.0
281.690704 44.0
281.968964 48.0
282.054596 80.0
282.161469 660.0
282.40799 32.0
282.740143 52.0
282.976013 72.0
283.142487 176.0
283.587555 32.0
283.780792 48.0
283.941895 40.0
284.146027 128.0
284.317963 44.0
284.930969 20.0
286.158905 80.0
287.162628 32.0
288.103149 100.0
288.189728 92.0
288.611908 24.0
289.142792 168.0
289.641602 52.0
289.804352 64.0
290.115326 188.0
290.803558 36.0
291.042755 36.0
291.150818 1364.0
291.499664 52.0
291.695587 40.0
292.13736 584.0
292.687164 104.0
292.894379 40.0
293.02533 24.0
293.17926 76.0
293.756866 32.0
293.997253 152.0
294.142731 108.0
294.817566 28.0
295.150024 152.0
296.12146 96.0
296.944733 40.0
297.162781 132.0
298.166382 236.0
298.286346 36.0
298.870117 32.0
299.143341 848.0
299.344177 20.0
299.630981 32.0
299.741333 32.0
299.862732 24.0
300.157257 144.0
300.470154 36.0
300.845947 32.0
301.153809 888.0
301.43222 32.0
301.697906 24.0
301.83078 36.0
302.063385 40.0
302.161926 468.0
302.429108 32.0
303.171661 444.0
303.78302 36.0
304.191559 276.0
304.483368 52.0
304.683624 28.0
306.009125 28.0
306.13855 168.0
306.399536 64.0
306.935364 32.0
307.150208 252.0
307.555481 32.0
307.598328 48.0
307.709351 56.0
307.816376 24.0
307.983521 72.0
308.070831 48.0
308.170013 104.0
308.288147 64.0
308.523224 48.0
308.689575 56.0
308.945374 64.0
309.046753 136.0
309.161102 25008.0
309.302307 144.0
309.569092 68.0
309.808167 56.0
309.957642 112.0
310.159821 4876.0
310.327087 32.0
310.347748 28.0
310.397766 52.0
310.502747 92.0
310.629059 88.0
310.777832 56.0
310.863525 32.0
311.162781 568.0
311.26123 96.0
311.351196 72.0
311.463684 60.0
311.678894 32.0
311.778778 40.0
311.947632 36.0
312.171509 168.0
312.509796 48.0
312.679871 28.0
312.868683 48.0
313.157104 252.0
313.317047 48.0
313.458099 36.0
313.575684 48.0
313.819336 28.0
314.15387 2752.0
314.563171 48.0
314.655518 36.0
314.791229 36.0
315.16333 808.0
315.470184 44.0
315.722534 140.0
316.168243 600.0
316.34256 44.0
316.482391 72.0
316.955109 64.0
317.175751 112.0
317.284302 36.0
317.482635 32.0
317.954559 40.0
318.31839 24.0
319.178925 236.0
319.764374 32.0
320.139679 108.0
320.448669 36.0
320.699768 36.0
321.087616 84.0
321.29364 28.0
321.750854 156.0
322.116821 84.0
322.219818 52.0
322.368591 28.0
322.80365 28.0
322.888092 32.0
322.975464 32.0
323.13147 504.0
323.774048 48.0
323.938446 36.0
324.158905 260.0
324.7995 160.0
325.202423 96.0
325.328156 68.0
325.512146 36.0
325.699066 48.0
325.798706 44.0
325.987213 116.0
326.182068 4876.0
326.491943 48.0
326.697815 56.0
326.878723 40.0
327.1828 796.0
327.367676 36.0
327.84552 52.0
328.170258 384.0
328.312836 140.0
328.84436 32.0
329.151367 368.0
329.443451 148.0
329.58728 92.0
329.758179 36.0
330.188599 328.0
330.872681 44.0
331.180115 5044.0
331.438751 28.0
331.551605 72.0
331.782379 48.0
331.966492 76.0
332.178802 1796.0
332.293945 56.0
332.472412 44.0
332.565399 80.0
332.697906 40.0
332.78775 32.0
333.06546 76.0
333.190369 728.0
333.659027 36.0
333.763824 44.0
334.198181 152.0
334.474579 36.0
335.291138 32.0
335.396179 20.0
335.758179 36.0
335.898376 84.0
336.167114 80.0
337.184692 132.0
337.559357 24.0
337.770203 36.0
338.16864 120.0
339.156097 92.0
339.647247 64.0
340.17276 84.0
340.493622 32.0
341.023132 24.0
341.158844 1744.0
341.329254 28.0
342.166504 436.0
342.401794 28.0
343.043488 32.0
343.177917 544.0
343.355347 148.0
343.452393 20.0
343.570526 64.0
343.653259 24.0
343.842346 40.0
344.171631 1104.0
344.516418 28.0
344.693909 24.0
344.883301 20.0
345.171631 180.0
345.433014 48.0
345.617645 48.0
345.700623 40.0
345.916565 128.0
346.175415 172.0
346.400238 96.0
347.161957 216.0
347.480713 20.0
348.039398 148.0
348.193848 168.0
348.408142 68.0
349.0867 72.0
349.223663 64.0
350.188354 132.0
351.185181 196.0
351.663971 24.0
352.190155 56.0
352.465332 56.0
352.956177 68.0
353.171783 112.0
354.166779 88.0
354.670776 36.0
355.643829 28.0
355.848236 36.0
356.160492 644.0
356.582123 220.0
356.846985 44.0
356.967407 40.0
357.155151 476.0
357.385864 88.0
357.656647 40.0
357.935791 44.0
358.17865 424.0
358.341705 32.0
358.71814 100.0
358.959015 116.0
359.175873 23144.0
359.340363 104.0
359.493774 164.0
359.597748 80.0
359.709381 96.0
359.839264 180.0
360.011871 68.0
360.177216 4524.0
360.469696 44.0
360.571503 80.0
360.85199 48.0
361.041687 72.0
361.188263 2400.0
361.534424 32.0
361.921051 108.0
362.010315 48.0
362.191772 916.0
362.516846 60.0
362.71106 20.0
362.844604 28.0
362.941772 40.0
363.193756 116.0
363.456024 36.0
363.561371 32.0
363.646454 24.0
363.743713 20.0
363.877441 28.0
364.162262 292.0
364.522186 36.0
364.802155 44.0
365.179688 104.0
365.679291 28.0
366.020691 32.0
366.196869 152.0
366.838226 36.0
366.984772 36.0
367.201355 104.0
367.384521 44.0
367.766724 44.0
368.219147 64.0
368.512787 40.0
369.160706 316.0
370.14209 68.0
370.350586 72.0
370.755524 88.0
371.171143 496.0
371.358154 52.0
371.541473 40.0
371.858765 44.0
372.176941 260.0
372.635834 48.0
372.881989 28.0
373.163422 200.0
373.670166 40.0
373.912048 64.0
374.176178 1616.0
375.179779 784.0
375.772797 36.0
376.076874 48.0
376.191162 2648.0
376.389374 44.0
376.707581 32.0
376.831329 44.0
376.923706 92.0
377.19577 1048.0
377.50946 36.0
377.797119 52.0
378.032562 40.0
378.186188 172.0
379.177582 52.0
379.409546 52.0
379.521301 92.0
380.203644 104.0
381.212067 60.0
381.336548 24.0
381.697601 136.0
381.909363 24.0
382.208405 132.0
383.031342 100.0
383.21524 120.0
383.355774 136.0
383.592957 60.0
383.822479 52.0
384.055023 32.0
384.163116 104.0
384.867432 44.0
385.176422 108.0
385.818451 36.0
385.906097 76.0
386.165894 148.0
386.983765 24.0
387.170959 500.0
387.435333 28.0
387.77417 44.0
388.170715 108.0
388.339264 36.0
388.929871 52.0
389.186096 700.0
389.357422 24.0
389.609009 24.0
390.213196 80.0
390.452484 24.0
390.843048 20.0
391.163208 200.0
391.486023 36.0
392.195709 244.0
392.324921 84.0
392.798828 24.0
393.192444 160.0
394.202423 116.0
394.670837 40.0
394.772156 40.0
395.038177 44.0
395.212555 96.0
396.001648 52.0
396.242706 36.0
396.331543 52.0
396.636169 52.0
397.177643 120.0
397.588867 44.0
398.924591 48.0
399.026459 108.0
399.24295 80.0
399.395813 40.0
400.214569 184.0
400.698761 132.0
401.184509 96.0
401.84549 36.0
402.168671 792.0
402.932404 36.0
403.171844 208.0
403.533997 32.0
403.777344 48.0
403.899048 48.0
404.033569 48.0
404.185577 140.0
404.802704 96.0
405.020782 28.0
405.226044 104.0
406.189026 48.0
406.53598 32.0
406.831635 92.0
407.20459 40.0
407.989624 40.0
408.227661 288.0
408.393433 112.0
408.530579 24.0
408.801208 36.0
409.222229 108.0
409.626465 20.0
409.852264 32.0
409.949066 52.0
410.21582 548.0
410.320221 48.0
410.67215 64.0
410.769867 64.0
410.904724 32.0
411.209625 2376.0
411.378204 100.0
411.783844 16.0
411.906738 32.0
412.213165 924.0
412.430878 60.0
412.630402 156.0
412.897034 24.0
413.220001 4644.0
413.467163 20.0
413.691193 92.0
413.978516 36.0
414.226929 884.0
414.496735 52.0
414.751373 40.0
414.881195 28.0
415.219208 476.0
415.465698 36.0
415.764587 28.0
416.037567 32.0
416.154602 84.0
416.92218 96.0
417.156494 40.0
417.342804 144.0
417.536346 24.0
417.635101 32.0
418.303009 40.0
418.628998 28.0
419.199402 100.0
420.20108 832.0
420.875305 24.0
420.966858 36.0
421.18396 188.0
421.647247 24.0
422.198547 176.0
423.213318 224.0
423.455505 152.0
424.203522 88.0
424.544952 36.0
424.991638 32.0
425.188202 404.0
425.760345 68.0
425.805145 32.0
425.839661 64.0
426.10675 108.0
426.20047 104.0
426.46579 48.0
426.583221 48.0
427.104279 72.0
427.209229 368.0
427.452606 24.0
427.763947 100.0
427.887939 188.0
427.987854 60.0
428.232727 29976.0
428.46579 80.0
428.672028 56.0
428.964325 88.0
429.233643 8932.0
429.510101 80.0
429.636536 76.0
429.734711 56.0
429.834747 80.0
430.245789 4764.0
430.501526 32.0
430.704437 44.0
430.806671 48.0
430.969177 72.0
431.105133 36.0
431.252655 1384.0
431.640594 76.0
431.738281 40.0
431.958496 24.0
432.091003 28.0
432.252625 360.0
432.496582 96.0
432.621185 32.0
432.952728 28.0
433.233215 84.0
433.496704 68.0
433.881683 48.0
434.041016 24.0
434.157532 136.0
434.333252 28.0
434.505951 36.0
434.633972 48.0
434.758453 28.0
435.001892 64.0
435.162903 124.0
435.423279 24.0
435.69693 76.0
436.314941 32.0
436.461426 36.0
437.061829 32.0
437.260834 48.0
437.474121 32.0
437.574493 40.0
437.914215 56.0
438.041382 68.0
438.214294 912.0
438.461304 20.0
438.554749 40.0
438.814056 76.0
438.928619 56.0
439.200958 1888.0
439.379822 36.0
439.609985 96.0
439.770691 128.0
439.99765 20.0
440.219452 920.0
440.425629 32.0
440.572815 24.0
440.907349 28.0
441.001068 24.0
441.215729 1296.0
441.710815 24.0
442.212738 708.0
442.447998 36.0
443.19986 212.0
443.373657 20.0
443.494446 20.0
443.615295 20.0
443.986572 68.0
444.203766 300.0
444.461517 24.0
444.757233 28.0
444.891663 20.0
445.026123 20.0
445.23938 392.0
445.725677 52.0
445.927582 32.0
446.214569 104.0
447.126404 24.0
447.226776 108.0
447.716003 160.0
447.917053 76.0
448.016449 32.0
448.259369 104.0
448.583313 96.0
448.704834 60.0
449.542419 44.0
449.637024 40.0
449.772217 24.0
450.191864 72.0
451.057404 28.0
451.693939 44.0
451.942108 76.0
452.203857 68.0
453.126068 32.0
453.210876 160.0
453.307556 32.0
453.659424 52.0
453.791443 60.0
453.93103 52.0
454.020996 56.0
454.109894 44.0
454.2099 156.0
454.380371 40.0
454.475494 28.0
454.653015 64.0
454.97644 136.0
455.235168 464.0
455.386444 56.0
455.648834 92.0
455.852264 64.0
456.032288 140.0
456.227661 36532.0
456.601318 72.0
456.746796 124.0
456.916626 168.0
457.070801 96.0
457.227905 9812.0
457.491608 84.0
457.581787 88.0
457.710358 92.0
457.946014 96.0
458.239044 6180.0
458.504883 68.0
458.697968 28.0
458.853302 32.0
458.944489 148.0
459.063263 80.0
459.096924 64.0
459.242462 1592.0
459.427979 44.0
459.674011 44.0
459.811066 224.0
459.982208 100.0
460.105255 48.0
460.230194 744.0
460.372772 36.0
460.652344 68.0
460.805359 44.0
461.216034 212.0
461.4599 104.0
461.610535 60.0
461.730865 148.0
462.236115 364.0
462.362823 84.0
462.56192 56.0
462.66571 32.0
462.859406 32.0
463.239685 176.0
463.837921 64.0
464.23996 112.0
464.348114 52.0
464.504852 40.0
464.710968 68.0
464.850708 24.0
465.034912 28.0
465.357025 44.0
466.241821 124.0
466.353882 48.0
467.049957 44.0
467.202148 84.0
467.546051 52.0
467.929413 208.0
468.056152 128.0
468.220367 140.0
468.744446 36.0
469.130981 96.0
469.215332 92.0
470.201874 564.0
470.839172 60.0
471.204224 508.0
471.427216 32.0
471.524109 32.0
471.729004 160.0
471.842529 76.0
471.967133 24.0
472.095673 100.0
472.214569 172.0
472.768707 28.0
472.956085 32.0
473.247955 3548.0
473.436218 56.0
473.645752 120.0
473.764557 36.0
473.916473 52.0
474.245148 1060.0
474.490936 172.0
474.615906 32.0
474.713135 20.0
475.029144 32.0
475.25058 276.0
475.393921 56.0
475.810974 32.0
475.939911 96.0
476.241577 228.0
476.826538 88.0
476.951843 20.0
477.229309 112.0
477.592438 60.0
477.717804 40.0
477.926819 116.0
478.232483 772.0
478.417603 56.0
478.526245 84.0
478.930725 76.0
479.236908 288.0
479.488892 24.0
479.949646 120.0
480.25769 104.0
480.662109 28.0
481.235291 120.0
481.375122 32.0
481.908936 76.0
482.212067 44.0
483.225311 132.0
483.838959 36.0
484.583191 40.0
485.6362 116.0
485.804779 24.0
486.250427 140.0
486.913025 120.0
487.229004 164.0
487.393738 36.0
488.048737 76.0
488.222809 852.0
488.717499 44.0
489.230011 400.0
489.47876 84.0
489.704437 32.0
490.239136 1004.0
490.452362 32.0
490.890076 36.0
491.045441 44.0
491.238586 364.0
491.638916 32.0
491.822662 32.0
492.246429 172.0
492.628784 60.0
492.798584 32.0
493.242157 136.0
494.260742 80.0
494.55484 104.0
494.895142 64.0
495.051147 20.0
495.264679 144.0
495.913116 36.0
496.263519 200.0
496.811401 148.0
497.109802 56.0
497.223511 56.0
498.255371 72.0
498.282043 84.0
499.22467 180.0
499.600128 120.0
500.217224 840.0
500.911804 40.0
501.194397 428.0
501.663483 108.0
502.209045 212.0
502.639587 108.0
502.839691 32.0
503.219849 68.0
504.084045 40.0
504.237183 80.0
504.771271 52.0
505.029083 36.0
505.244659 164.0
505.860291 32.0
506.240112 796.0
506.376556 64.0
507.230408 192.0
507.88385 36.0
508.099335 28.0
508.244629 72.0
508.487396 32.0
508.645508 52.0
508.789276 28.0
508.990601 20.0
509.280914 96.0
509.522858 36.0
509.676636 104.0
509.962494 44.0
510.269714 1988.0
510.775452 28.0
511.005981 92.0
511.146149 128.0
511.274811 496.0
511.750061 32.0
511.89978 36.0
512.072876 36.0
512.271973 224.0
512.404724 44.0
512.765503 36.0
513.263855 412.0
514.274353 88.0
515.256348 112.0
515.424927 120.0
515.642029 36.0
516.018433 28.0
517.240173 68.0
518.00415 104.0
518.218933 40.0
518.541077 32.0
519.020203 56.0
519.136414 96.0
519.269836 132.0
519.485046 32.0
519.637634 72.0
519.9646 24.0
520.2453 168.0
521.011719 84.0
521.250183 264.0
521.535645 32.0
521.84137 36.0
522.243286 540.0
523.05072 48.0
523.258179 784.0
523.386108 100.0
523.663208 32.0
523.911194 40.0
524.027954 32.0
524.255371 696.0
524.480408 68.0
524.547913 32.0
524.836304 40.0
525.108337 28.0
525.260132 328.0
525.500977 64.0
525.935303 88.0
526.256897 352.0
526.774902 68.0
526.96344 148.0
527.298706 17424.0
527.588318 76.0
527.864502 60.0
528.002136 72.0
528.081482 100.0
528.304321 4612.0
528.632385 44.0
528.854492 20.0
528.971741 60.0
529.08905 28.0
529.303711 1484.0
529.579346 28.0
529.758423 56.0
529.927673 116.0
530.27832 516.0
530.520325 44.0
530.712708 52.0
530.894104 76.0
531.060425 124.0
531.286804 464.0
531.531982 48.0
531.672791 36.0
531.877014 36.0
532.053528 40.0
532.282959 100.0
532.603943 100.0
532.797852 24.0
533.02594 24.0
533.238831 148.0
533.467529 28.0
533.97699 108.0
534.224609 156.0
534.351257 32.0
534.513367 60.0
534.660767 108.0
534.911377 40.0
535.080444 128.0
535.42749 36.0
535.693054 120.0
536.03241 36.0
536.814941 96.0
536.918274 136.0
537.282715 292.0
537.73468 48.0
537.849243 44.0
538.268066 2552.0
538.588684 28.0
538.736633 68.0
538.884583 40.0
539.045898 40.0
539.269714 908.0
539.580322 32.0
539.821838 36.0
540.250916 1736.0
540.572876 92.0
540.711182 24.0
540.884155 40.0
541.121399 72.0
541.269592 1044.0
541.417969 28.0
541.98175 56.0
542.2771 672.0
542.477661 40.0
542.5755 48.0
542.907043 160.0
543.285156 380.0
543.496521 56.0
544.091125 28.0
544.259888 88.0
544.531433 56.0
544.77533 192.0
545.549255 136.0
546.234375 64.0
546.457825 32.0
547.264343 40.0
548.226501 76.0
548.665466 88.0
549.194824 144.0
550.25769 128.0
550.9823 24.0
551.247437 188.0
551.401306 48.0
552.06311 40.0
552.244446 904.0
552.431763 104.0
552.60376 28.0
552.859741 72.0
553.27063 100.0
553.438904 28.0
553.727234 36.0
553.957214 128.0
554.113953 28.0
554.315613 700.0
554.586731 76.0
554.627686 96.0
554.848816 96.0
555.091797 72.0
555.295349 37560.0
555.609558 244.0
555.636292 168.0
555.903564 288.0
556.052307 56.0
556.29834 10248.0
556.585815 76.0
556.770081 76.0
556.937195 48.0
557.130371 80.0
557.297241 1672.0
557.510376 64.0
557.642578 84.0
557.898743 64.0
558.280334 1852.0
558.483765 40.0
558.604614 24.0
558.700073 36.0
559.008972 40.0
559.100647 48.0
559.287476 2344.0
559.482239 76.0
559.649719 80.0
559.875916 40.0
560.126221 128.0
560.290405 904.0
560.63031 36.0
560.78125 32.0
560.918091 64.0
560.963623 52.0
561.016052 116.0
561.289368 316.0
561.413696 40.0
561.517639 52.0
561.732666 28.0
561.986206 108.0
562.298889 68.0
562.6698 40.0
563.168884 20.0
563.387329 128.0
563.535889 124.0
563.834656 20.0
563.976685 104.0
564.296021 76.0
564.712952 32.0
564.925049 32.0
565.091675 80.0
565.319031 52.0
566.061951 96.0
566.213623 32.0
566.39563 24.0
566.592896 32.0
566.835693 24.0
567.107361 40.0
567.259705 1580.0
567.72522 68.0
567.96991 40.0
568.252625 2256.0
568.45929 84.0
568.562561 160.0
568.784668 64.0
568.932007 32.0
569.269287 1284.0
569.601196 124.0
569.741943 48.0
570.109436 40.0
570.2677 1332.0
570.666626 40.0
570.849365 36.0
570.955994 20.0
571.261414 292.0
571.463806 48.0
571.56543 72.0
571.863586 36.0
572.144714 28.0
572.313354 332.0
572.708984 32.0
572.922607 36.0
573.308838 668.0
574.132385 32.0
574.2948 256.0
574.449402 64.0
574.839905 36.0
574.97998 72.0
575.127136 72.0
575.295105 2044.0
576.146545 32.0
576.302795 744.0
576.835266 36.0
577.095581 36.0
577.315125 316.0
577.738892 84.0
578.003967 164.0
578.32019 84.0
578.71991 24.0
579.440857 104.0
580.269775 120.0
580.386719 52.0
580.776611 116.0
581.400208 96.0
582.529236 40.0
583.221741 108.0
583.329529 80.0
583.822327 44.0
584.314087 52.0
584.484802 48.0
584.64856 40.0
584.885559 40.0
585.271301 1792.0
585.440674 124.0
585.678772 112.0
585.87262 64.0
586.00531 80.0
586.273743 720.0
586.732422 76.0
586.875977 28.0
587.106018 40.0
587.286072 5604.0
587.482605 44.0
587.636475 28.0
587.826294 72.0
588.057922 64.0
588.288757 1924.0
588.575867 32.0
588.684143 44.0
588.863281 48.0
589.283752 424.0
590.26825 68.0
590.386658 132.0
591.083862 28.0
591.307129 72.0
591.517883 36.0
592.076111 36.0
592.314636 200.0
592.689758 80.0
592.945068 124.0
593.316101 168.0
594.032104 40.0
594.234131 56.0
594.660095 88.0
595.26532 36.0
595.358032 68.0
595.866821 24.0
595.975769 44.0
596.244873 228.0
596.41156 52.0
597.190186 32.0
597.377136 76.0
597.595276 40.0
597.906982 176.0
598.260498 96.0
598.678772 40.0
599.318665 132.0
599.794495 20.0
599.977966 32.0
600.291992 92.0
600.500854 52.0
601.262878 28.0
601.403564 32.0
601.606812 32.0
602.060303 64.0
602.274963 200.0
602.663757 80.0
602.769043 108.0
602.967834 56.0
603.295715 3356.0
603.515808 44.0
603.654541 28.0
603.797729 28.0
603.90741 52.0
604.29541 1452.0
604.64856 108.0
604.951294 72.0
605.318909 452.0
606.306946 120.0
606.965942 56.0
607.138733 52.0
607.285156 236.0
607.468628 24.0
607.641418 16.0
608.285828 188.0
608.773315 128.0
609.287231 168.0
609.497009 64.0
610.003601 44.0
610.32666 260.0
610.614929 100.0
610.740906 28.0
611.328247 240.0
611.844177 40.0
612.170105 84.0
612.320801 176.0
613.257141 108.0
613.516663 32.0
613.864075 40.0
614.307861 168.0
614.970154 40.0
615.335205 152.0
616.276184 92.0
617.106079 32.0
617.265259 320.0
618.242126 80.0
618.817444 56.0
619.294556 52.0
619.864502 28.0
620.294983 704.0
620.626526 44.0
620.832947 88.0
621.30896 1240.0
621.929382 24.0
622.05658 32.0
622.314514 440.0
622.883606 20.0
623.322021 588.0
623.758911 32.0
624.34491 80.0
625.277527 60.0
626.197083 84.0
629.178284 120.0
629.345215 480.0
629.667725 44.0
629.967346 36.0
630.31366 152.0
631.360046 52.0
631.616333 68.0
632.56189 124.0
632.866577 72.0
633.652588 44.0
633.909363 88.0
634.230408 32.0
634.519409 24.0
634.808472 40.0
634.920898 24.0
635.280884 592.0
635.719604 124.0
635.837891 56.0
636.029663 56.0
636.306519 208.0
636.537598 40.0
636.710571 140.0
636.881958 80.0
637.297791 420.0
637.590027 20.0
638.174438 40.0
638.334045 3524.0
638.563293 40.0
638.684998 28.0
638.889465 52.0
639.029785 60.0
639.178772 36.0
639.326477 2488.0
639.567322 32.0
639.67804 88.0
639.82251 80.0
640.068237 44.0
640.333191 1264.0
640.861694 56.0
641.184448 32.0
641.351685 212.0
642.374329 112.0
642.670349 84.0
642.896606 44.0
643.323547 96.0
643.607971 32.0
643.737366 36.0
644.449158 36.0
644.691895 104.0
645.015686 40.0
645.452881 144.0
645.776794 52.0
645.938782 40.0
646.343872 24.0
646.489746 32.0
646.60321 112.0
646.89679 36.0
647.073364 28.0
647.286316 416.0
647.478821 64.0
647.803284 24.0
648.062866 36.0
648.286987 492.0
648.582275 48.0
648.695923 100.0
648.939453 32.0
649.302551 516.0
649.442993 60.0
649.81665 44.0
650.008911 40.0
650.30835 368.0
650.596863 64.0
650.917786 144.0
651.3125 196.0
652.012207 44.0
652.9729 28.0
653.1521 60.0
653.412781 16.0
653.575745 28.0
653.870056 136.0
654.178833 36.0
654.292969 84.0
654.439758 32.0
654.602844 44.0
654.782227 24.0
654.929016 36.0
655.075867 36.0
655.434875 80.0
655.616943 76.0
655.942505 40.0
656.065552 44.0
656.346802 8400.0
656.664856 36.0
656.806458 56.0
657.059692 48.0
657.34491 4708.0
657.588806 32.0
657.760803 60.0
657.90686 48.0
658.064941 40.0
658.351074 1040.0
658.887146 84.0
659.161011 32.0
659.340698 500.0
659.575378 44.0
659.701233 32.0
659.897705 32.0
660.126953 52.0
660.427246 48.0
660.651184 24.0
661.591858 120.0
662.331055 128.0
662.635193 40.0
662.782898 44.0
662.979858 36.0
663.180481 36.0
663.308167 32.0
663.805359 100.0
664.469971 124.0
664.859985 36.0
665.248474 112.0
665.385986 32.0
665.888184 24.0
666.328186 2732.0
666.753235 28.0
666.823364 24.0
666.880981 72.0
667.138916 104.0
667.319763 3232.0
667.758179 120.0
667.995911 76.0
668.320862 1044.0
668.572144 36.0
669.09967 32.0
669.333862 300.0
669.6604 24.0
669.891357 84.0
670.297119 204.0
670.485474 112.0
670.964233 80.0
671.309937 220.0
671.690918 116.0
671.872681 20.0
672.104004 28.0
672.314087 208.0
672.573303 44.0
672.702942 136.0
673.315063 72.0
673.625244 24.0
673.972717 52.0
674.367188 928.0
674.850098 32.0
675.015747 32.0
675.181335 64.0
675.36792 192.0
676.399231 168.0
676.805542 48.0
677.135254 52.0
677.352966 68.0
677.734558 112.0
678.182739 88.0
679.827148 32.0
680.26532 100.0
680.607361 56.0
680.679199 88.0
680.827148 104.0
680.963379 64.0
681.090881 48.0
681.314453 132.0
681.488953 124.0
681.605042 40.0
681.750244 68.0
681.862854 72.0
682.097778 32.0
682.327271 124.0
682.539001 32.0
682.846863 132.0
683.165771 32.0
683.368713 148.0
683.593018 152.0
684.073181 116.0
684.342529 43456.0
684.735901 84.0
684.779602 108.0
684.958801 120.0
685.341003 16480.0
685.613037 188.0
685.903015 76.0
685.929077 60.0
685.994629 124.0
686.343994 4204.0
686.599548 68.0
686.750549 48.0
687.00592 56.0
687.335144 1232.0
687.571289 52.0
687.744873 24.0
687.877075 124.0
688.332825 680.0
688.770569 36.0
689.116333 28.0
689.342285 572.0
689.641846 144.0
689.886292 52.0
690.081665 36.0
690.346497 360.0
690.704712 64.0
690.960693 44.0
691.142639 24.0
691.357544 68.0
691.58374 88.0
691.831482 84.0
692.329834 64.0
693.00885 60.0
693.809753 120.0
694.061646 56.0
694.263184 32.0
694.889832 120.0
695.32843 80.0
695.523499 32.0
695.826111 40.0
696.314636 48.0
697.037292 40.0
697.305359 216.0
697.491821 40.0
697.693848 72.0
698.396179 76.0
698.645508 68.0
699.084534 40.0
699.322083 200.0
699.564087 76.0
699.867554 48.0
700.208618 108.0
700.255493 44.0
700.316101 108.0
700.761658 32.0
700.896667 72.0
701.132935 24.0
701.348999 40.0
701.7854 68.0
701.977112 52.0
702.360901 1692.0
702.872559 64.0
703.224121 40.0
703.373047 804.0
703.559998 24.0
703.700867 88.0
703.867676 176.0
704.191345 44.0
704.349915 888.0
704.841003 112.0
704.975342 24.0
705.335693 360.0
705.731567 56.0
705.847961 32.0
706.087219 28.0
706.364319 1152.0
706.578491 68.0
706.832703 44.0
707.356201 980.0
707.765137 48.0
708.063904 52.0
708.203979 32.0
708.35437 212.0
708.596375 64.0
709.546936 88.0
709.886536 32.0
710.056396 32.0
710.630249 36.0
710.692322 28.0
710.743103 48.0
711.955872 32.0
712.326721 108.0
712.929932 84.0
713.185303 68.0
713.348938 112.0
713.982239 120.0
714.104858 48.0
714.32666 2232.0
714.718201 64.0
715.007935 92.0
715.319763 2168.0
715.928711 24.0
716.12677 124.0
716.324097 928.0
716.600586 52.0
716.809814 56.0
717.030334 36.0
717.157288 28.0
717.329102 860.0
717.857361 28.0
718.341003 540.0
718.762817 136.0
719.356201 144.0
719.598145 124.0
719.822815 40.0
720.284668 64.0
721.499817 32.0
722.099243 24.0
722.884583 148.0
723.041687 40.0
723.333069 96.0
724.259155 156.0
724.392395 120.0
725.373169 44.0
726.147461 96.0
726.50824 40.0
727.453552 24.0
727.739075 132.0
727.986633 56.0
728.371277 44.0
728.691956 36.0
728.846863 36.0
729.139404 92.0
729.587036 40.0
729.845337 32.0
730.05011 36.0
730.344849 120.0
730.775574 72.0
730.999573 52.0
731.137512 40.0
731.346252 36.0
731.875 36.0
732.034058 128.0
732.341614 3212.0
732.603333 68.0
732.810364 16.0
732.948425 20.0
733.345459 1612.0
733.796814 56.0
733.942871 52.0
734.029602 32.0
734.094788 40.0
734.356873 3404.0
734.731384 32.0
734.922485 28.0
735.107239 36.0
735.362549 1576.0
735.60675 40.0
735.995544 52.0
736.109985 140.0
736.362366 316.0
736.59436 136.0
736.801941 32.0
737.234619 64.0
737.363892 36.0
737.52887 112.0
737.823181 88.0
737.944397 32.0
738.325439 40.0
738.550598 40.0
738.914429 36.0
739.035767 36.0
739.330383 28.0
740.081299 64.0
740.362671 164.0
740.544189 32.0
740.908508 164.0
741.116699 44.0
741.35968 80.0
741.776306 36.0
742.381592 112.0
742.78363 36.0
743.397339 104.0
743.739441 24.0
744.339478 196.0
745.315308 280.0
745.764709 124.0
746.337158 176.0
746.810974 132.0
747.168091 24.0
747.429504 188.0
748.161621 108.0
748.283691 144.0
748.702209 76.0
749.243042 36.0
749.400085 32.0
749.522217 128.0
750.936523 140.0
751.330017 84.0
751.61792 96.0
751.775208 56.0
752.054871 124.0
752.188965 36.0
753.156616 24.0
754.556763 52.0
755.870605 76.0
757.782104 104.0
757.949158 108.0
758.398376 140.0
758.712463 104.0
759.06366 28.0
759.386414 160.0
759.713623 36.0
760.434143 76.0
762.347961 196.0
762.540466 124.0
763.346802 112.0
763.531067 136.0
766.379639 112.0
767.570068 36.0
767.940979 44.0
768.376282 516.0
768.877502 36.0
769.042542 96.0
769.386841 160.0
769.632629 108.0
770.378967 144.0
770.592957 124.0
771.374695 76.0
771.779053 32.0
772.398987 36.0
772.52301 40.0
773.256104 108.0
773.480042 32.0
773.870117 148.0
775.271667 28.0
775.786438 96.0
776.443542 68.0
777.296387 128.0
777.794067 72.0
778.096313 64.0
778.398621 64.0
778.861084 32.0
779.359314 64.0
780.267151 32.0
780.587708 80.0
781.502808 196.0
781.921509 28.0
782.31842 32.0
782.557739 44.0
782.726318 60.0
782.875854 52.0
783.43988 88.0
784.457214 32.0
784.796448 44.0
785.394531 552.0
785.725342 40.0
785.939758 36.0
786.390259 3920.0
786.705872 28.0
786.860413 32.0
786.893188 48.0
787.122742 164.0
787.401672 2268.0
787.656311 28.0
787.869324 84.0
788.139404 28.0
788.404114 636.0
788.791504 28.0
789.121338 140.0
789.409119 196.0
790.391663 84.0
791.579163 48.0
792.332581 72.0
792.819214 100.0
793.283875 24.0
794.3255 32.0
794.551819 64.0
795.367859 72.0
795.997253 36.0
796.115112 40.0
796.373291 748.0
797.381653 212.0
797.619202 140.0
798.365662 88.0
798.571106 48.0
798.942993 56.0
799.009155 56.0
799.322388 96.0
799.494324 88.0
799.938904 212.0
800.171326 112.0
800.387878 40.0
800.824402 32.0
801.076965 36.0
801.382202 92.0
801.461304 40.0
801.765259 28.0
802.025024 68.0
802.225586 36.0
802.562317 68.0
802.616821 64.0
802.66803 104.0
802.864136 108.0
802.980713 52.0
803.192993 120.0
803.231812 40.0
803.416382 28568.0
803.709045 104.0
803.972534 168.0
804.063904 116.0
804.135498 184.0
804.417236 15976.0
805.009644 52.0
805.156311 76.0
805.418579 3592.0
805.659424 32.0
805.896057 40.0
806.089661 24.0
806.432556 504.0
806.643555 24.0
806.82843 168.0
807.060059 36.0
807.24115 120.0
807.428223 208.0
807.731079 152.0
808.219421 32.0
808.633179 188.0
808.763184 32.0
809.089539 40.0
809.234619 28.0
809.361572 28.0
809.848267 48.0
809.882141 40.0
810.13501 188.0
810.317627 40.0
810.442078 64.0
810.694458 36.0
810.921936 40.0
811.073975 64.0
811.285034 48.0
811.521057 24.0
811.829773 40.0
812.211243 24.0
812.374756 32.0
812.5802 52.0
812.774536 68.0
813.083496 32.0
813.398071 2272.0
813.865295 64.0
814.045898 64.0
814.218689 148.0
814.386047 13700.0
814.893066 72.0
815.143738 56.0
815.388489 6324.0
815.746582 72.0
815.897217 156.0
816.168213 108.0
816.391907 1376.0
816.694031 68.0
817.123718 28.0
817.398071 312.0
818.002869 80.0
818.199158 36.0
818.423157 72.0
818.634583 32.0
818.819275 32.0
818.987427 36.0
819.202332 60.0
819.384827 164.0
819.530823 24.0
819.768066 40.0
820.140259 92.0
820.333923 116.0
820.626099 28.0
820.845215 152.0
820.991333 40.0
821.557617 40.0
821.758667 28.0
822.105896 112.0
822.526306 36.0
822.846252 20.0
823.09314 40.0
823.367493 20.0
823.8797 76.0
824.318909 60.0
825.413696 60.0
825.802002 68.0
826.135803 36.0
826.460327 32.0
826.816589 152.0
827.040405 180.0
827.246643 248.0
827.401062 108.0
827.630005 96.0
827.876038 128.0
827.916992 76.0
828.189148 132.0
828.445129 112.0
828.585022 80.0
828.856018 96.0
829.05011 64.0
829.162292 32.0
829.407104 256.0
829.833984 184.0
830.07196 36.0
830.239136 116.0
830.406067 252.0
830.825989 404.0
831.058167 472.0
831.414795 167364.0
831.815491 348.0
832.015991 288.0
832.103088 440.0
832.417847 71104.0
832.802246 384.0
833.061523 260.0
833.417297 20304.0
833.7677 140.0
834.059692 148.0
834.254272 160.0
834.417419 3088.0
834.720825 68.0
834.825867 136.0
834.996643 168.0
835.142334 84.0
835.418823 268.0
835.66925 100.0
836.068115 80.0
836.305298 48.0
836.438965 188.0
836.686951 48.0
836.850891 76.0
837.17627 28.0
837.359863 80.0
837.515747 44.0
837.751892 28.0
837.881042 40.0
838.066284 108.0
838.257446 40.0
838.413757 100.0
838.766968 176.0
838.988525 28.0
839.228516 52.0
839.60022 32.0
840.099304 56.0
840.570923 44.0
840.745972 44.0
841.002258 36.0
841.16864 32.0
841.332031 44.0
841.791443 96.0
842.298401 92.0
842.600647 40.0
842.816895 36.0
843.328796 168.0
843.570068 40.0
844.116455 52.0
844.513977 104.0
844.814758 28.0
845.162781 36.0
845.238464 60.0
845.360413 36.0
845.643372 28.0
845.945312 52.0
846.306335 36.0
846.445984 32.0
846.833496 36.0
847.377319 40.0
847.68219 56.0
848.090149 96.0
848.22937 72.0
848.367737 108.0
848.59314 40.0
849.09082 40.0
849.313171 60.0
849.999634 48.0
850.153015 48.0
850.289368 40.0
850.493835 24.0
850.847046 64.0
851.017456 24.0
851.256165 36.0
851.600281 32.0
851.907288 88.0
852.117615 52.0
852.335266 32.0
852.676392 160.0
853.045654 180.0
853.297852 96.0
853.638489 40.0
853.936462 36.0
854.072388 108.0
854.193237 36.0
854.425964 44.0
854.952576 36.0
855.334106 176.0
855.981812 60.0
856.434448 88.0
856.623291 32.0
858.188904 136.0
858.450317 36.0
858.780273 36.0
859.141541 136.0
860.038635 20.0
860.169495 36.0
860.599548 24.0
860.905945 32.0
860.97052 24.0
861.034973 44.0
861.216736 64.0
861.459961 100.0
862.208496 24.0
863.182129 28.0
864.531067 32.0
865.504089 40.0
865.674805 16.0
866.460205 32.0
866.96936 56.0
867.194641 36.0
867.443359 32.0
867.664001 40.0
868.133484 24.0
868.58429 36.0
869.14801 40.0
870.915405 44.0
871.178833 96.0
871.498718 108.0
872.835327 124.0
873.06134 104.0
874.625366 116.0
878.872192 36.0
879.068115 120.0
879.76062 20.0
880.309021 84.0
881.457031 88.0
881.85199 80.0
882.314941 104.0
882.598999 36.0
882.731567 52.0
884.266296 36.0
885.290222 40.0
885.460938 32.0
887.567688 36.0
887.738586 40.0
887.890564 28.0
888.175476 124.0
889.372742 88.0
890.076294 96.0
891.998108 32.0
892.359863 32.0
894.074524 52.0
894.608276 124.0
894.817993 64.0
895.35199 112.0
896.382324 44.0
896.97406 28.0
898.253601 144.0
898.769531 204.0
899.457642 52.0
904.013428 108.0
905.144592 88.0
905.604919 36.0
906.046204 124.0
906.429993 124.0
907.236206 60.0
912.158142 28.0
913.390747 32.0
913.737549 36.0
915.588318 32.0
916.090454 124.0
917.8078 164.0
918.986206 40.0
920.629517 44.0
922.448486 124.0
922.758301 20.0
924.870178 132.0
927.042664 156.0
927.372681 84.0
929.217712 84.0
930.364563 76.0
930.928467 120.0
936.987061 40.0
937.592041 36.0
938.900269 124.0
939.330078 144.0
940.05304 36.0
943.417725 28.0
944.161865 152.0
945.7099 112.0
948.26001 36.0
948.691956 104.0
953.016357 128.0
953.232849 88.0
954.35498 92.0
957.01532 64.0
960.054626 116.0
963.65271 40.0
964.880005 84.0
965.335449 100.0
973.293823 28.0
977.215515 96.0
980.107056 32.0
986.843933 72.0
990.812866 120.0
992.860596 100.0
994.367615 112.0
995.29248 32.0
995.533813 104.0
996.600098 140.0
1000.296204 128.0
1001.475952 44.0
1002.303223 32.0
1003.352295 120.0
1003.736633 108.0
1007.76825 112.0
1008.30603 96.0
1009.217102 40.0
1010.776978 112.0
1013.271301 28.0
1014.915588 96.0
1019.388184 88.0
1022.953003 32.0
1023.095703 112.0
1023.952271 112.0
1025.217285 76.0
1027.872437 72.0
1028.076782 88.0
1028.914917 88.0
1033.520752 108.0
1034.914795 64.0
1035.181396 92.0
1036.987061 76.0
1040.150635 84.0
1040.500122 180.0
1042.269287 100.0
1045.523438 100.0
1048.968384 136.0
1049.278076 68.0
1050.021606 80.0
1051.964111 96.0
1052.23291 88.0
1053.887817 92.0
1054.790161 100.0
1055.626831 144.0
1056.932007 68.0
1059.731567 140.0
1060.208984 56.0
1060.748657 80.0
1060.894043 52.0
1061.226196 28.0
1061.496216 160.0
1062.721924 104.0
1066.48645 88.0
1066.757202 60.0
1069.590576 144.0
1075.707642 52.0
1081.674438 128.0
1082.618042 120.0
1084.023804 128.0
1085.514404 84.0
1089.971436 48.0
1091.00293 64.0
1100.3927 96.0
1104.456299 36.0
1105.346313 168.0
1107.827271 168.0
1109.258911 132.0
1115.436035 132.0
1118.461182 152.0
1121.362427 108.0
1132.339722 32.0
1133.54126 144.0
1134.893799 48.0
1138.805542 96.0
1140.5271 104.0
1147.879883 48.0
1151.727417 76.0
1156.990234 144.0
1162.156494 84.0
1164.352417 80.0
1166.506836 116.0
1170.516235 132.0
1171.606934 112.0
1173.46228 76.0
1173.680664 64.0
1179.474976 120.0
1179.912842 56.0
1183.967163 96.0
1195.025635 60.0
1195.554565 64.0
1204.320923 108.0
1206.13562 108.0
1212.031616 40.0
1212.897217 100.0
1213.097046 92.0
1213.541138 124.0
1213.807617 64.0
1220.635254 60.0
1221.125244 36.0
1223.465332 164.0
1226.432617 60.0
1228.1521 96.0
1228.822388 112.0
1231.035645 160.0
1237.709595 120.0
1238.920898 28.0
1254.676758 88.0
1256.913086 56.0
1257.432983 140.0
1261.595581 96.0
1262.977173 116.0
1270.418579 48.0
1296.475098 32.0
1312.014282 100.0
1326.531372 84.0
1332.528198 136.0
1343.837769 116.0
1344.538818 88.0
1352.216431 96.0
1357.636719 100.0
1374.269531 88.0
1375.56958 108.0
1397.168091 80.0
1397.501709 120.0
1407.002197 120.0
1407.623901 48.0
1421.048828 24.0
1425.906982 116.0
1426.532837 88.0
1426.701416 48.0
1427.134888 140.0
1428.242798 84.0
1444.865234 52.0
1452.216431 72.0
1475.850708 80.0
1500.539917 140.0
1502.861938 100.0
1506.892578 28.0
1527.226929 36.0
1529.84375 112.0
1568.935547 88.0
1633.054321 128.0
1658.760132 92.0
1664.476807 24.0
1694.78125 48.0
1709.508789 64.0
1832.978394 36.0
1839.069458 32.0
1927.08313 20.0
1967.44812 32.0
END IONS
