BEGIN IONS
PEPMASS=735.265
CHARGE=1
MSLEVEL=2
SOURCE_INSTRUMENT=LC-ESI-qTof
FILENAME=3b_5a_7b_10_15b-O-pentacetoxy-2a-O-benzoyloxy-14-oxo-10_18-dehydromyrsinol.mgf
SEQ=*..*
IONMODE=Positive
ORGANISM=GNPS-LIBRARY
NAME="3,5,7,10,15-O-pentacetyl-2-O-benzoyl-14-oxo-10,18-dihydromyrsinol " M+Na
PI=LITAUDON/TOUBOUL
DATACOLLECTOR=Esposito
SMILES=C[C@@]1(OC(C2=CC=CC=C2)=O)C[C@@]3(OC(C)=O)[C@]([C@@H](OC(C)=O)[C@@]([C@H](OC(C)=O)C=C[C@@H]4C(C)(OC(C)=O)C)(CO5)[C@]4([H])[C@]5(C)C3=O)([H])[C@H]1OC(C)=O
INCHI=
INCHIAUX=
PUBMED=N/A
SUBMITUSER=lfnothias
TAGS=
LIBRARYQUALITY=1
SPECTRUMID=CCMSLIB00000840364
SCANS=1
59.047531 63.001919
69.032166 34.722221
79.051651 15.05921
83.011818 78.260406
84.249313 28.5625
89.956352 20.45455
91.053925 37.224998
101.059364 76.097221
105.032173 28.91848
105.06852 97.375
107.048782 102.671097
107.084763 55.173611
119.050163 67.107758
121.026665 141.721893
123.042755 169.0
125.021057 328.347198
125.057228 123.295197
127.072609 19.674999
129.484985 17.107759
131.084366 35.148811
131.300613 28.67045
131.403824 14.125
131.798965 26.025
133.065659 72.853394
133.099533 196.128998
135.044983 86.05114
135.079712 32.512501
139.068726 256.347412
139.117722 44.59259
143.083038 113.9412
145.064682 126.083702
145.101913 26.025
149.058807 62.008339
155.084274 101.069397
159.078659 128.642105
161.094849 206.641495
167.070984 99.594139
167.085632 140.676804
169.064331 86.653259
169.098663 89.117653
173.09642 640.010925
174.097534 84.469391
174.123947 17.111111
175.077988 112.249001
175.111298 203.914001
175.389053 34.43214
175.555176 48.132252
176.575729 47.2803
179.069824 68.464287
183.114136 14.20455
185.09671 237.755997
186.10405 153.778793
187.11116 80.296883
191.236542 36.573978
193.09935 112.211197
195.113678 111.728401
196.084732 48.202271
199.074951 213.710999
199.107407 68.033333
203.103745 67.489868
203.313705 15.32237
205.847382 13.125
207.0979 18.013889
207.117432 191.580597
210.099579 35.778221
211.108688 71.164467
211.341141 27.84211
211.418945 159.041702
217.083801 201.758606
219.116806 66.0
219.591003 33.3913
220.125412 259.213715
221.094635 333.445587
221.134155 417.841614
222.133698 83.111702
222.263321 12.5625
222.638535 26.075001
223.111618 620.476501
223.195084 10.28409
225.091873 115.349998
225.126785 90.578583
225.163162 49.222561
230.106216 216.0
231.099472 65.111107
231.521072 19.242649
232.125702 46.32143
232.407883 13.00595
233.131073 593.134705
233.475525 42.71627
233.593033 21.125
235.67691 28.54167
236.115982 20.02083
237.124435 503.243195
238.071854 19.11364
238.131378 85.422417
238.167831 13.18382
239.107224 185.100006
239.143463 600.859619
240.108719 89.290253
241.119644 207.249405
241.569046 13.225
246.101746 64.632812
246.138702 89.880432
247.128937 38.260422
248.115768 73.115562
248.148483 30.28125
248.28772 34.008339
248.421799 43.0947
249.127274 625.792908
249.239822 22.04167
249.48288 35.841221
249.514786 19.007351
249.663177 31.388889
249.712601 18.91848
249.807846 96.337868
249.885422 13.10227
250.136047 27.6
250.158752 19.16667
251.108643 102.400002
251.142426 589.8125
251.812012 18.066179
252.05574 22.14286
252.334106 14.0
253.085098 42.025002
253.159546 74.51059
253.637711 24.004629
254.127716 164.927994
254.160614 105.458298
256.107941 205.112793
256.15451 18.125
256.188141 11.01136
256.653961 19.680559
259.076111 15.125
261.128693 798.286621
261.850769 39.004028
262.605927 13.225
263.142975 1348.953979
263.237946 14.00463
263.572601 81.422371
263.916992 13.78125
264.148804 82.02388
266.126831 102.320396
266.426483 35.273651
267.140656 217.742401
268.139252 121.313698
268.703613 25.11574
268.755585 20.20833
269.116058 311.372894
269.150482 74.080879
269.52005 22.375
272.852844 13.5
273.125702 42.004311
274.184601 42.367649
277.121735 44.889999
279.137421 978.658875
279.589752 27.160721
279.709686 11.375
279.762054 21.240391
281.15448 1049.340942
281.82016 11.55682
282.239807 17.56818
282.265808 32.41346
283.290009 12.0
285.12088 50.656818
289.124176 45.136108
291.137695 1318.078003
291.208099 18.55682
291.675293 23.72024
291.802948 14.44643
291.90036 15.14881
292.140625 158.628998
293.151337 198.236099
297.142181 54.222832
299.166565 73.515633
299.797638 20.72024
300.165131 24.0
305.149323 256.604095
307.808228 20.33333
307.996704 18.57143
309.149109 3376.103027
309.251404 32.047619
309.318787 39.259621
309.34668 19.225
309.490173 13.44444
309.532806 15.44444
309.593384 28.08654
309.643219 25.066669
309.73587 14.28409
309.77182 17.02273
309.961945 12.10227
310.0271 10.33333
310.072479 46.42857
310.111145 38.640629
310.151459 48.18182
310.375824 11.375
310.433716 44.371208
311.155884 140.313202
312.165802 37.888889
313.12207 124.603401
313.49826 71.224998
313.895538 15.05921
315.420349 16.33333
316.077576 90.724998
316.2677 16.11574
316.42865 21.03409
321.145447 193.285706
321.806396 19.111111
323.164368 626.900391
327.157074 281.014709
328.161713 37.004631
328.986084 28.111839
331.129364 166.635498
333.151367 111.445297
339.155701 74.951271
341.170105 105.142197
342.175537 124.380798
342.221863 11.45
344.424561 34.69397
351.158813 1484.378052
351.256683 14.00833
351.4729 16.25
351.609009 18.21121
352.340454 21.0
357.381927 23.2663
360.516998 15.25
369.170837 546.271973
369.282867 12.57143
369.528717 14.375
369.843079 57.599998
369.872559 24.200001
370.172058 33.020828
373.141174 1036.682983
373.570007 11.77885
374.147949 98.00219
380.419891 29.03879
386.683899 34.112499
391.152008 1305.887939
391.358215 29.1
391.633575 33.13636
391.757202 24.009609
392.178711 35.48077
397.273651 22.45833
402.172028 36.055561
411.180664 118.456802
413.17276 123.889297
429.188568 85.027023
432.18396 47.36364
433.162354 5327.817871
433.305939 21.339279
433.425354 67.456886
433.488892 25.09091
433.792175 27.183821
433.826691 21.674999
433.967133 26.21121
434.025085 13.20833
434.103271 10.66667
434.162872 255.986801
434.265442 90.431038
434.583618 12.16447
435.261902 38.55603
435.970642 12.40833
447.181519 35.30682
451.173523 149.023895
451.687164 17.008329
471.199951 368.916687
471.314301 19.0
473.194061 72.066177
473.743378 45.568401
474.091309 28.44022
474.189758 58.40625
484.950134 21.00379
490.553192 52.002449
490.668121 31.405001
490.692627 11.2
490.831665 13.78125
493.183685 10276.639648
493.304626 80.047623
493.393921 22.036289
493.460358 19.285721
493.602264 38.125
493.7034 62.537788
493.772125 53.025002
493.820221 18.10227
493.904236 23.289289
493.921417 72.824997
494.005127 32.048908
494.061615 36.960529
494.186005 1141.370972
494.313812 69.047623
494.446167 52.130322
495.127045 30.72727
495.173706 76.15921
495.227966 38.40691
495.409302 34.515629
495.537567 26.603571
495.88623 11.025
511.185791 30.322371
531.218811 220.784698
533.215515 259.598907
533.569153 15.40833
533.854614 67.246948
534.871643 35.90086
550.188721 27.164471
550.597717 31.149389
550.621826 10.28409
550.77478 19.89286
551.136841 18.0
553.205261 6357.403809
553.332886 56.0
553.411499 13.0625
553.469116 15.88971
553.548096 27.33333
553.599365 38.440479
553.728333 33.485291
553.764954 68.440071
553.812073 53.004311
553.837097 80.595238
553.900085 18.200001
553.991943 41.375
554.014709 25.240391
554.075317 34.223679
554.122986 48.53289
554.207886 616.03833
554.305054 55.680561
554.465454 17.28409
554.508362 38.185612
554.547607 11.125
554.70343 20.16667
554.780396 16.72024
554.887756 20.347219
555.198303 204.418594
555.255737 35.67046
555.493835 20.200001
558.741516 50.41
571.977173 52.691898
594.230957 37.695511
610.270447 44.669121
613.229126 297.338013
615.220764 2350.891113
615.334717 30.125
615.705261 29.575001
615.739746 25.52083
616.224121 256.006714
616.352173 26.34914
616.440491 51.112068
617.873657 12.5
618.341125 23.03879
620.931335 24.00543
647.857422 234.313599
648.005249 11.40833
650.427795 23.08333
653.249878 53.56144
659.854004 16.20833
671.751953 11.03125
675.243042 3878.281006
675.382385 20.322371
675.519043 62.195309
675.636658 68.641029
675.72699 32.059212
675.811157 43.11364
675.85144 56.002781
675.871399 52.00893
675.916565 20.005951
675.998047 30.0
676.069031 57.71627
676.145142 29.72024
676.188049 30.084459
676.245361 578.445984
676.433533 57.917259
676.985229 24.148809
677.16571 30.07143
677.475098 19.796049
677.927246 27.005951
678.751587 11.11111
679.941711 19.339279
682.691467 64.181824
688.42395 29.0
727.61908 17.160721
735.263245 866.003906
735.404846 37.333328
735.450439 29.0
735.55542 132.916901
735.644104 94.157898
735.712097 15.34722
735.860107 36.125
735.922913 13.05
736.291687 18.005951
736.491211 29.13306
739.836487 29.219589
END IONS
