BEGIN IONS
PEPMASS=777.294
CHARGE=1
MSLEVEL=2
SOURCE_INSTRUMENT=LC-ESI-qTof
FILENAME=f.Esposito/E-dendroides-ref/13OH-terracinolide G.mgf;
SEQ=*..*
IONMODE=Positive
ORGANISM=GNPS-LIBRARY
NAME=13OH-terracinolide G M+Na
PI=Litaudon and Paolini
DATACOLLECTOR=Esposito
SMILES=O[C@]12[C@@]([C@@H](OC(C)=O)[C@@](OC(C)=O)(C)C2)([H])[C@@H](OC3=O)[C@](CC3)(OC(C)=O)[C@H](OC(C(C)C)=O)[C@@H](OC(C)=O)[C@@H](OC(C)=O)C(C)(C)/C=C/[C@@](C)(O)C1=O
INCHI=
INCHIAUX=
PUBMED=
SUBMITUSER=Esposito
TAGS=
LIBRARYQUALITY=3
SPECTRUMID=CCMSLIB00004680124
SCANS=1
83.009125 30.444889
83.048767 41.998791
93.069443 20.50362
123.078743 62.139858
125.058334 19.275339
133.100815 17.53093
137.057541 23.805849
147.078415 18.331551
149.059509 22.79866
149.093384 39.05864
151.074265 22.548969
153.091476 16.20335
167.106079 17.920259
169.100159 19.943911
173.09433 47.722321
177.087952 28.970341
185.094543 19.9296
189.088196 13.21918
191.068115 19.45643
193.081802 22.144119
195.101257 16.55781
199.109589 23.232809
206.067932 18.29192
213.123856 13.63761
215.066895 13.22769
215.106995 35.412998
217.081985 22.456699
219.078842 14.02273
221.096191 14.59435
223.108673 18.02066
225.127777 27.297741
227.06723 16.01581
229.086075 14.91667
231.097183 18.29973
237.1082 15.22002
237.126648 38.169899
240.110458 21.45668
243.131165 17.21125
245.10881 24.247869
247.093414 12.69229
247.130463 13.10828
251.106308 14.74834
251.135391 15.94866
254.09346 14.07107
255.101593 36.914768
259.125732 17.7031
261.076691 20.040211
261.111511 21.49889
261.127441 17.92551
261.608765 23.390409
262.092255 14.16727
265.06897 13.77286
265.119293 16.30839
265.157318 31.95751
267.135162 23.313129
269.152893 15.7935
271.096344 13.12134
271.130463 20.025141
275.126465 14.69811
275.142639 32.332439
276.088654 20.959089
279.117401 13.91193
279.13797 47.678219
283.088562 14.19355
283.131195 20.271179
287.125061 13.52392
289.110229 22.58177
293.150208 18.910431
294.081787 14.36742
297.147278 82.139801
307.128784 35.37677
313.105103 24.63298
315.11734 21.691351
317.150635 21.537029
321.145569 42.132198
323.163879 40.01088
325.137085 47.23035
329.136688 15.24162
339.157776 89.893433
342.15152 16.11978
343.156738 12.52165
345.141937 13.84901
349.142334 63.76445
357.16629 50.741219
361.14267 12.41983
363.1539 28.235901
367.151611 128.286102
371.122742 17.872589
375.181091 15.36526
379.145569 21.194441
383.183167 12.7718
385.161621 70.467957
387.136078 42.853001
389.134216 35.054279
403.174194 25.38776
405.163177 76.417068
407.144348 60.068691
417.187195 17.332411
427.173645 38.113468
437.185425 15.89805
439.172943 19.274031
445.184357 64.095848
449.155457 109.929802
450.159729 21.40015
459.200073 39.954071
463.191376 12.95753
465.184753 69.86879
466.190979 31.61467
467.165649 51.42524
468.161743 13.12364
475.19101 60.341259
481.180969 19.79789
482.184204 20.41045
487.198578 38.235668
487.229645 21.319811
493.214294 21.33823
499.192474 23.482161
509.176575 308.688385
510.182098 75.106171
515.225342 22.436489
527.186035 183.050995
537.206909 80.528976
547.2099 19.31221
553.23877 99.573967
569.199646 344.427887
569.237427 14.77213
570.195923 35.538052
571.243774 17.42082
575.248108 19.55587
587.203003 48.673382
587.249512 13.22617
588.212708 22.54693
591.27655 22.9021
597.229614 786.334412
598.230286 127.121399
613.258545 157.225601
614.268555 33.102409
629.223755 233.302505
630.24115 16.87756
647.222595 18.29459
657.25177 3081.071045
657.394714 21.087509
657.433105 20.715799
657.581909 30.03055
657.70459 14.40894
657.752319 17.269421
657.869995 43.01725
657.972473 13.19767
658.066406 25.280531
658.114075 22.907089
658.255066 538.733582
658.441895 15.98819
658.512451 26.736641
658.791504 13.93791
658.850403 12.50572
673.273865 20.032419
674.277893 15.16908
675.257263 27.315069
695.288452 216.917892
696.29187 32.812061
717.27301 5232.637207
717.414001 48.268639
717.505859 25.320551
717.592041 19.833561
717.690491 25.731409
717.743835 21.599159
717.796448 35.31855
717.869202 41.222988
717.93158 29.696751
718.017639 38.3554
718.09967 18.170469
718.155151 20.616899
718.276611 944.985291
718.397156 34.94268
718.441956 16.61408
718.498352 22.57159
718.599426 20.672609
718.676941 16.129681
718.909363 15.85243
718.972778 16.854931
719.14856 16.82501
719.614014 16.030479
777.294128 12396.669922
777.437012 71.244011
777.458313 64.056931
777.52063 52.992661
777.592651 52.94902
777.659424 55.121719
777.727539 27.68964
777.767578 40.25444
777.82489 40.000351
777.880005 78.913742
777.92804 30.840111
777.968628 22.674061
778.008911 27.8598
778.073975 41.019169
778.124451 48.901421
778.165222 21.996349
778.217529 36.700352
778.296997 2251.7771
778.430542 79.703369
778.51532 49.960121
778.599243 41.596581
778.669617 39.590038
778.740601 30.15234
778.792236 26.61475
778.861267 52.800621
778.932373 38.25573
778.99469 26.824289
779.060669 37.794739
779.111755 15.08992
779.197937 51.960819
779.291016 18.549061
779.347839 34.74641
779.411316 21.526039
779.482605 14.42939
779.531006 12.98416
779.597351 14.85247
779.776184 22.95542
779.86615 13.32507
779.939697 21.80113
780.15387 14.43684
END IONS
