BEGIN IONS
PEPMASS=545.884
CHARGE=1
MSLEVEL=2
SOURCE_INSTRUMENT=LC-ESI-Orbitrap
FILENAME=f.lfnothias/1901_fungal_symbiont_annotation_confirmation/Pure_compounds/Pure_compounds_mzML/LeucinostatinAandB_1uL.mzML;
SEQ=*..*
IONMODE=Positive
ORGANISM=GNPS-LIBRARY
NAME=Leucinostatin F M+H putative observed in Leucinostatin A/B standard M+H
PI=Dorrestein
DATACOLLECTOR=lfnothias
SMILES=CC[C@H](C)/C=C/C(=O)N1CCC[C@H]1C(=O)N[C@@H](CC(C)C)C(=O)N[C@@H]([C@@H](C(C)C)O)C(=O)NC(C)(C)C(=O)N[C@@H](CC(C)C)C(=O)N[C@@H](CC(C)C)C(=O)NC(C)(C)C(=O)NC(C)(C)C(=O)NCCC(=O)N[C@@H](C)CNC
INCHI=InChI=1S/C55H99N11O11/c1-19-35(10)22-23-42(68)66-26-20-21-40(66)48(73)60-37(27-31(2)3)46(71)62-43(44(69)34(8)9)49(74)64-54(14,15)51(76)61-38(28-32(4)5)45(70)59-39(29-33(6)7)47(72)63-55(16,17)52(77)65-53(12,13)50(75)57-25-24-41(67)58-36(11)30-56-18/h22-23,31-40,43-44,56,69H,19-21,24-30H2,1-18H3,(H,57,75)(H,58,67)(H,59,70)(H,60,73)(H,61,76)(H,62,71)(H,63,72)(H,64,74)(H,65,77)/b23-22+/t35-,36-,37-,38-,39-,40-,43-,44+/m0/s1
INCHIAUX=WXYFQKQJJWEDPM-XOQVISOBSA-N
PUBMED=
SUBMITUSER=lfnothias
TAGS=
LIBRARYQUALITY=3
SPECTRUMID=CCMSLIB00005435723
SCANS=2347
70.06543 5407.632324
75.254448 1493.48999
111.080185 7812.543945
133.803513 1549.771118
136.058212 1575.85376
142.133942 1726.599976
150.484467 1491.952393
180.138107 12554.611328
208.133148 14055.664062
218.529129 1595.566772
305.054047 1650.384155
405.5047 1687.901855
524.84906 1961.916626
537.376953 2366.506836
556.415588 5642.791016
END IONS
