BEGIN IONS
PEPMASS=1126.44
CHARGE=1
MSLEVEL=2
SOURCE_INSTRUMENT=LC-ESI-Ion Trap
FILENAME=f.arihiro1013/purecompounds_2ndconversion/201909_kurahamide (2)..mzXML;
SEQ=*..*
IONMODE=Positive
ORGANISM=GNPS-LIBRARY
NAME=Kurahamide M+Na
PI=Gerwick
DATACOLLECTOR=Arihiro Iwasaki
SMILES=O=C(N[C@H](C(O[C@@H]([C@@H]1NC([C@H]([C@@H](C)OC([C@H](C)NC(CCC)=O)=O)NC([C@H](C)NC(CCC)=O)=O)=O)C)=O)C(C)C)[C@@H](N(C)C([C@H](CC2=CC=CC=C2)N([C@H](O)CC[C@@H]3NC(/C(NC1=O)=C/C)=O)C3=O)=O)CC4=CC=C(O)C=C4
INCHI=InChI=1S/C55H77N9O15/c1-11-17-41(66)56-30(6)47(69)61-46(32(8)78-54(76)31(7)57-42(67)18-12-2)51(73)62-45-33(9)79-55(77)44(29(4)5)60-49(71)39(27-35-21-23-36(65)24-22-35)63(10)53(75)40(28-34-19-15-14-16-20-34)64-43(68)26-25-38(52(64)74)59-48(70)37(13-3)58-50(45)72/h13-16,19-24,29-33,38-40,43-46,65,68H,11-12,17-18,25-28H2,1-10H3,(H,56,66)(H,57,67)(H,58,72)(H,59,70)(H,60,71)(H,61,69)(H,62,73)/b37-13-/t30-,31-,32+,33+,38-,39-,40-,43+,44-,45-,46-/m0/s1
INCHIAUX=
PUBMED=
SUBMITUSER=arihiro1013
TAGS=
LIBRARYQUALITY=3
SPECTRUMID=CCMSLIB00004722218
SCANS=379
384.20166 41356.0
387.367065 64625.0
413.201416 413775.0
424.587097 106370.0
449.552124 26770.0
489.088562 75687.0
524.842773 270930.0
526.113525 92427.0
540.942017 63284.0
543.387939 159689.0
559.053223 290221.0
572.320801 315000.0
603.199219 30212.0
607.667236 104138.0
608.485718 33597.0
625.618896 50961.0
642.136597 149886.0
645.385742 53876.0
646.709229 24002.0
657.189819 146615.0
660.268799 1068869.0
660.979492 5.0
672.738037 488932.0
673.351074 234206.0
681.12085 176382.0
684.365723 181285.0
685.554443 54464.0
702.198242 121408.0
707.005249 33287.0
718.703491 40424.0
727.333496 47283.0
743.095215 322032.0
743.715454 80041.0
762.312866 97206.0
765.282349 134698.0
788.143433 66629.0
797.267578 155101.0
804.480469 172383.0
806.213867 771809.0
807.032227 19.0
814.589844 46291.0
824.062378 175600.0
826.378906 121259.0
832.168213 1028924.0
833.003784 158652.0
835.999146 97205.0
850.316528 2742234.0
851.381958 101595.0
859.549072 75251.0
866.169922 94285.0
868.444092 412978.0
869.122437 18.0
879.328125 42129.0
905.412964 716576.0
906.217285 4.0
923.326172 3196854.0
924.296143 1.0
931.545288 90698.0
939.463745 273095.0
949.314209 4111028.0
949.935059 17938.0
965.162354 332200.0
965.85376 3.0
966.485229 261994.0
967.349121 61856512.0
968.255371 7413.0
979.039429 79097.0
985.282959 142088.0
991.442505 106716.0
1009.255493 5176029.0
1010.058594 947.0
1013.101196 78927.0
1024.634766 134062.0
1027.068115 377882.0
1069.464355 20653.0
1082.151611 305232.0
1098.554688 244976.0
1107.596191 284650.0
1108.375 5020066.0
1109.276123 111.0
END IONS
