BEGIN IONS
PEPMASS=352.899
CHARGE=0
MSLEVEL=2
SOURCE_INSTRUMENT=LC-ESI-qTof
FILENAME=f.philipwi/GNPS_Marine_Invertebrate_Secondary_Metabolites_UHManoa/GNPS_SpongeSpectraAlreadyConvertedTo_mzXML/PW-125_P2-C-7_01_Hymenamide_B_830amu_Scan526-573_15591.mzML;
SEQ=*..*
IONMODE=Positive
ORGANISM=GNPS-LIBRARY
NAME=Hymenamide B M+H
PI=Philip Williams
DATACOLLECTOR=Williams
SMILES=O=C2N5[C@H](C(=O)N1CCC[C@H]1C(=O)N[C@H](C(=O)N[C@H](C(=O)N[C@H](C(=O)N[C@H](C(=O)N[C@H]2Cc3ccccc3)CCC(=O)O)C(C)C)Cc4ccccc4)CC(=O)N)CCC5
INCHI=
INCHIAUX=
PUBMED=
SUBMITUSER=philipwi
TAGS=
LIBRARYQUALITY=3
SPECTRUMID=CCMSLIB00000425025
SCANS=532
101.019882 36.0
118.175972 44.0
133.241394 108.0
146.096924 104.0
146.945648 80.0
147.781326 32.0
149.078201 132.0
150.046875 180.0
151.067169 56.0
156.960693 192.0
161.078171 132.0
164.943558 32.0
165.070953 296.0
165.172852 20.0
165.320343 36.0
166.067001 64.0
168.954437 100.0
169.966766 120.0
171.957947 132.0
172.963959 92.0
173.953506 532.0
174.761856 44.0
175.132828 32.0
175.647766 40.0
175.955414 368.0
176.087341 44.0
176.349655 56.0
177.197144 76.0
177.664139 48.0
178.5233 24.0
181.336319 80.0
181.688416 180.0
182.118271 68.0
182.967545 324.0
183.894623 40.0
183.966187 144.0
184.794708 36.0
184.951355 108.0
185.158813 156.0
185.653549 96.0
185.966354 208.0
186.915039 36.0
189.143906 164.0
189.415756 32.0
190.742767 24.0
191.959595 64.0
194.635986 44.0
194.769394 32.0
196.977539 108.0
197.196609 32.0
197.966736 164.0
198.984299 76.0
199.449768 24.0
199.86409 24.0
199.974838 96.0
200.983078 116.0
201.127701 116.0
201.67952 32.0
202.177704 140.0
202.957916 112.0
203.494064 116.0
207.10759 88.0
207.202576 28.0
208.691681 24.0
209.124695 64.0
209.262985 36.0
210.828278 52.0
210.958344 724.0
211.722977 36.0
211.889969 28.0
211.963013 2032.0
212.354156 24.0
212.744461 68.0
212.955872 1080.0
213.0793 104.0
213.805695 44.0
213.960876 2328.0
214.122711 48.0
214.197342 48.0
214.421295 44.0
214.50531 52.0
214.596069 72.0
214.720093 40.0
214.832184 52.0
214.961182 756.0
215.159317 32.0
215.580276 108.0
215.883438 52.0
215.968658 1088.0
216.789307 52.0
216.961868 328.0
217.099136 80.0
217.465576 24.0
217.964691 1168.0
218.424271 32.0
219.736893 44.0
220.086639 52.0
221.735153 72.0
221.830078 20.0
223.856903 100.0
224.085846 140.0
224.966354 424.0
225.10112 100.0
225.442871 32.0
225.854614 108.0
225.978546 820.0
226.420166 32.0
226.78479 24.0
226.969055 316.0
227.120895 32.0
227.977036 692.0
228.718369 96.0
228.80513 52.0
228.982849 216.0
229.120117 128.0
229.722046 40.0
230.131104 100.0
230.968353 104.0
231.125076 100.0
233.856216 92.0
234.051208 108.0
234.861328 164.0
235.865097 108.0
235.956711 56.0
236.348526 32.0
236.868195 100.0
237.865417 148.0
239.149704 72.0
239.869843 108.0
240.166107 124.0
242.771194 48.0
242.979813 32.0
243.984406 32.0
244.173615 96.0
244.977768 120.0
245.070892 28.0
245.969818 52.0
247.872955 168.0
249.853577 132.0
250.87265 160.0
251.865021 124.0
252.116028 76.0
252.966949 32.0
253.876389 112.0
254.97258 156.0
255.14122 64.0
255.973663 104.0
256.141846 128.0
256.977234 68.0
259.127594 32.0
259.795013 36.0
261.864532 84.0
263.000153 24.0
263.872437 144.0
264.138519 92.0
264.884949 88.0
265.117981 96.0
265.601257 32.0
265.866974 228.0
266.048157 64.0
266.880585 84.0
267.86972 348.0
268.131683 76.0
268.862823 64.0
270.548248 32.0
270.980103 76.0
271.324677 28.0
271.982483 1572.0
272.165314 100.0
272.496094 36.0
272.635864 44.0
272.754547 24.0
272.87561 56.0
272.980682 180.0
273.090759 56.0
273.79776 24.0
273.983154 868.0
274.175659 88.0
274.441559 48.0
274.881165 112.0
274.979401 160.0
275.498566 32.0
276.852966 144.0
277.30014 36.0
278.905304 60.0
286.148132 96.0
287.087006 60.0
287.216644 100.0
288.211365 96.0
288.879333 80.0
289.424683 32.0
289.50058 32.0
289.587372 32.0
289.88031 52.0
290.197296 100.0
290.60791 48.0
290.727478 40.0
290.87973 5344.0
291.075378 40.0
291.200928 76.0
291.335083 32.0
291.874207 456.0
292.033203 36.0
292.18573 72.0
292.512695 24.0
292.654449 116.0
292.87915 7748.0
293.031372 36.0
293.201141 128.0
293.337677 84.0
293.449341 72.0
293.627594 24.0
293.734161 60.0
293.881073 684.0
294.03006 44.0
294.183105 116.0
294.255066 28.0
294.467438 48.0
294.623413 108.0
294.670593 28.0
294.69397 96.0
294.876434 4512.0
295.087799 52.0
295.172607 48.0
295.266479 32.0
295.34787 56.0
295.603394 32.0
295.690826 44.0
295.7966 32.0
295.873871 88.0
296.033722 28.0
296.176331 88.0
296.275055 24.0
296.505524 32.0
296.845886 48.0
296.933746 72.0
297.120514 28.0
299.664093 24.0
300.227112 92.0
304.172028 56.0
304.889496 64.0
305.169708 72.0
305.407288 56.0
305.916748 28.0
306.042603 20.0
306.187592 36.0
306.812531 36.0
306.895355 212.0
307.181091 84.0
307.482819 76.0
307.773499 20.0
307.874176 84.0
308.888672 216.0
309.161743 72.0
309.901947 68.0
311.205017 104.0
312.950439 24.0
314.237305 64.0
316.206543 60.0
317.170746 84.0
318.375244 80.0
319.240265 36.0
322.231262 96.0
330.036041 36.0
331.996033 72.0
332.267395 100.0
332.887207 348.0
333.23996 88.0
333.884247 140.0
334.124939 52.0
334.884552 772.0
335.022736 60.0
335.199463 112.0
335.248199 100.0
335.88031 68.0
336.709625 80.0
336.888397 344.0
340.035034 24.0
340.340729 36.0
342.791168 84.0
348.824738 32.0
348.931885 28.0
350.123627 104.0
350.23056 112.0
350.903046 2224.0
351.066559 20.0
351.182678 1080.0
351.424957 40.0
351.759613 24.0
351.895966 300.0
352.186066 276.0
352.573059 24.0
352.898499 4288.0
353.186371 628.0
353.326294 40.0
353.452515 84.0
353.890808 292.0
354.106781 72.0
354.202759 76.0
354.615265 32.0
354.893463 1920.0
355.195221 36.0
355.666809 44.0
355.892303 244.0
356.1008 56.0
356.235657 76.0
356.329376 32.0
356.618225 44.0
357.00354 92.0
357.244476 32.0
357.425232 132.0
357.762726 28.0
358.522736 68.0
358.715881 64.0
360.468628 36.0
361.304169 24.0
363.184692 36.0
369.271851 52.0
370.485565 108.0
374.582581 28.0
377.153107 96.0
384.492371 132.0
400.568695 20.0
411.563965 28.0
430.899292 92.0
437.487457 44.0
445.792969 148.0
457.770081 148.0
469.394836 104.0
483.615448 96.0
504.57077 128.0
506.52002 52.0
522.13269 128.0
539.136169 100.0
552.494568 124.0
590.076904 124.0
636.769409 68.0
698.637085 84.0
704.039124 104.0
711.109924 116.0
721.294373 104.0
722.167786 108.0
918.773682 80.0
END IONS
