BEGIN IONS
PEPMASS=501.27
CHARGE=2
MSLEVEL=2
SOURCE_INSTRUMENT=LC-ESI-Orbitrap
FILENAME=f.Rolandoo1/20190519 Moroidin paper GNPS/Moroidin-[QLLVWRAH].mzXML;
SEQ=*..*
IONMODE=Positive
ORGANISM=GNPS-LIBRARY
NAME=Moroidin-[QLLVWRAH] M+2H
PI=Jing-Ke Weng
DATACOLLECTOR=Roland Kersten
SMILES=O=C1CC[C@@H](C(N[C@H](C(N[C@@H](CC(C)C)C(N[C@@H](C(C)C)C(N[C@@](C(N[C@H](C(N[C@@H](C)C(N[C@@H](CC2=CN3C=N2)C(O)=O)=O)=O)CCCNC(N)=N)=O)([H])CC4=C3NC5=C4C=CC6=C5)=O)=O)=O)[C@@H]6C(C)C)=O)N1
INCHI=
INCHIAUX=
PUBMED=
SUBMITUSER=Rolandoo1
TAGS=
LIBRARYQUALITY=3
SPECTRUMID=CCMSLIB00005435905
SCANS=1
70.063225 46627.320312
70.063782 277402.5625
70.064339 944829.5625
70.064896 1728398.75
70.065453 2373197.0
70.06601 2008447.125
70.066559 1226465.625
70.067116 466268.8125
70.067673 106871.898438
70.06823 3207.614746
71.505905 24763.292969
71.506477 39521.800781
71.507057 46593.179688
71.507629 41625.296875
71.508202 26504.369141
71.508774 2614.248535
72.076332 9538.201172
72.076912 54679.964844
72.077492 161892.015625
72.078072 738390.0
72.078651 1264603.875
72.079231 3553374.75
72.079811 11234306.0
72.080391 21791112.0
72.080971 32270178.0
72.081551 30652942.0
72.082138 20061148.0
72.082718 9202575.0
72.083298 2688744.0
72.083878 692373.375
72.084457 497831.53125
72.085037 305361.59375
72.085617 205332.25
72.086197 24304.373047
72.086777 109.448151
73.08239 35.327332
73.082985 134973.609375
73.08358 300697.5625
73.084167 449411.03125
73.084763 477322.75
73.085358 362439.8125
73.085945 190003.640625
73.08654 69027.351562
73.087128 1979.1521
77.674202 36653.523438
77.67485 61074.445312
77.675499 69925.265625
77.676147 57970.46875
77.676796 33201.847656
77.677444 1024.721924
82.881363 1150.160645
82.882072 27705.140625
82.88279 42580.324219
82.883507 49582.574219
82.884224 44273.859375
82.884933 28314.429688
82.885651 233.385193
83.281311 48805.414062
83.282036 78686.765625
83.282753 86803.554688
83.283478 68068.257812
83.284195 35088.847656
83.284912 591.693481
83.675461 31435.705078
83.676186 51596.894531
83.67691 61460.277344
83.677635 53640.359375
83.67836 31807.818359
83.679085 376.246002
84.039528 57997.300781
84.040253 103408.90625
84.040985 383416.125
84.041718 593857.6875
84.04245 1952709.125
84.043175 6533857.5
84.043907 12392110.0
84.04464 17942368.0
84.045372 16139967.0
84.046097 10038428.0
84.046829 4273669.5
84.047562 1157293.625
84.048294 348348.46875
84.049019 301371.65625
84.049751 175085.875
84.050484 166418.84375
84.051216 20546.474609
84.051941 57.436687
85.046356 531.165955
85.047104 60406.179688
85.047844 81932.03125
85.048592 82909.0
85.049332 64349.136719
85.050072 37478.46875
86.089569 76.073181
86.090324 21785.386719
86.09108 407984.84375
86.091835 1029327.0625
86.092598 1931261.75
86.093353 2454170.5
86.094109 6974002.5
86.094872 23152668.0
86.095627 50573296.0
86.096382 78965512.0
86.097137 83831456.0
86.0979 56294280.0
86.098656 28834686.0
86.099411 8432650.0
86.100174 2508601.0
86.100929 1638455.125
86.101685 1197330.5
86.10244 626452.0625
86.103203 204952.734375
86.103958 67069.84375
86.104713 906.124268
87.096573 4248.960449
87.097343 96649.492188
87.098114 408397.28125
87.098885 989932.0625
87.099655 1602723.125
87.100426 1771866.875
87.101196 1204693.75
87.101967 607427.625
87.102737 151398.3125
87.103508 23695.294922
88.872841 1727.842285
88.873634 57828.367188
88.874428 96873.117188
88.875221 114357.382812
88.876015 98334.515625
88.876808 59192.453125
92.325974 611.74054
92.326813 19062.884766
92.327652 157396.21875
92.328499 676377.25
92.329338 1092274.625
92.330177 1437546.5
92.331017 1467550.875
92.331863 1225595.625
92.332703 898602.1875
92.333542 459722.625
92.334381 180060.234375
92.335228 126622.710938
92.336067 235067.171875
92.336906 131856.390625
92.337753 28625.488281
95.484299 1782.673828
95.485184 41042.046875
95.486069 69135.59375
95.486954 79146.140625
95.487839 65603.273438
95.488724 37799.953125
95.524124 1874.846436
95.525009 39307.453125
95.525894 67005.140625
95.526779 74893.132812
95.527664 57250.421875
95.528549 27604.662109
102.052628 3149.160889
102.053604 53534.558594
102.054581 107860.023438
102.055557 134855.859375
102.056534 113567.5
102.057518 58982.882812
110.067909 2630.17041
110.069 39259.8125
110.070099 121080.421875
110.07119 197664.484375
110.072289 224254.90625
110.07338 180964.609375
110.074478 99433.546875
110.075569 23820.560547
110.570007 3260.530518
110.571114 38789.539062
110.572212 69902.851562
110.573318 81986.257812
110.574417 66198.71875
110.575523 33840.453125
112.082466 11837.65625
112.083588 134789.359375
112.084717 446475.375
112.085838 972584.125
112.086967 1483748.75
112.088089 1499753.625
112.089218 965541.625
112.09034 460166.28125
112.091469 110971.976562
113.06665 3394.473145
113.067787 37703.515625
113.068924 133969.234375
113.070068 265870.53125
113.071205 353370.125
113.07235 333632.71875
113.073486 224245.25
113.074631 97518.546875
114.05114 2137.535156
114.052299 28491.107422
114.053452 90655.242188
114.054611 140177.578125
114.055763 153525.140625
114.056915 123072.171875
114.058075 66195.5
115.083664 6605.015625
115.084831 65501.015625
115.086006 117355.734375
115.087173 140212.296875
115.088348 120191.265625
115.089516 73861.320312
115.090691 30110.853516
125.374466 10566.044922
125.375801 76560.195312
125.377129 158267.140625
125.378464 223163.390625
125.379791 223719.9375
125.381119 155922.484375
125.382454 65392.269531
125.585045 7834.817871
125.58638 55090.058594
125.587715 102275.296875
125.58905 130424.65625
125.590385 119209.882812
125.591721 78008.898438
125.593056 35090.65625
125.594391 9018.80957
125.595726 60062.164062
125.597061 94686.351562
125.598396 110493.5
125.599724 97341.601562
125.601059 65132.480469
125.602394 29603.589844
125.618416 4657.437012
125.619751 31513.671875
125.621086 63661.796875
125.622421 87049.03125
125.623756 84283.6875
125.625092 57672.507812
125.626427 24387.509766
125.627762 9919.131836
125.629097 62935.476562
125.630432 84138.523438
125.631767 90093.34375
125.633102 73810.796875
125.634438 46950.027344
125.635773 43898.867188
125.637108 119370.78125
125.638443 198963.0
125.639778 294292.71875
125.641113 310098.125
125.642448 199518.71875
125.643784 100005.53125
125.645119 48927.003906
125.646454 110333.289062
125.647789 229845.515625
125.649124 334623.9375
125.650459 302399.03125
125.651794 165732.109375
125.65313 49632.507812
125.654465 5799.295898
125.6558 53821.039062
125.657143 169643.4375
125.658478 289182.6875
125.659813 387825.4375
125.661148 349564.4375
125.662483 233541.3125
125.663818 141865.34375
125.665154 85409.835938
125.666489 31445.712891
125.675842 7209.566895
125.677177 42023.574219
125.678513 55205.40625
125.679848 56324.253906
125.681183 40578.367188
125.682518 17380.460938
125.683853 9081.615234
125.685188 65720.234375
125.686531 133905.984375
125.687866 179756.984375
125.689201 159978.078125
125.690536 44844.367188
125.694542 27160.681641
125.695877 167965.109375
125.69722 209707.484375
125.698555 214530.140625
125.69989 181874.078125
125.701225 128165.195312
125.70256 74481.109375
125.703896 43651.546875
125.706573 7944.265625
125.707909 56976.882812
125.709244 113667.625
125.710579 148517.3125
125.711914 136569.15625
125.713257 101047.414062
125.714592 86752.257812
125.715927 72391.515625
125.717262 159167.15625
125.718597 269340.5625
125.719933 442640.1875
125.721275 548703.0625
125.72261 618568.5
125.723946 631044.9375
125.725281 434361.6875
125.726616 206655.765625
125.727959 51827.371094
125.729294 34862.988281
125.730629 73100.648438
125.731964 138484.59375
125.733307 243411.625
125.734642 185587.5
125.735977 160834.296875
125.737312 135176.53125
125.738647 143469.765625
125.73999 118193.546875
125.741325 116718.328125
125.742661 105810.078125
125.743996 60943.910156
125.745338 23359.841797
125.746674 40642.0
125.748009 59287.925781
125.749344 70008.554688
125.750687 60255.207031
125.752022 31798.248047
125.753357 20186.455078
125.754692 150188.765625
125.756035 542421.0
125.75737 599351.8125
125.758705 417920.78125
125.760048 154369.78125
125.761383 34173.683594
125.762718 50605.113281
125.764053 81689.554688
125.765396 141870.359375
125.766731 142850.734375
125.768066 89220.640625
125.769409 78619.851562
125.770744 101150.046875
125.772079 193434.953125
125.773415 257679.5
125.774757 294955.5625
125.776093 282753.03125
125.777428 418484.53125
125.77877 432699.8125
125.780106 339448.65625
125.781441 172692.078125
125.782784 102848.898438
125.784119 187078.609375
125.785454 310994.59375
125.786797 313340.5
125.788132 196126.34375
125.789467 96762.804688
125.79081 80867.515625
125.792145 119339.84375
125.79348 214890.84375
125.794823 279621.875
125.796158 263649.90625
125.797493 112872.226562
125.798836 128050.78125
125.800171 219949.046875
125.801506 318627.5625
125.802849 343326.5625
125.804184 248665.53125
125.805527 139744.0
125.806862 52277.117188
125.808197 38497.839844
125.80954 52684.179688
125.810875 122593.015625
125.81221 186470.453125
125.813553 198541.90625
125.814888 149120.015625
125.816231 72310.757812
125.817566 7160.722656
125.818901 45893.128906
125.820244 86412.046875
125.821579 152545.640625
125.822922 287241.46875
125.824257 279539.125
125.825592 222286.109375
125.826935 172800.578125
125.82827 135646.265625
125.829613 74467.945312
125.830948 83311.085938
125.832291 118458.492188
125.833626 196762.375
125.834961 247711.1875
125.836304 233976.328125
125.837639 154800.9375
125.838982 50017.664062
125.84166 3134.931396
125.842995 22523.320312
125.844337 55930.0625
125.845673 100861.890625
125.847008 143369.6875
125.848351 170664.09375
125.849686 97179.40625
125.851028 27735.238281
125.852364 6851.928223
125.853706 41758.746094
125.855042 66050.171875
125.856384 74238.140625
125.857719 57192.890625
125.859062 27456.142578
125.872452 3627.659912
125.873787 28629.677734
125.87513 73215.40625
125.876465 109183.851562
125.877808 112507.765625
125.879143 84861.070312
125.880486 44436.429688
125.881821 5610.660156
125.883163 35982.261719
125.884499 60120.574219
125.885841 89441.234375
125.887177 107886.226562
125.888519 105056.429688
125.889862 83391.507812
125.891197 54805.710938
125.89254 27252.933594
125.896553 6837.760742
125.897896 43073.691406
125.899231 63806.707031
125.900574 68099.242188
125.901917 53642.703125
125.903252 27698.697266
128.560715 6759.090332
128.562103 36638.789062
128.563477 58087.890625
128.564865 64625.585938
128.566238 50477.796875
128.567627 23503.777344
129.061142 15420.365234
129.062531 102363.898438
129.063919 256953.28125
129.065308 430313.375
129.066696 531981.625
129.068085 382214.1875
129.069473 225794.125
129.070862 85707.351562
140.139908 30772.371094
140.141479 137194.078125
140.143066 210095.390625
140.144638 231177.828125
140.14621 187546.609375
140.147781 109299.53125
140.149353 40254.484375
156.07016 5977.975098
156.072006 59557.515625
156.073853 197252.796875
156.075699 358511.25
156.07756 446274.65625
156.079407 338404.8125
156.081253 194019.296875
156.083099 62761.898438
157.105042 13602.495117
157.106903 49586.847656
157.108765 69984.84375
157.110641 66119.109375
157.112503 40049.3125
157.114365 12118.637695
159.964798 11762.981445
159.966721 43446.027344
159.968628 73127.640625
159.970551 89754.59375
159.972473 79930.3125
159.974396 49813.757812
159.976303 18251.179688
180.048035 16085.285156
180.050323 45530.191406
180.052612 64081.148438
180.054901 66759.453125
180.05719 52017.957031
180.059479 21676.246094
183.117416 22583.132812
183.119766 110443.71875
183.122116 229143.96875
183.124466 295924.15625
183.126816 277895.46875
183.129166 190442.3125
183.131516 61756.597656
185.152542 11453.836914
185.154922 102312.820312
185.157318 592293.125
185.159698 2227138.75
185.162094 4635849.5
185.164474 6930158.5
185.16687 6981632.5
185.169266 4896845.5
185.171646 2434441.75
185.174042 864291.125
185.176422 283326.875
185.178818 111742.476562
185.181213 74178.726562
185.183594 46279.746094
185.185989 2107.729492
186.162369 17106.685547
186.16478 82521.8125
186.167191 163180.890625
186.169586 199705.328125
186.171997 180400.234375
186.174408 119264.570312
186.176819 41917.796875
198.998642 26902.615234
199.001312 73223.992188
199.003967 115260.015625
199.006638 135697.125
199.009293 120415.75
199.011963 78184.585938
199.014618 28095.150391
199.12381 17469.017578
199.12648 53440.796875
199.129135 90846.09375
199.131805 109522.078125
199.134476 97930.015625
199.137131 65136.378906
199.139801 20963.539062
211.114731 40571.121094
211.117645 84706.351562
211.12056 102299.179688
211.123459 91511.265625
211.126373 60630.109375
211.129272 16844.039062
213.147842 35687.953125
213.150787 129260.640625
213.153748 458902.65625
213.156693 948336.75
213.159653 1409523.875
213.162598 1389224.75
213.165543 945489.3125
213.168503 434057.5625
213.171448 140365.421875
213.174408 25328.382812
224.149094 23819.392578
224.152283 50478.363281
224.155472 65799.570312
224.158646 62861.488281
224.161835 43095.34375
224.165009 10025.90918
227.108749 58631.117188
227.112 121661.820312
227.115234 146493.765625
227.118484 118523.054688
227.121735 61499.589844
227.124985 13416.602539
256.135101 20952.371094
256.139008 44457.824219
256.142883 59105.28125
256.146759 56042.125
256.150665 39440.902344
256.154541 4824.950684
274.517151 43895.554688
274.521454 84123.5
274.525787 104952.679688
274.53009 92835.4375
274.534393 58405.019531
274.538727 2729.090332
290.150085 1602.361328
290.154785 61656.648438
290.159454 98616.953125
290.164154 110288.3125
290.168823 87522.414062
290.173523 45173.089844
293.654083 4506.805176
293.658875 100270.789062
293.663635 184074.953125
293.668396 223715.6875
293.673187 182613.1875
293.677948 92509.84375
299.65152 2912.66333
299.656464 56602.621094
299.661377 109983.15625
299.66629 150001.46875
299.671204 149329.484375
299.676117 108776.34375
299.68103 53252.957031
303.154358 2469.984375
303.159363 36724.628906
303.164368 64321.394531
303.169373 80454.914062
303.174377 69240.40625
303.179382 37064.546875
308.165466 3741.478516
308.170593 40196.289062
308.175751 73073.796875
308.180878 83705.210938
308.186005 62244.78125
308.191132 27216.853516
311.146667 12091.663086
311.151855 160355.875
311.157074 585490.0
311.162262 1062441.875
311.16748 1438482.75
311.172699 1228981.0
311.177887 732194.375
311.183105 280429.5
311.188293 60189.894531
315.166351 3099.605225
315.171661 41131.898438
315.176971 179261.03125
315.182281 393900.6875
315.187561 576471.0625
315.192871 551284.125
315.198181 344619.5625
315.203491 143488.59375
315.208801 20936.341797
315.67627 7942.176758
315.68161 78817.992188
315.68692 114414.203125
315.69223 118376.632812
315.69754 90187.265625
315.702881 45930.171875
317.149231 9858.291016
317.154602 101100.632812
317.159943 247551.046875
317.165283 373708.8125
317.170654 410282.625
317.176025 326408.90625
317.181366 175059.640625
317.186737 38286.320312
321.171539 3561.188721
321.177002 32686.744141
321.182465 76459.65625
321.187927 111465.507812
321.19339 114501.757812
321.198822 82288.078125
321.204285 35805.410156
323.575409 7368.711914
323.580933 56373.980469
323.586456 88292.585938
323.591949 95920.515625
323.597473 74143.921875
323.602997 38195.871094
325.165192 8242.207031
325.170776 64383.523438
325.176331 132659.578125
325.181885 188241.375
325.187439 189202.5
325.192993 131194.390625
325.198578 49784.453125
325.660583 49217.230469
325.666168 319834.8125
325.671722 769452.8125
325.677307 1180051.75
325.682892 1241519.75
325.688446 870238.625
325.694031 424225.71875
325.699585 136809.765625
325.70517 39005.699219
326.168274 4927.355957
326.173859 39834.101562
326.179443 96661.28125
326.185028 132482.984375
326.190613 131722.3125
326.196198 93484.15625
326.201782 41393.710938
329.681763 10222.352539
329.687439 70129.304688
329.693115 130721.46875
329.698792 176788.359375
329.704468 171299.640625
329.710144 109962.585938
329.71582 27602.75
330.688721 4428.71875
330.694427 30792.738281
330.700134 65037.050781
330.705841 90296.382812
330.711517 86574.414062
330.717224 56778.546875
330.722931 22210.59375
331.162506 11713.263672
331.168213 91105.882812
331.17392 246795.609375
331.179626 415231.8125
331.185364 435367.5
331.191071 300237.03125
331.196777 134049.9375
331.202515 19381.212891
335.169922 5324.253906
335.175751 35579.308594
335.18158 74267.953125
335.187378 95454.382812
335.193207 84768.03125
335.199036 46738.421875
337.679993 7636.470215
337.685883 52577.214844
337.691772 121464.867188
337.697662 170022.078125
337.703552 164187.28125
337.709412 98671.648438
337.715302 15585.263672
339.203156 8501.119141
339.209076 56775.640625
339.214996 114568.898438
339.220917 150003.84375
339.226868 139190.609375
339.232788 93405.335938
339.238708 40777.214844
339.659729 17980.951172
339.66568 120374.234375
339.6716 251153.171875
339.677551 338512.4375
339.683472 363016.21875
339.689423 316911.09375
339.695343 220125.9375
339.701294 107687.109375
339.707245 46010.828125
339.713165 19657.097656
343.677856 6479.795898
343.683899 54491.863281
343.689941 162716.734375
343.695984 227858.53125
343.702026 236139.171875
343.708038 186002.234375
343.714081 106045.148438
343.720123 32333.039062
344.173767 4701.30127
344.17981 46981.917969
344.185883 163797.796875
344.191925 265159.5625
344.197998 301575.40625
344.204041 241924.25
344.210083 125706.546875
344.216156 20503.951172
346.687897 4998.567383
346.694031 28581.802734
346.700134 55900.25
346.706268 72319.210938
346.712372 63012.875
346.718506 32199.160156
349.675659 6848.092773
349.681854 60211.546875
349.688049 194031.171875
349.694275 322059.75
349.70047 370969.375
349.706665 312377.5
349.71286 186922.90625
349.719055 63309.046875
352.194031 25871.068359
352.200287 138567.0
352.206543 256279.953125
352.21283 306260.09375
352.219086 254446.515625
352.225372 137169.75
352.231628 29857.285156
352.677094 22688.457031
352.68338 173030.078125
352.689636 494977.625
352.695923 979714.875
352.702209 1387854.0
352.708496 1331495.0
352.714783 846511.5625
352.721069 378302.78125
352.727325 96910.484375
352.733612 18105.298828
356.188538 21116.9375
356.194916 102781.859375
356.201294 174995.984375
356.207672 201984.25
356.21405 161558.8125
356.220428 83849.101562
356.226807 18362.384766
356.699036 6435.026855
356.705414 32231.861328
356.711792 59137.015625
356.718201 70811.742188
356.724579 59992.042969
356.730957 31421.294922
358.166351 7925.283691
358.172791 56261.933594
358.179199 154351.921875
358.185638 239706.15625
358.192047 284438.4375
358.198486 257485.125
358.204926 171309.53125
358.211334 72109.242188
359.688019 9270.140625
359.694489 49429.101562
359.700958 118767.8125
359.707428 218758.6875
359.713898 285964.5625
359.720367 244357.265625
359.726837 139522.40625
359.733307 53714.851562
359.739777 14847.24707
360.666718 10625.727539
360.673218 134823.671875
360.679718 715063.1875
360.686218 2242260.75
360.692688 4691633.5
360.699188 6914019.0
360.705688 7139873.0
360.712189 4835397.0
360.718689 2437946.5
360.725189 710714.0625
360.731689 168817.328125
360.73819 16047.754883
361.180359 122627.34375
361.186859 602778.5
361.193359 1235680.75
361.19989 1836101.375
361.20639 1841366.75
361.212891 1322116.875
361.219421 726490.0625
361.225922 291696.96875
361.232422 80241.023438
361.238922 13957.046875
363.672943 147037.375
363.679535 707121.9375
363.686096 1479501.5
363.692688 2079801.0
363.699249 1936566.75
363.705841 1274992.625
363.712402 600106.8125
363.718994 232702.421875
363.725555 120095.210938
363.732147 96801.15625
363.738708 100355.101562
363.7453 70298.140625
363.751862 26344.412109
364.173248 18287.369141
364.17984 85761.046875
364.186432 162053.671875
364.193024 221097.6875
364.199615 227526.71875
364.206207 181282.0625
364.212799 104423.5625
364.219391 28866.583984
364.700989 6651.128906
364.707581 51093.066406
364.714203 144309.53125
364.720795 210595.578125
364.727417 209451.734375
364.734009 147776.625
364.740631 65009.542969
365.196808 12035.15332
365.2034 56190.40625
365.210022 94074.3125
365.216644 105871.328125
365.223267 80420.046875
365.229889 33153.386719
366.178162 15184.240234
366.184784 64512.175781
366.191437 92198.328125
366.19809 99519.445312
366.204742 79788.8125
366.211365 39041.847656
366.670319 32403.486328
366.676971 233716.6875
366.683624 919034.875
366.690277 2267094.75
366.69693 3700713.0
366.703613 4356450.0
366.710266 3347874.75
366.716919 1832709.75
366.723572 652617.375
366.730225 165069.78125
366.736908 30454.5625
367.176819 42431.390625
367.183472 215895.453125
367.190155 530112.25
367.196838 950138.625
367.203491 1131767.5
367.210175 910002.8125
367.216827 505195.9375
367.223511 176902.671875
367.230194 33725.550781
372.688568 10616.164062
372.695404 41103.863281
372.70224 59329.953125
372.709045 67416.875
372.715881 59409.832031
372.722687 31568.601562
373.707153 27800.486328
373.71402 107877.171875
373.720856 155021.484375
373.727722 167054.15625
373.734558 127016.015625
373.741425 52309.035156
375.177399 59530.078125
375.184296 303092.875
375.191193 1224568.875
375.19809 3987551.0
375.204956 8455649.0
375.211853 12365133.0
375.21875 12648728.0
375.225647 8692808.0
375.232544 4378574.0
375.239441 1399471.125
375.246338 432069.0625
375.253204 162082.78125
375.260101 41912.476562
375.687836 77802.03125
375.694733 507682.4375
375.70163 1445254.875
375.708557 2654763.0
375.715454 3377541.5
375.722351 2873699.5
375.729248 1724566.625
375.736176 746254.25
375.743073 210845.28125
375.749969 51071.816406
377.67038 21752.310547
377.677338 91449.679688
377.684296 155845.90625
377.691254 183756.234375
377.698212 155955.234375
377.70517 88895.78125
377.712128 32061.65625
377.719086 49285.179688
377.726044 115144.421875
377.733002 156150.125
377.73996 140239.953125
377.746948 85086.4375
377.753906 30260.566406
378.213776 14704.381836
378.220764 56006.972656
378.227722 81899.789062
378.234711 83063.703125
378.241669 57905.988281
378.248657 22615.539062
378.716431 15835.975586
378.723419 61099.226562
378.730408 92506.40625
378.737396 105195.015625
378.744385 87141.328125
378.751373 42159.148438
380.181244 22344.146484
380.188263 113486.726562
380.195282 250909.15625
380.202332 358720.8125
380.209351 368582.8125
380.21637 279396.34375
380.223419 140469.75
380.230438 19348.28125
380.680786 9143.195312
380.687805 57486.449219
380.694855 142339.5
380.701904 199449.671875
380.708954 194292.3125
380.716003 130435.789062
380.723022 40099.683594
381.160126 5792.300293
381.167175 117287.421875
381.174255 748199.0625
381.181305 2146201.5
381.188354 3899525.75
381.195404 5011719.5
381.202484 4384687.5
381.209534 2810073.25
381.216583 1314387.0
381.223633 429333.4375
381.230713 96532.304688
381.668671 22756.962891
381.675751 131232.640625
381.682831 395538.3125
381.68988 820997.6875
381.69696 1149711.875
381.704041 1095410.125
381.71109 710949.9375
381.71817 345547.8125
381.72525 87620.171875
382.206573 19892.052734
382.213654 72343.945312
382.220734 101834.8125
382.227844 102948.226562
382.234924 71347.101562
382.242004 26490.572266
383.193329 11996.628906
383.200439 48254.089844
383.20755 84509.375
383.214661 107099.953125
383.221771 99889.867188
383.228882 65348.453125
383.235992 18861.410156
385.185455 12377.973633
385.192627 189488.28125
385.199799 802780.8125
385.20697 1752569.125
385.214142 2614876.25
385.221313 2708039.5
385.228485 1890214.125
385.235626 943238.6875
385.242798 301237.875
385.249969 78589.8125
385.694885 6477.569824
385.702087 53400.824219
385.709259 152901.203125
385.716461 225623.53125
385.723633 225014.546875
385.730804 157263.84375
385.738007 63893.394531
386.212555 32736.396484
386.219757 143470.96875
386.226929 367230.21875
386.234131 737984.75
386.241333 962251.1875
386.248535 852961.6875
386.255737 559974.8125
386.262939 262412.6875
386.270142 60531.566406
386.716827 33710.300781
386.72403 143814.46875
386.731232 269463.3125
386.738464 352890.8125
386.745667 349194.125
386.752869 252089.203125
386.760101 114462.195312
386.767303 16640.916016
387.222076 35822.925781
387.229309 157084.84375
387.236542 336046.75
387.243744 531587.3125
387.250977 609044.25
387.258209 486821.84375
387.265442 266747.59375
387.272644 116635.078125
387.279877 19260.927734
387.699371 20153.121094
387.706604 108571.304688
387.713837 251476.8125
387.7211 362460.65625
387.728333 384370.28125
387.735565 293649.65625
387.742798 145060.578125
387.750031 30369.058594
389.1875 14123.637695
389.194794 73278.34375
389.202087 167494.546875
389.209351 239789.25
389.216644 238534.359375
389.223907 164071.15625
389.231201 63682.128906
391.711365 23235.890625
391.718719 77105.664062
391.726074 103061.0
391.733429 97531.25
391.740784 63871.054688
391.748108 23700.667969
392.204346 11097.108398
392.2117 43813.550781
392.219086 84608.34375
392.22644 123748.101562
392.233826 137767.640625
392.24118 119717.953125
392.248535 83273.148438
392.25592 46985.539062
392.263275 19496.71875
394.675842 10328.043945
394.683289 42524.914062
394.690735 80402.34375
394.698151 103045.40625
394.705597 84579.078125
394.713043 74496.320312
394.720459 167752.328125
394.727905 425172.65625
394.735352 783384.5625
394.742767 997237.5
394.750214 700574.875
394.75766 337661.78125
394.765076 28505.212891
395.166992 24657.539062
395.174438 428569.875
395.181885 1112311.625
395.189362 1838963.5
395.196808 2232490.25
395.204254 1929318.375
395.2117 1338652.875
395.219147 744326.875
395.226593 344809.71875
395.234039 110775.234375
395.241486 38207.925781
395.673981 14899.448242
395.681458 63293.429688
395.688904 145917.8125
395.696381 301943.5625
395.703857 431210.53125
395.711304 348439.5
395.718781 200453.3125
395.726227 101271.328125
395.733704 22252.052734
397.704224 15263.881836
397.711731 75607.78125
397.719238 160866.640625
397.726776 214375.546875
397.734283 205418.765625
397.741821 134195.640625
397.749329 47247.464844
399.182312 6638.300293
399.18988 84336.085938
399.197449 341149.90625
399.205017 736048.4375
399.212555 1065173.625
399.220123 1055923.375
399.227692 670814.75
399.23526 281073.375
399.242828 60456.230469
399.689484 25633.066406
399.697052 102397.085938
399.70462 195178.65625
399.712219 273782.46875
399.719788 294337.3125
399.727356 244297.765625
399.734955 150651.703125
399.742523 54446.835938
400.212799 39822.890625
400.220367 188074.578125
400.227966 452611.90625
400.235565 808068.625
400.243164 1000671.9375
400.250732 776930.9375
400.258331 396629.375
400.26593 132292.875
400.273529 24530.849609
400.706696 33439.136719
400.714294 145320.75
400.721924 325611.28125
400.729523 539015.5
400.737122 635555.375
400.74472 521223.34375
400.75235 297100.75
400.759949 101816.71875
400.767548 9858.361328
401.224396 28009.453125
401.232025 85248.390625
401.239624 104082.484375
401.247253 97692.898438
401.254883 69372.648438
401.262482 28805.472656
401.704926 21507.117188
401.712555 75622.304688
401.720184 112409.804688
401.727814 113048.007812
401.735443 79198.757812
401.743073 30891.115234
402.216888 30129.998047
402.224548 98976.890625
402.232178 133786.8125
402.239838 124982.257812
402.247498 82592.921875
402.255127 31504.648438
402.676208 12617.394531
402.683868 47707.117188
402.691528 80198.0625
402.699188 92500.117188
402.706848 79366.351562
402.714508 39084.203125
403.182373 6940.561523
403.190033 32759.65625
403.197723 76485.414062
403.205383 120521.9375
403.213074 133730.359375
403.220764 105705.679688
403.228424 58556.078125
403.236115 18779.324219
406.208405 9358.058594
406.216156 86629.289062
406.223938 299362.5625
406.231689 583639.5625
406.239471 754922.9375
406.247223 674041.4375
406.254974 417289.75
406.262756 175125.09375
406.270508 46306.902344
406.71347 11835.588867
406.721252 68811.992188
406.729034 179614.125
406.736786 282590.34375
406.744568 311595.59375
406.75235 266052.0
406.760132 170762.625
406.767914 70689.578125
406.775696 15603.751953
406.79126 19254.585938
406.799042 54832.464844
406.806824 65226.0
406.814575 61161.007812
406.822357 47437.167969
406.830139 22072.169922
407.703003 62396.074219
407.710815 220006.203125
407.718597 405153.375
407.72641 559308.5
407.734222 492856.125
407.742035 279257.28125
407.749847 117193.0625
407.757629 21527.230469
408.187378 15169.800781
408.19519 88389.65625
408.203033 295699.625
408.210846 661802.5625
408.218658 1034095.375
408.226471 1103238.875
408.234314 786024.9375
408.242126 422881.90625
408.249939 159176.09375
408.257782 42506.0625
408.703979 25225.113281
408.711823 79962.085938
408.719635 115472.632812
408.727478 126881.414062
408.735321 130821.601562
408.743134 143761.890625
408.750977 140519.65625
408.75882 136993.078125
408.766663 118071.53125
408.774506 70887.554688
408.782318 25695.375
409.182312 8772.395508
409.190155 61790.410156
409.197998 132745.359375
409.205841 173328.671875
409.213684 292657.03125
409.221558 714629.8125
409.229401 1872809.25
409.237244 3635638.0
409.245087 5081422.0
409.25293 4901030.5
409.260803 3155877.5
409.268646 1481392.375
409.276489 350334.8125
409.284332 25613.128906
409.292206 99.418991
409.724365 68460.265625
409.732239 341224.65625
409.740112 735602.125
409.747955 1066875.75
409.755829 1040390.4375
409.763702 663156.4375
409.771545 306129.375
409.779419 51925.886719
414.211853 12556.804688
414.219849 94096.648438
414.227844 247460.671875
414.23584 369713.25
414.243835 387881.5
414.251831 284611.40625
414.259827 137524.921875
414.267822 34092.039062
414.69989 19733.455078
414.707916 124977.695312
414.715912 328738.21875
414.723907 542532.1875
414.731934 634137.0
414.739929 522470.6875
414.747955 303823.09375
414.755951 108867.96875
414.763977 20945.494141
416.185272 12354.65625
416.193329 47099.171875
416.201385 114774.359375
416.209442 185363.265625
416.217468 193920.65625
416.225525 161767.0
416.233582 106673.734375
416.241638 39128.921875
416.700989 43651.433594
416.709076 259468.765625
416.717133 684956.25
416.725189 1219256.25
416.733246 1532668.75
416.741333 1308754.5
416.74939 775399.0
416.757446 306841.25
416.765533 54330.726562
417.209595 25776.181641
417.217682 130009.398438
417.225769 361447.9375
417.233826 634411.6875
417.241913 707427.625
417.25 516896.4375
417.258087 243269.203125
417.266174 75422.335938
417.274231 15935.236328
417.735321 22930.171875
417.743408 67654.859375
417.751495 90826.960938
417.759613 88689.648438
417.7677 64382.433594
417.775787 26315.03125
420.207306 21889.623047
420.215485 90720.257812
420.223633 266973.375
420.231812 522765.59375
420.23999 637702.6875
420.248138 530232.6875
420.256317 305735.4375
420.264496 108245.3125
420.272675 11415.446289
421.705994 43840.1875
421.714203 151735.546875
421.722412 254062.484375
421.730621 290447.28125
421.738831 232311.359375
421.74704 122230.851562
421.755249 34985.863281
422.182648 7675.648438
422.190857 90402.984375
422.199097 339517.59375
422.207336 750647.0
422.215546 1133631.25
422.223785 1187930.25
422.231995 813610.3125
422.240234 386481.59375
422.248444 83897.375
423.179657 14383.629883
423.187927 74808.179688
423.196167 221847.890625
423.204437 434132.71875
423.212677 1176766.625
423.220947 4062020.75
423.229187 9370625.0
423.237457 15371595.0
423.245697 17865116.0
423.253967 14055714.0
423.262238 7854952.5
423.270477 3115212.0
423.278748 888829.0
423.286987 336614.5625
423.295258 179865.15625
423.303497 86495.054688
423.311768 46801.066406
423.708435 82856.1875
423.716705 508782.625
423.724976 1769720.125
423.733246 3546053.0
423.741516 5053169.5
423.749786 4849769.0
423.758057 3284218.75
423.766327 1574426.75
423.774628 509060.4375
423.782898 113939.9375
423.791168 9058.283203
427.731232 31917.017578
427.739624 201031.8125
427.748016 513684.03125
427.756409 881232.875
427.764801 1060128.0
427.773163 809218.4375
427.781555 420514.84375
427.789948 131663.65625
427.79834 13100.833984
428.714325 10362.973633
428.722748 100908.40625
428.73114 351771.59375
428.739563 766690.0625
428.747986 1116529.875
428.756409 1053206.125
428.764832 686745.625
428.773254 324388.9375
428.781647 83086.109375
430.656769 671.055176
430.665253 28057.914062
430.673737 86661.71875
430.68222 262199.90625
430.690674 558977.375
430.699158 1538851.875
430.707642 5353346.5
430.716095 12407811.0
430.724579 20458494.0
430.733063 23953068.0
430.741547 19004380.0
430.75 10701484.0
430.758484 4291181.0
430.766968 1250784.25
430.775452 511919.75
430.783936 285101.75
430.792389 71637.117188
431.182648 22114.310547
431.191162 97937.0
431.199646 365817.40625
431.20813 1318477.375
431.216614 3151024.25
431.225098 5318651.5
431.233612 6417904.5
431.242096 5247360.0
431.25058 3022526.75
431.259064 1234531.375
431.267578 330065.40625
431.276062 68999.640625
431.718018 41694.574219
431.726501 306734.9375
431.735016 1180483.625
431.74353 2611240.25
431.752045 4060834.25
431.760529 4375158.0
431.769043 3200377.25
431.777557 1662308.875
431.786072 584534.3125
431.794556 159095.640625
431.80307 40742.03125
432.220276 8037.108887
432.22879 71494.609375
432.237305 249453.765625
432.24585 561583.4375
432.254364 887961.8125
432.262878 946614.1875
432.271393 691454.5625
432.279907 339480.09375
432.288452 82003.304688
434.203796 10884.255859
434.212372 54826.164062
434.220947 136989.578125
434.229523 258725.1875
434.238129 336380.40625
434.246704 280919.03125
434.25528 174413.953125
434.263855 80855.640625
434.27243 17492.697266
434.718994 19583.550781
434.7276 56606.429688
434.736176 76586.53125
434.744781 69893.039062
434.753387 43398.417969
434.761963 14225.96582
435.709045 51859.757812
435.717651 150716.125
435.726288 212769.125
435.734924 213517.40625
435.74353 152187.984375
435.752167 56953.515625
436.192383 33352.8125
436.201019 110097.75
436.209656 182000.9375
436.218292 206988.375
436.226929 162509.546875
436.235565 78853.601562
436.244202 17149.310547
436.719757 48688.589844
436.728424 176313.671875
436.737091 314506.3125
436.745728 390978.53125
436.754395 355250.3125
436.763031 239545.09375
436.771698 109339.109375
436.780365 22735.945312
437.204773 72202.257812
437.21344 442140.65625
437.222107 1339222.75
437.230804 2606893.0
437.239471 3576703.75
437.248138 3387685.75
437.256805 2213188.75
437.265472 1030560.5
437.274139 294371.96875
437.282806 48098.59375
437.707977 15512.375977
437.716644 186331.671875
437.725342 633552.6875
437.734009 1234841.0
437.742706 1693665.25
437.751404 1576221.5
437.760071 1064057.25
437.768768 519975.46875
437.777435 165964.265625
437.786133 33486.242188
441.729736 55158.167969
441.738525 307056.96875
441.747314 720611.875
441.756134 1105326.0
441.764923 1143547.875
441.773743 778341.4375
441.782532 363139.53125
441.791351 79772.804688
442.231934 15673.587891
442.240753 54539.753906
442.249573 96207.96875
442.258392 114889.242188
442.267212 95204.695312
442.276031 52588.507812
442.284851 16334.838867
442.708496 10480.022461
442.717316 87823.421875
442.726166 327774.75
442.734985 762179.6875
442.743805 1287586.25
442.752655 1502030.375
442.761475 1172593.0
442.770325 639738.6875
442.779144 241393.765625
442.787994 60196.925781
442.796814 10121.794922
443.230072 60995.183594
443.238892 172683.046875
443.247742 238366.9375
443.256592 227347.375
443.265442 149989.71875
443.274292 49494.183594
444.196075 5563.178711
444.204956 99143.726562
444.213806 409998.71875
444.222687 908946.375
444.231567 1418965.0
444.240448 1543856.875
444.249329 1119487.375
444.258209 575233.0
444.26709 173977.40625
444.27597 19660.0
444.675812 34459.175781
444.684692 134293.890625
444.693604 526436.5
444.702484 2037207.875
444.711365 5040855.0
444.720276 8828776.0
444.729156 10952957.0
444.738037 9201327.0
444.746948 5465541.0
444.755829 2323000.0
444.76474 658025.5625
444.773621 234220.328125
444.782532 121877.90625
444.791412 80666.195312
444.800323 47246.226562
445.191956 70790.992188
445.200867 393476.4375
445.209778 1180108.875
445.218658 2295866.75
445.22757 3179370.5
445.236481 3009445.75
445.245392 1966445.0
445.254303 907661.25
445.263214 258580.296875
445.272125 45035.066406
445.708984 17351.966797
445.717926 158883.484375
445.726837 773845.0625
445.735748 2151820.75
445.74469 3962657.5
445.753601 5158583.5
445.762543 4548139.0
445.771454 2834505.75
445.780396 1243236.375
445.789307 343355.0
445.798218 68080.6875
446.217987 12508.682617
446.226929 155606.203125
446.23587 551137.625
446.244812 1125158.0
446.253754 1593280.625
446.262695 1569099.5
446.271637 1047303.5625
446.280579 491651.90625
446.28952 116213.492188
446.298462 3921.05542
450.729675 38974.035156
450.738739 114672.867188
450.747803 179760.390625
450.756897 211794.1875
450.765961 194468.265625
450.775024 138344.75
450.784119 73388.539062
450.793182 21531.511719
451.23822 4359.452148
451.247314 71964.117188
451.256378 331754.75
451.265472 761556.875
451.274567 1286444.75
451.283661 1619154.0
451.292755 1314727.875
451.301849 732091.5
451.310944 244716.234375
451.320007 7691.345215
451.702087 84452.257812
451.711212 552781.625
451.720306 1305012.25
451.729401 2006505.75
451.738525 2266830.25
451.74762 1785581.75
451.756714 1045659.5
451.765839 443057.09375
451.774933 170805.40625
451.784027 47632.476562
451.793152 13861.945312
452.21228 21256.507812
452.221405 98028.601562
452.23053 222828.9375
452.239655 323632.6875
452.248779 298652.59375
452.257874 208370.8125
452.266998 130414.601562
452.276123 37232.949219
455.23642 25039.023438
455.245636 72867.226562
455.254822 114906.554688
455.264038 134463.203125
455.273254 116641.492188
455.282471 71168.070312
455.291687 22001.300781
455.724945 79153.632812
455.734161 370628.25
455.743378 844607.0625
455.752594 1337890.5
455.761841 1394928.875
455.771057 980061.0625
455.780273 480313.625
455.78952 158066.578125
455.798737 39997.171875
456.214233 6289.79541
456.22348 41706.625
456.232727 177363.734375
456.241974 427600.34375
456.25119 667857.0
456.260437 796102.125
456.269684 673266.375
456.278931 406182.25
456.288177 143814.0
456.297394 6331.575684
459.708282 6640.98291
459.717621 97422.046875
459.726959 478621.46875
459.736328 1150665.75
459.745667 1904380.625
459.755005 2186039.25
459.764343 1686919.125
459.773712 906904.0625
459.783051 322247.9375
459.792389 56171.035156
460.222748 81022.289062
460.232086 253885.859375
460.241455 566270.6875
460.250824 837469.375
460.260193 758592.125
460.269531 443257.46875
460.2789 188213.515625
460.288269 51864.175781
464.198944 96920.921875
464.208405 179815.4375
464.217896 213501.53125
464.227386 367648.34375
464.236877 1129783.625
464.246338 3754096.5
464.255829 7998458.0
464.26532 12266333.0
464.274811 13076794.0
464.284302 9568984.0
464.293762 4970582.0
464.303253 1751364.5
464.312744 466899.9375
464.322235 156173.671875
464.331726 50833.914062
464.341217 4984.620117
464.720947 14328.71875
464.730438 178112.109375
464.73996 824883.0625
464.749451 2201541.0
464.758942 4029945.75
464.768433 5320714.5
464.777954 4827242.5
464.787445 3091904.75
464.796936 1413887.75
464.806458 384793.625
464.815948 53584.238281
465.234344 85929.703125
465.243835 494088.78125
465.253357 1612475.0
465.262878 3201314.0
465.2724 4616209.0
465.281921 4562850.0
465.291412 3174613.25
465.300934 1576258.25
465.310455 519114.75
465.319977 92127.5625
465.710449 51516.410156
465.719971 378147.90625
465.729492 1045422.9375
465.739044 1751619.125
465.748566 2207505.0
465.758087 2001878.375
465.767639 1424469.5
465.777161 833739.625
465.786682 371285.625
465.796234 106724.1875
465.805756 34161.898438
466.225464 70334.210938
466.235016 276645.1875
466.244568 550004.125
466.25412 738692.25
466.263641 673293.875
466.273193 411164.59375
466.282745 172565.53125
466.292297 43203.460938
469.729156 28478.373047
469.738831 90075.101562
469.748474 196937.171875
469.758118 264323.28125
469.767792 208905.078125
469.777435 110449.796875
469.787079 44132.664062
469.796753 10612.960938
470.241211 27339.822266
470.250885 70481.203125
470.260529 93174.726562
470.270203 85166.671875
470.279877 53688.648438
470.289551 16665.09375
472.716522 47514.25
472.726288 127931.039062
472.736023 182478.109375
472.745758 180110.765625
472.755524 118214.976562
472.765259 48842.691406
473.233459 17817.388672
473.243225 144968.078125
473.252991 452768.34375
473.262756 980472.25
473.272522 1488061.25
473.282257 1647453.0
473.292023 1194321.5
473.301788 626196.5
473.311554 145871.21875
473.32132 4146.571289
473.751251 72202.65625
473.761017 199332.859375
473.770782 290169.65625
473.780579 301304.1875
473.790344 233182.671875
473.80014 107475.242188
473.809906 17996.427734
478.201752 54602.265625
478.21167 212350.734375
478.221588 382864.8125
478.231506 988429.5625
478.241425 3283984.0
478.251343 7278952.0
478.261261 11718254.0
478.271179 13178077.0
478.281097 10121484.0
478.291016 5542383.0
478.300934 2117461.0
478.310852 568374.375
478.32077 219231.15625
478.330688 151986.140625
478.340607 57278.035156
478.717804 44314.09375
478.727722 281266.4375
478.73764 1065977.5
478.747589 2632258.0
478.757507 4640823.5
478.767456 5845277.5
478.777374 4991012.5
478.787323 3032932.75
478.797241 1307635.625
478.80719 357177.125
478.817108 63954.300781
479.224701 38370.4375
479.23465 127680.820312
479.244598 262339.75
479.254547 379648.25
479.264496 408705.96875
479.274445 343912.34375
479.284393 222978.6875
479.294342 88995.109375
479.304291 13337.974609
479.712494 24499.632812
479.722473 99655.726562
479.732422 179060.421875
479.742401 214372.34375
479.75235 195069.046875
479.762329 132989.390625
479.772278 42801.535156
480.230988 47154.222656
480.240936 124084.710938
480.250916 177745.5
480.260895 189333.65625
480.270905 159751.21875
480.280884 88097.242188
480.290863 20680.527344
487.19104 37293.597656
487.201263 136147.890625
487.211456 336735.0
487.221649 483112.78125
487.231842 1123635.625
487.242035 3988473.75
487.252228 10392248.0
487.262451 18688558.0
487.272644 23864800.0
487.282837 20450240.0
487.29303 12590919.0
487.303223 5427609.0
487.313446 1606325.625
487.323639 559097.1875
487.333832 332157.375
487.344025 148317.671875
487.354248 22488.921875
487.72171 66472.039062
487.731903 258303.609375
487.742126 1014700.6875
487.75235 2968716.0
487.762543 5621293.5
487.772766 7595081.5
487.78299 6922340.0
487.793213 4468977.5
487.803406 2001508.625
487.813629 579765.5625
487.823853 197872.484375
487.834076 104581.421875
487.844269 91768.15625
487.854492 43291.015625
487.864716 951.227844
489.195709 31106.595703
489.205994 75740.554688
489.216248 108149.882812
489.226501 116791.023438
489.236755 92928.835938
489.24704 52046.441406
489.257294 16308.188477
492.215668 17223.216797
492.226013 152968.34375
492.236359 650135.4375
492.246735 1580775.25
492.25708 2722433.25
492.267426 3320294.5
492.277802 2732504.0
492.288147 1575939.75
492.298492 616567.9375
492.308868 117670.820312
492.319214 7484.969238
492.723419 33141.34375
492.733795 195189.953125
492.744171 483963.90625
492.754547 820547.25
492.764923 1007177.625
492.775269 857652.1875
492.785645 516757.84375
492.796021 201755.59375
492.806396 32844.84375
493.221588 59093.324219
493.231964 199346.625
493.242371 448260.40625
493.252747 705350.875
493.263153 716842.0
493.273529 483194.03125
493.283905 229184.453125
493.294312 56237.652344
493.730927 44791.09375
493.741333 115080.046875
493.751709 170002.921875
493.762115 185758.515625
493.772522 150056.953125
493.782928 85235.726562
493.793335 22887.558594
500.743164 50622.332031
500.753784 198974.53125
500.764435 368624.15625
500.775055 421371.8125
500.785675 317136.125
500.796295 168782.6875
500.806915 69587.382812
500.817566 15895.921875
501.147156 222912.65625
501.157806 135284.0625
501.179077 284053.59375
501.189728 1065337.0
501.200348 3934516.0
501.210999 7219715.5
501.221649 11286852.0
501.232269 30981344.0
501.24292 101672608.0
501.253571 216929824.0
501.264191 340749376.0
501.274841 368091136.0
501.285492 273084928.0
501.296112 144928448.0
501.306763 53980952.0
501.317413 15903788.0
501.328064 8036810.0
501.338684 5473836.5
501.349335 2807266.75
501.359985 1068115.625
501.370636 196430.0625
501.679474 84955.0625
501.690125 412144.6875
501.700775 1194088.625
501.711426 2018863.875
501.722107 2942367.5
501.732758 7859743.0
501.743408 26404886.0
501.754059 57741964.0
501.764709 93015816.0
501.775391 103280448.0
501.786041 78211080.0
501.796692 42571436.0
501.807343 16342800.0
501.818024 4812098.5
501.828674 2261533.25
501.839325 1407667.625
501.849976 609150.875
501.860657 219420.21875
501.871307 53164.636719
502.479523 14459.664062
502.490204 117172.085938
502.500885 265754.03125
502.511566 352396.96875
502.522247 295684.375
502.532928 175245.40625
502.54361 61341.785156
502.554291 33956.949219
502.564972 103184.15625
502.575653 176758.328125
502.586334 204557.09375
502.597015 172350.65625
502.607727 91189.226562
502.618408 20988.220703
502.629089 22478.376953
502.639771 66907.28125
502.650452 120933.1875
502.661133 158655.703125
502.671814 151482.234375
502.682526 84946.851562
502.693207 50491.261719
502.703888 147459.71875
502.714569 348819.9375
502.72525 578899.5625
502.735962 680218.9375
502.746643 568588.375
502.757324 381830.84375
502.768005 211424.328125
502.778717 125143.28125
502.789398 79361.8125
502.800079 93195.421875
502.810791 212482.75
502.821472 369154.0
502.832153 443734.75
502.842834 291537.21875
502.853546 132364.453125
502.864227 74254.390625
502.874939 74097.1875
502.88562 141618.15625
502.896301 232581.609375
502.907013 284397.25
502.917694 231396.546875
502.928406 126977.40625
502.939087 77167.328125
502.949799 116275.117188
502.96048 238672.75
502.971161 452025.53125
502.981873 657338.0
502.992554 604459.8125
503.003265 391031.03125
503.013947 406560.0625
503.024658 642578.3125
503.03537 850545.125
503.046051 741074.25
503.056763 397767.4375
503.067444 118869.921875
503.078156 13850.360352
503.088837 49557.824219
503.099548 242460.671875
503.11026 421510.1875
503.120941 466692.09375
503.131653 391380.09375
503.142365 260947.171875
503.153046 144622.6875
503.163757 107469.335938
503.174469 189183.28125
503.18515 331754.96875
503.195862 426063.5625
503.206573 352697.90625
503.217255 256101.734375
503.227966 226996.71875
503.238678 286124.78125
503.24939 312831.625
503.260101 293271.09375
503.270782 262317.09375
503.281494 231397.875
503.292206 243344.140625
503.302917 246603.5
503.313629 270300.09375
503.32431 235476.78125
503.335022 148325.5625
503.345734 135682.75
503.356445 226541.609375
503.367157 338177.46875
503.377869 281323.21875
503.38858 212511.609375
503.399292 197169.21875
503.410004 171301.421875
503.420715 110775.03125
503.431427 62291.910156
503.442108 55141.082031
503.45282 77061.03125
503.463531 94048.445312
503.474243 103465.289062
503.484955 101422.0
503.495667 92905.539062
503.506409 101543.351562
503.51712 105908.046875
503.527832 84709.84375
503.538544 50014.160156
503.549255 14011.463867
518.23053 38387.113281
518.241699 86018.085938
518.25293 106547.054688
518.264099 92352.304688
518.275269 57137.121094
518.286438 15482.254883
542.25769 24827.935547
542.269653 62173.0625
542.281616 84780.882812
542.293579 78491.085938
542.305542 51864.03125
542.317566 13132.822266
570.248291 96877.164062
570.26123 260972.96875
570.274109 484612.875
570.287048 546692.6875
570.299927 384795.375
570.312866 196825.15625
570.325745 38907.910156
604.276428 62129.125
604.290466 105384.101562
604.304565 122528.703125
604.318665 113332.335938
604.332764 80535.15625
604.346863 14294.522461
621.275208 72938.632812
621.289856 325251.9375
621.304565 714659.125
621.319275 1108747.25
621.333923 1093463.375
621.348633 730816.0
621.363281 335420.46875
621.377991 87996.34375
621.3927 6913.34082
633.251038 45.290688
633.266174 45916.621094
633.28125 221829.828125
633.296387 642972.75
633.311462 1139251.75
633.326599 1488712.125
633.341736 1260159.625
633.356812 753813.0625
633.371948 275120.21875
633.387085 35169.871094
633.402161 2602.966064
650.283691 18935.490234
650.299377 141179.046875
650.315125 472048.65625
650.330811 865250.375
650.346558 1230520.5
650.362305 1100715.625
650.377991 670374.625
650.393738 233281.765625
650.409485 21043.023438
661.302551 42583.019531
661.318665 73099.515625
661.334778 79922.789062
661.350952 61391.554688
661.367065 33156.566406
661.383179 2835.503662
670.327148 61590.066406
670.343628 91383.820312
670.360046 105992.8125
670.376526 92835.015625
670.393005 54805.503906
670.409424 4587.244141
672.322815 27449.126953
672.339355 55640.242188
672.355835 74217.492188
672.372375 70439.640625
672.388916 48521.753906
672.405457 3648.605957
679.319458 37743.160156
679.336243 67606.984375
679.353027 81745.742188
679.369812 69900.515625
679.386597 41834.480469
679.403381 2751.742432
698.310181 36151.808594
698.327698 76135.867188
698.345215 101809.53125
698.362732 90647.28125
698.380188 50558.203125
698.397705 2171.083008
704.297546 30121.041016
704.315247 66433.570312
704.333008 91270.914062
704.350708 84350.328125
704.368469 50896.101562
704.386169 1800.342163
716.32373 97634.65625
716.341919 259946.109375
716.360107 367313.4375
716.378296 381128.3125
716.396484 297097.34375
716.414673 165616.265625
716.4328 2999.734131
720.358215 174214.125
720.376526 312896.21875
720.394897 386190.71875
720.413208 334786.84375
720.431519 188821.53125
720.44989 37623.53125
720.468201 531.246155
726.3349 50211.101562
726.353455 76567.289062
726.372009 93717.953125
726.390564 88246.507812
726.409119 57990.523438
726.427734 306.899261
727.301025 41402.097656
727.319641 87825.320312
727.338257 130689.851562
727.356812 142719.21875
727.375427 111529.242188
727.394043 57875.292969
727.412659 300.495758
730.342041 61984.644531
730.360779 98351.695312
730.379517 109158.140625
730.398193 90925.046875
730.416931 56328.554688
730.435669 60.82325
732.311096 300.335632
732.329895 79466.65625
732.348694 294247.90625
732.367493 673376.75
732.386292 1049307.875
732.40509 1016346.8125
732.423889 632174.875
732.442688 261138.578125
732.461487 105864.992188
732.480225 2857.337646
733.326843 134.109146
733.345703 46540.699219
733.364502 110073.828125
733.383362 162461.671875
733.402161 166767.46875
733.421021 120086.664062
733.43988 55336.703125
744.275085 3659.354248
744.294373 121528.765625
744.313599 523249.59375
744.332886 1094746.625
744.352112 1655199.375
744.371399 1670112.25
744.390625 1115298.5
744.409912 548763.25
744.429138 138426.59375
744.448425 28406.847656
749.345154 30151.480469
749.364624 179636.671875
749.384094 561846.625
749.403564 1077343.375
749.422974 1525019.75
749.442444 1375729.875
749.461914 855335.0
749.481323 312335.25
749.500793 7207.668457
754.310059 1358.108276
754.329712 49060.960938
754.349365 87351.203125
754.369019 103562.515625
754.388672 85400.234375
754.408264 47711.019531
754.427917 4382.536621
761.212769 690.396118
761.232666 73072.101562
761.252563 204643.078125
761.272522 210405.890625
761.292419 263528.09375
761.312317 633614.5625
761.332275 2043662.5
761.352173 4755745.5
761.37207 7805933.5
761.392029 8946748.0
761.411926 6426263.0
761.431885 3459180.0
761.451782 1029918.125
761.47168 193914.0
761.491638 12743.588867
762.309204 60094.1875
762.329163 269920.46875
762.349121 799691.8125
762.36908 1423601.375
762.389038 1884297.875
762.408997 1563904.25
762.428955 950774.25
762.448914 332413.71875
762.468872 34217.070312
771.30896 2165.590088
771.329285 43704.039062
771.349548 134845.3125
771.369873 209501.078125
771.390198 222305.609375
771.410522 164998.671875
771.430847 82285.570312
771.451172 2256.062012
772.264465 1500.830933
772.284851 74649.007812
772.305176 303144.28125
772.3255 725391.1875
772.345886 1173603.5
772.366211 1312592.125
772.386597 917881.75
772.406921 486468.875
772.427307 158422.296875
772.447632 398.689484
773.303345 4389.951172
773.32373 83738.296875
773.344116 167880.890625
773.364502 225010.046875
773.384888 224260.984375
773.405273 165654.921875
773.42572 68105.585938
788.343018 4061.428955
788.364014 55895.203125
788.38501 91689.460938
788.406006 102663.226562
788.427002 80414.664062
788.447998 42288.929688
789.267334 5042.60791
789.28833 146783.078125
789.309387 700831.875
789.330383 2328368.25
789.35144 4641910.0
789.372437 7002197.0
789.393494 6982196.0
789.41449 4533143.5
789.435547 2218440.5
789.456604 599108.0625
789.4776 94895.835938
789.498657 14367.608398
790.298523 33627.710938
790.319641 186225.59375
790.340698 585563.0625
790.361755 1068278.0
790.382812 1470568.75
790.40387 1334290.875
790.424988 859879.6875
790.446045 344915.15625
790.467102 58719.492188
797.360596 9262.685547
797.381958 118703.695312
797.40332 214083.5
797.424622 262612.65625
797.445984 231213.75
797.467346 139862.6875
797.488708 36828.566406
799.135559 3851.553711
799.156982 50250.375
799.178406 99057.765625
799.199829 134948.75
799.221252 139962.90625
799.242676 112324.304688
799.264099 64233.695312
799.349792 2999.510498
799.371216 35907.878906
799.392639 62793.589844
799.414062 81398.375
799.435486 76732.867188
799.45697 48304.796875
800.379395 5355.751953
800.400879 65249.425781
800.422302 100818.085938
800.443787 114849.28125
800.465271 95582.351562
800.486755 52951.449219
805.318909 5184.453613
805.340576 70598.015625
805.362244 227533.921875
805.383911 464467.59375
805.405579 705586.125
805.427246 630842.1875
805.448914 359095.4375
805.470581 154463.09375
815.358154 9405.126953
815.380249 106852.359375
815.402344 261576.890625
815.424438 387871.5625
815.446472 396569.0625
815.468567 275844.1875
815.490662 118675.976562
817.326538 6406.325684
817.348694 67401.328125
817.37085 123707.015625
817.393005 149540.3125
817.415161 123855.515625
817.437317 67001.875
825.36145 12874.337891
825.383972 117761.570312
825.406433 175623.703125
825.428955 183306.21875
825.451416 134939.4375
825.473938 65386.359375
826.351624 9714.004883
826.374146 90947.546875
826.396729 142161.484375
826.41925 153048.8125
826.441772 115050.109375
826.464294 56731.554688
832.39856 14421.584961
832.421326 125774.710938
832.444153 195072.84375
832.466919 211452.25
832.489685 158395.375
832.512451 72624.960938
832.535217 2297.647705
842.370239 5654.263184
842.393433 48491.148438
842.416626 89193.78125
842.439819 113142.0625
842.463013 108129.132812
842.486145 79648.40625
842.509338 40823.832031
843.321533 1622.509888
843.344727 65647.773438
843.367981 337356.96875
843.391174 758217.0625
843.414429 1235026.5
843.437622 1344376.5
843.460876 895651.375
843.48407 400636.15625
843.507324 92634.65625
844.367493 5774.10498
844.390747 46092.359375
844.414001 76231.046875
844.437256 91668.421875
844.46051 77733.507812
844.483826 41294.390625
844.50708 427.037476
860.269043 1961.273804
860.292969 71726.914062
860.316895 206024.46875
860.34082 301896.71875
860.364746 783861.1875
860.388672 2542054.5
860.412598 6215250.0
860.436523 10128075.0
860.460449 11840845.0
860.484375 8488696.0
860.508301 4622138.0
860.532227 1304859.75
860.556213 235126.953125
860.580139 96541.21875
860.604065 2082.555908
861.34668 50506.496094
861.370605 208248.1875
861.394592 683948.125
861.418579 1601985.5
861.442566 2611717.0
861.466492 2949102.25
861.490479 2039148.625
861.514465 1052345.0
861.538452 269057.5625
861.562439 24344.289062
870.357544 17124.832031
870.381897 120107.179688
870.40625 201687.875
870.430603 249194.703125
870.454956 222703.921875
870.479309 126139.0625
871.332275 25341.742188
871.356628 199311.1875
871.381042 488221.75
871.405396 854518.875
871.42981 1010541.875
871.454224 696025.1875
871.478577 345305.65625
871.502991 108890.078125
872.357422 11464.958008
872.381897 76766.296875
872.406311 109992.945312
872.430725 111871.960938
872.4552 84259.71875
872.479614 43028.160156
874.339722 732.680054
874.364258 45933.964844
874.388794 273507.59375
874.413269 861691.4375
874.437805 1679231.75
874.462341 2406590.5
874.486816 2222230.25
874.511353 1357456.0
874.535889 597821.5625
874.560425 130957.25
875.370239 6986.813965
875.394775 69373.695312
875.419373 229811.65625
875.443909 357396.6875
875.468506 393058.625
875.493042 318632.375
875.517639 184455.953125
875.542175 35630.214844
885.376526 17746.771484
885.40155 114694.265625
885.426514 191637.375
885.451477 211650.203125
885.476501 154108.421875
885.501465 66342.445312
888.256226 1015.876099
888.281372 38398.136719
888.306458 234812.640625
888.331543 396118.3125
888.356689 1011739.125
888.381775 3111132.25
888.40686 7390406.5
888.432007 11974609.0
888.457092 13820614.0
888.482239 9783544.0
888.507324 5237312.0
888.532471 1445845.0
888.557556 269298.40625
888.582642 69921.929688
888.607788 3856.205566
889.311462 3350.048096
889.336609 54371.53125
889.361755 223775.25
889.386902 741666.625
889.412048 1694853.625
889.437195 2735879.25
889.462402 3038566.75
889.487549 2079748.0
889.512695 1050142.75
889.537842 248501.265625
889.562988 22460.175781
890.418945 6688.475586
890.444153 47536.886719
890.46936 102533.601562
890.494568 133681.015625
890.519775 120711.507812
890.544922 73069.867188
890.570129 377.736633
900.403259 11192.145508
900.428894 63304.015625
900.454529 87856.859375
900.480164 102344.75
900.505798 101728.992188
900.531372 82891.046875
900.557007 48413.371094
902.250671 11244.422852
902.276367 66474.335938
902.302063 98645.78125
902.327759 69212.0625
902.353455 184426.53125
902.37915 463132.90625
902.404846 1511212.375
902.430603 3084666.25
902.456299 4743533.0
902.481995 4675400.5
902.50769 2935494.25
902.533386 1315410.875
902.559143 264189.625
902.584839 20848.783203
902.610535 376.78952
903.356689 6336.926758
903.382446 142678.453125
903.408142 483198.9375
903.433899 986672.125
903.459656 1420409.875
903.485413 1323779.125
903.511169 817234.3125
903.536926 340415.0
903.562683 63440.359375
903.58844 8369.756836
918.370239 4248.010742
918.396667 100551.445312
918.423035 391635.90625
918.449463 954681.75
918.47583 1577438.25
918.502258 1906385.625
918.528625 1492445.625
918.554993 852182.4375
918.581421 269576.5
918.607788 10218.164062
919.40033 12693.834961
919.426758 106516.03125
919.453186 328393.40625
919.479614 540219.625
919.506042 606517.0
919.532471 441641.34375
919.55896 220332.453125
919.585388 38185.824219
END IONS
