BEGIN IONS
PEPMASS=757.284
CHARGE=1
MSLEVEL=2
SOURCE_INSTRUMENT=LC-ESI-Orbitrap
FILENAME=Cpd_10_757.mgf
SEQ=*..*
IONMODE=Positive
ORGANISM=GNPS-LIBRARY
NAME=euphodendroidin N M+Na
PI=LITAUDON/TOUBOUL
DATACOLLECTOR=Esposito
SMILES=C[C@@]1(OC(C)=O)C[C@](O)(C([C@@H](C)/C=C/C(C)(C)[C@H](OC(C)=O)[C@H](OC(C)=O)[C@@H](OC(C2=CC=CC=C2)=O)C([C@@H]3OC(C4=CC=CC=C4)=O)=C)=O)[C@]3([H])[C@H]1O
INCHI=
INCHIAUX=
PUBMED=N/A
SUBMITUSER=lfnothias
TAGS=
LIBRARYQUALITY=1
SPECTRUMID=CCMSLIB00000840543
SCANS=1
200.567993 9165.720703
210.500259 6529.799316
216.395828 9155.984375
225.121262 6194.992676
247.784637 5886.700684
265.157135 12957.697266
272.640411 7044.57666
272.749298 6606.73584
282.920837 7515.411621
283.169128 28663.390625
292.285095 6960.850098
297.846344 6394.912598
306.134064 5187.657715
306.14621 5640.458496
311.165955 35369.644531
311.918121 6894.061035
315.254272 6434.407715
329.175873 13915.957031
333.147034 29977.783203
351.155884 21019.966797
371.189117 9539.476562
390.496674 5688.469238
393.169464 65351.046875
411.180634 77260.882812
425.195587 16097.841797
431.723267 10027.925781
444.160614 5709.835449
453.187836 195235.0625
455.184784 31691.919922
471.197815 24792.595703
473.190613 20787.074219
477.1828 7379.533691
487.208344 9051.962891
487.370911 8860.095703
502.879456 6506.256348
503.203461 7419.705566
513.211426 124131.53125
515.149841 10871.626953
515.20282 157554.734375
533.212585 36479.15625
547.235657 23634.746094
557.218506 57995.917969
564.211914 11108.849609
575.1651 11576.986328
575.227661 2045103.875
575.300659 8120.018066
575.321472 13293.207031
576.229858 23661.642578
584.299805 6250.737793
590.366516 7493.396973
591.256409 12025.482422
617.234009 17431.238281
634.942627 22860.015625
634.966797 18762.658203
635.015137 28080.560547
635.039368 27610.136719
635.063538 28444.294922
635.087708 37889.019531
635.111938 36851.246094
635.136108 44820.800781
635.160278 34422.15625
635.244995 6276784.0
635.329712 43270.375
635.353882 40410.183594
635.378113 41945.558594
635.402283 36561.734375
635.426514 35859.5
635.450745 27132.923828
635.474915 29799.443359
635.499146 20062.683594
635.523376 25144.820312
635.547607 16622.109375
635.571777 22517.042969
635.596008 16753.029297
635.668701 18454.195312
635.692932 8131.533691
636.250427 45284.785156
637.246094 196671.671875
644.454834 6896.546387
649.704041 6749.668457
653.272949 29186.941406
654.713745 6399.36377
692.631714 7434.123535
693.003784 15048.519531
695.935791 7906.312012
695.977417 6831.589355
696.102295 8193.748047
696.157837 8310.626953
696.199463 8610.648438
696.296692 10837.824219
696.338318 9301.042969
696.39386 14426.583984
696.435547 13225.71875
696.477234 12565.669922
696.505005 10878.660156
696.546692 14378.814453
696.602234 14829.865234
696.657837 15049.4375
696.685608 17322.685547
696.755127 18419.011719
696.796814 21562.546875
696.838501 27321.490234
696.880188 25649.181641
696.90802 30785.490234
696.977539 35392.273438
697.033142 45426.960938
697.07489 55493.015625
697.130493 57995.445312
697.255737 10876715.0
697.380981 57367.632812
697.408813 60771.289062
697.464478 45518.644531
697.49231 43570.074219
697.547974 33865.03125
697.575867 33634.722656
697.631531 26218.648438
697.659363 26099.916016
697.715088 21866.986328
697.770813 20520.599609
697.826538 16112.525391
697.882263 16964.482422
697.910095 17868.716797
697.979797 12653.925781
698.021606 13951.794922
698.077332 13485.650391
698.133118 11054.445312
698.188843 11590.710938
698.272522 108341.953125
698.328308 10544.892578
698.370117 8075.053223
698.52356 7159.72998
698.56543 7115.348145
701.546936 10359.341797
701.898132 8203.912109
701.940247 10829.257812
713.29126 19035.269531
738.273193 8120.51709
END IONS
