BEGIN IONS
PEPMASS=799.422
CHARGE=1
MSLEVEL=2
SOURCE_INSTRUMENT=LC-ESI-qTof
FILENAME=f.philipwi/GNPS_Marine_Invertebrate_Secondary_Metabolites_UHManoa/GNPS_SpongeSpectraAlreadyConvertedTo_mzXML/PW-116_P2-B-7_Phakellistatin_13_798amu_Scan682_697_01_15583.mzXML;
SEQ=*..*
IONMODE=Positive
ORGANISM=GNPS-LIBRARY
NAME=Phakellistatin 13 M+H
PI=Philip Williams
DATACOLLECTOR=Williams
SMILES=C[C@H]([C@H]1C(=O)N[C@H](C(=O)N[C@H](C(=O)N2CCC[C@H]2C(=O)N[C@H](C(=O)NCC(=O)N3CCC[C@H]3C(=O)N1)CC4=CC=CC=C4)CC5=CNC6=CC=CC=C65)CC(C)C)O
INCHI=
INCHIAUX=
PUBMED=
SUBMITUSER=philipwi
TAGS=
LIBRARYQUALITY=3
SPECTRUMID=CCMSLIB00000424966
SCANS=683
103.799828 68.0
105.540939 128.0
135.546783 80.0
138.134125 120.0
139.252625 36.0
144.859055 36.0
150.075974 48.0
153.10527 140.0
154.124405 92.0
155.083405 536.0
155.123108 144.0
155.337524 44.0
155.401093 36.0
156.81073 60.0
158.082443 80.0
158.098465 84.0
159.093857 680.0
159.50415 44.0
159.608826 24.0
160.043991 24.0
160.100433 128.0
160.32634 68.0
161.944611 48.0
164.902527 156.0
165.484207 32.0
166.025848 28.0
168.08551 108.0
169.078659 92.0
170.016541 40.0
170.066406 460.0
170.315887 44.0
170.349167 36.0
170.374115 32.0
171.065384 136.0
171.115417 760.0
172.117462 92.0
173.290222 28.0
173.945343 40.0
177.078278 84.0
177.13765 96.0
177.630051 32.0
180.230621 36.0
180.812988 104.0
180.907288 40.0
181.104538 1356.0
181.327637 20.0
181.353394 36.0
182.109573 88.0
183.082886 44.0
184.093399 96.0
184.119339 120.0
186.079269 96.0
187.080551 84.0
187.115433 56.0
187.150314 176.0
187.167755 104.0
188.07579 60.0
188.145737 260.0
188.44313 32.0
188.53064 80.0
189.091202 100.0
189.319168 36.0
191.553452 72.0
193.100449 76.0
195.098572 124.0
195.160904 84.0
195.241058 92.0
197.13385 264.0
197.160706 40.0
198.11058 96.0
198.137497 172.0
198.236206 60.0
198.802032 24.0
198.927872 36.0
199.089737 76.0
199.107727 932.0
199.152695 100.0
199.179688 24.0
199.22467 28.0
199.656769 48.0
199.7108 40.0
200.116379 280.0
200.152451 160.0
201.118546 232.0
201.136627 136.0
203.084961 108.0
204.012573 40.0
205.097458 112.0
205.225281 44.0
205.636414 32.0
209.087708 44.0
209.10614 96.0
209.133804 24.0
209.936554 28.0
210.130554 192.0
210.158264 36.0
210.916702 68.0
210.972244 44.0
211.046326 76.0
211.092621 88.0
211.129669 1332.0
211.148193 176.0
211.416885 16.0
211.463242 28.0
211.778519 20.0
211.908401 32.0
212.103302 540.0
212.140442 380.0
213.116409 76.0
213.153625 92.0
213.321182 28.0
215.084396 280.0
215.121796 104.0
215.140503 240.0
216.039001 40.0
216.085846 44.0
216.142075 488.0
216.376419 32.0
216.573364 32.0
216.798569 32.0
216.901825 48.0
216.948761 24.0
217.108398 36.0
217.136581 3636.0
217.174149 104.0
217.249313 28.0
217.315079 16.0
217.37146 32.0
217.399658 32.0
217.418457 28.0
217.62529 32.0
217.691116 24.0
217.70993 36.0
217.8134 28.0
218.067474 40.0
218.142792 368.0
218.189865 24.0
218.312286 32.0
218.491272 24.0
218.924911 36.0
219.132446 96.0
219.189072 28.0
219.217377 24.0
219.330643 28.0
219.585602 36.0
220.105438 240.0
220.521729 48.0
221.469345 40.0
221.772995 28.0
222.124374 116.0
222.171875 112.0
222.647186 24.0
222.713776 28.0
223.056366 36.0
223.142059 368.0
223.170624 24.0
223.189667 20.0
223.332535 24.0
224.133438 96.0
224.46756 36.0
226.15155 32.0
227.11116 76.0
227.168793 348.0
227.457123 64.0
227.630188 64.0
227.947678 28.0
228.053543 28.0
228.140198 564.0
228.169083 188.0
229.142609 348.0
230.137543 192.0
232.075623 32.0
232.114471 340.0
232.133881 100.0
233.154755 52.0
233.485809 60.0
234.119354 88.0
234.148605 144.0
234.958893 44.0
236.142654 68.0
236.387604 44.0
236.809204 32.0
236.897507 28.0
236.975998 32.0
237.103577 104.0
237.142838 436.0
237.241013 32.0
237.643723 20.0
237.869797 36.0
237.918945 36.0
238.027115 88.0
238.076294 148.0
238.125473 3316.0
238.597855 52.0
238.637238 36.0
238.725876 36.0
238.824371 36.0
238.952454 28.0
238.98201 24.0
239.100281 136.0
239.119995 1484.0
239.159424 488.0
240.096832 84.0
240.126465 328.0
240.175858 180.0
240.581055 28.0
241.164749 20.0
242.145737 44.0
242.165588 64.0
242.959793 44.0
243.108856 88.0
243.138672 76.0
243.785172 24.0
243.864807 28.0
244.113724 196.0
244.522232 32.0
244.871216 40.0
244.970978 32.0
245.030853 28.0
245.13063 2384.0
245.170563 148.0
245.190521 92.0
245.320297 36.0
245.35025 40.0
245.360229 40.0
245.380203 40.0
245.699829 44.0
245.719818 28.0
246.139664 552.0
246.179672 92.0
246.209671 32.0
246.319717 36.0
246.469803 32.0
247.281067 88.0
247.561798 20.0
249.149002 108.0
249.793365 68.0
249.944504 48.0
250.136017 92.0
251.104782 132.0
251.589859 156.0
251.721313 36.0
252.136139 116.0
252.166504 76.0
252.470261 32.0
252.632339 28.0
252.895844 44.0
254.134064 180.0
254.154388 104.0
254.174713 116.0
254.66275 32.0
254.825531 20.0
254.957825 28.0
254.97818 44.0
255.049438 44.0
255.120712 512.0
255.15126 348.0
255.395676 28.0
255.507751 40.0
256.048065 32.0
256.129669 3872.0
256.190887 140.0
256.364349 44.0
256.619568 36.0
256.742126 32.0
256.813629 44.0
257.089508 108.0
257.150848 748.0
257.232635 28.0
257.324646 44.0
257.39624 36.0
257.744049 24.0
258.102356 132.0
258.133087 104.0
258.163818 116.0
258.624908 40.0
258.953033 108.0
259.907898 28.0
260.195709 152.0
260.493988 48.0
260.617462 44.0
261.121948 116.0
261.163147 216.0
261.43103 32.0
261.781586 24.0
262.01886 68.0
262.16333 232.0
262.18396 84.0
262.390442 28.0
263.113739 76.0
264.749939 28.0
264.853668 32.0
265.13385 96.0
266.120789 64.0
266.162384 72.0
266.193604 368.0
266.49527 28.0
266.672211 48.0
267.109589 368.0
267.172089 84.0
267.192932 136.0
268.152405 276.0
268.173279 272.0
268.194153 92.0
269.134491 52.0
269.176331 64.0
270.139343 100.0
270.24411 60.0
270.967651 28.0
271.356018 44.0
272.154663 108.0
272.186218 416.0
273.133514 188.0
273.154572 824.0
273.196716 188.0
273.217804 36.0
273.270477 32.0
273.77652 36.0
274.093018 116.0
274.156342 144.0
274.17746 208.0
274.462524 40.0
274.916809 60.0
275.159943 24.0
277.427399 36.0
277.59729 60.0
278.181732 116.0
278.511414 24.0
278.702942 20.0
279.107452 52.0
279.192657 244.0
279.565582 32.0
280.173401 92.0
280.194763 92.0
280.47226 16.0
281.166565 108.0
281.797546 44.0
281.81897 48.0
282.129364 96.0
282.172211 148.0
282.707855 32.0
282.890076 140.0
283.115265 72.0
283.136719 88.0
283.158173 44.0
283.179626 104.0
284.092133 40.0
284.145874 932.0
284.199585 232.0
284.532806 40.0
284.887756 40.0
285.038422 68.0
285.102997 40.0
285.146027 268.0
285.19986 744.0
285.318298 32.0
286.158752 132.0
286.180328 160.0
286.22345 172.0
286.331299 40.0
286.428375 52.0
286.946442 20.0
286.968048 28.0
287.04364 36.0
289.294403 24.0
289.3703 56.0
289.413666 44.0
289.804199 28.0
289.923553 28.0
292.196442 24.0
292.632477 40.0
292.796051 48.0
292.883331 24.0
293.177948 60.0
294.11734 56.0
294.150146 80.0
294.182922 1464.0
294.248535 20.0
294.762695 24.0
294.92688 44.0
295.134888 84.0
295.189667 464.0
295.211548 100.0
295.266327 88.0
296.14325 56.0
296.165192 156.0
296.19809 92.0
296.231018 76.0
296.428528 92.0
296.626099 36.0
297.197266 364.0
298.03302 20.0
298.121063 40.0
298.19812 224.0
299.950897 24.0
300.138611 64.0
300.171722 764.0
300.425781 36.0
300.702087 32.0
300.856842 44.0
300.967407 28.0
300.989532 32.0
301.155457 240.0
301.188629 144.0
301.575958 36.0
301.985657 40.0
302.151855 5104.0
302.218353 52.0
302.262665 76.0
302.295929 24.0
302.384583 44.0
302.584137 32.0
302.650665 52.0
302.695038 24.0
302.761566 48.0
302.828125 36.0
302.850311 48.0
302.883606 28.0
303.050018 28.0
303.138824 424.0
303.161011 960.0
303.482971 52.0
304.149597 104.0
304.460968 108.0
305.15094 124.0
305.429382 36.0
305.629944 28.0
306.153931 80.0
306.176239 80.0
306.198547 204.0
306.723022 56.0
307.192108 100.0
307.225616 92.0
307.426758 40.0
307.896362 44.0
308.142487 80.0
308.164856 96.0
308.209625 72.0
309.10556 108.0
309.150391 204.0
309.161591 204.0
310.115021 120.0
311.182343 96.0
311.204834 120.0
311.407288 28.0
311.834869 104.0
312.127625 196.0
312.150146 228.0
312.19519 936.0
312.589508 52.0
312.657135 36.0
313.187134 616.0
313.345062 52.0
313.457916 32.0
314.146729 364.0
314.248413 36.0
314.42926 32.0
315.153076 152.0
315.198334 68.0
316.127014 44.0
316.274384 20.0
318.17038 128.0
318.204498 112.0
318.682251 36.0
320.015015 36.0
320.745239 124.0
321.956512 28.0
322.116669 56.0
322.196747 36.0
322.322632 20.0
322.723297 24.0
322.952362 20.0
323.204437 800.0
323.227356 388.0
323.582703 20.0
324.213684 652.0
324.305511 40.0
324.891235 44.0
325.178528 260.0
325.201538 280.0
325.224518 120.0
326.190857 100.0
326.582428 60.0
327.193237 72.0
328.162506 128.0
328.220245 60.0
329.063843 24.0
329.167908 184.0
329.225739 212.0
329.503387 28.0
330.151672 220.0
330.186432 256.0
331.171722 272.0
331.461792 32.0
332.135254 88.0
332.193329 92.0
333.263062 52.0
333.472565 48.0
334.159698 100.0
334.194672 80.0
335.162567 424.0
335.466064 24.0
335.769684 120.0
336.178619 64.0
336.201996 28.0
336.576111 28.0
337.172821 80.0
338.180176 84.0
339.177307 36.0
339.447388 24.0
340.117157 124.0
340.152405 280.0
340.175934 276.0
340.199432 400.0
340.25824 28.0
341.164215 188.0
341.187775 152.0
341.223083 632.0
341.847473 32.0
342.095001 20.0
342.224701 372.0
342.260071 92.0
343.133331 24.0
343.215973 56.0
343.251404 56.0
343.853973 32.0
344.114075 60.0
346.174652 108.0
346.720459 48.0
346.803528 120.0
347.147888 80.0
348.181946 68.0
348.884064 76.0
349.146057 80.0
350.147278 48.0
350.20694 44.0
350.230774 60.0
350.923035 108.0
351.209686 1032.0
351.747467 36.0
351.878998 24.0
352.05838 44.0
352.189941 312.0
352.213867 224.0
353.147614 88.0
353.17157 272.0
353.483124 32.0
353.710846 48.0
354.130585 40.0
354.538544 32.0
355.15094 28.0
355.751862 44.0
356.208862 168.0
356.232941 80.0
357.20813 268.0
357.232239 96.0
357.509399 36.0
358.027832 24.0
358.184662 816.0
358.208801 276.0
358.594971 28.0
359.162506 140.0
359.186676 504.0
359.210846 256.0
359.283325 36.0
359.41626 92.0
360.165924 140.0
360.202209 96.0
360.22641 72.0
360.274811 32.0
360.323181 52.0
361.170685 44.0
361.194916 76.0
362.140503 48.0
362.17688 60.0
363.391022 24.0
363.451782 76.0
364.193451 72.0
365.203857 116.0
366.191254 136.0
367.155548 36.0
367.192169 132.0
367.216614 96.0
367.375427 24.0
368.157806 24.0
368.218964 240.0
368.916504 44.0
368.977722 32.0
369.14917 44.0
369.173676 128.0
369.198151 544.0
369.222656 792.0
369.271667 48.0
369.308411 44.0
369.406403 60.0
370.006989 32.0
370.154144 204.0
370.17868 116.0
370.215454 984.0
370.252258 292.0
370.546692 28.0
371.160461 36.0
371.197327 348.0
371.221893 228.0
371.823944 40.0
373.214203 112.0
373.238831 160.0
373.669983 52.0
374.015076 28.0
374.200012 36.0
374.22467 68.0
374.237 68.0
375.199493 340.0
375.224182 396.0
375.248871 128.0
377.053864 32.0
378.143921 152.0
378.999695 108.0
379.074158 20.0
379.12381 60.0
379.173462 248.0
379.198273 220.0
379.223114 104.0
380.154694 76.0
380.179535 144.0
380.204407 120.0
380.229279 84.0
380.316284 16.0
381.199402 112.0
381.224304 196.0
381.660034 172.0
381.784576 44.0
382.096039 32.0
382.856476 76.0
382.931335 36.0
382.96875 60.0
383.031128 32.0
383.093506 24.0
383.193329 56.0
383.255707 24.0
383.492859 36.0
384.029816 44.0
384.404663 28.0
384.504669 28.0
384.604675 40.0
384.804718 40.0
385.029816 32.0
385.05484 44.0
385.142395 92.0
385.179932 1840.0
385.22998 300.0
385.255005 60.0
385.542816 40.0
385.61792 20.0
385.83075 24.0
385.918396 32.0
386.193939 1412.0
386.256592 164.0
387.108948 36.0
387.184204 200.0
387.246948 296.0
387.623352 104.0
387.937164 44.0
388.062714 64.0
388.200867 100.0
388.489777 28.0
390.679016 116.0
391.183167 180.0
391.246216 192.0
392.192444 72.0
393.190369 76.0
393.253571 60.0
394.860596 36.0
395.177338 476.0
395.342072 32.0
395.836548 44.0
396.128296 56.0
396.166351 196.0
396.191742 276.0
396.229797 88.0
396.356689 36.0
396.889893 32.0
397.207428 196.0
397.232849 224.0
397.436157 20.0
397.690338 84.0
397.728485 124.0
398.160828 132.0
398.186279 100.0
398.2117 76.0
398.249878 144.0
399.204529 432.0
399.22998 164.0
399.255463 104.0
399.306427 124.0
399.5867 24.0
400.22406 148.0
400.287842 32.0
401.219391 316.0
401.934723 96.0
401.973083 32.0
402.228729 176.0
403.200928 764.0
403.866791 104.0
404.187103 264.0
405.200165 84.0
405.713593 36.0
406.587158 128.0
407.165771 96.0
408.182556 52.0
408.221191 36.0
410.232849 256.0
410.271576 232.0
410.788208 68.0
411.188812 192.0
412.042358 32.0
412.223541 72.0
412.24942 84.0
412.741394 44.0
413.194794 808.0
413.259583 140.0
414.167175 172.0
414.206085 348.0
414.244995 148.0
414.283936 76.0
414.426666 36.0
414.893951 128.0
414.945892 36.0
415.192657 108.0
415.231628 592.0
415.270599 92.0
415.985352 36.0
416.219391 384.0
416.752777 24.0
417.195343 48.0
417.221375 76.0
417.507874 28.0
418.198486 40.0
418.224548 52.0
418.250641 112.0
418.276703 64.0
419.189789 100.0
419.698944 76.0
420.770477 52.0
421.175903 76.0
421.35907 48.0
421.921936 28.0
422.223145 56.0
422.262421 100.0
422.38031 36.0
423.219177 64.0
423.533966 60.0
424.177032 96.0
424.216431 76.0
424.229553 76.0
424.255798 60.0
424.308319 28.0
425.10968 60.0
425.188538 152.0
425.214844 124.0
425.254272 188.0
426.174927 92.0
426.240723 136.0
426.267059 80.0
427.241516 224.0
427.267853 100.0
427.373291 44.0
427.425995 100.0
428.243469 380.0
428.269867 80.0
428.599701 32.0
428.982513 20.0
429.022125 28.0
429.20697 100.0
429.246613 56.0
429.365479 40.0
430.184814 44.0
430.211243 68.0
430.303802 96.0
430.978455 32.0
431.124023 104.0
431.163727 20.0
431.20343 1772.0
431.256378 116.0
431.481445 20.0
432.143768 32.0
432.183533 96.0
432.210022 544.0
432.249786 96.0
432.713776 24.0
433.204529 232.0
433.708832 116.0
434.771515 44.0
435.236847 68.0
435.263428 64.0
436.02182 40.0
436.154938 32.0
436.301392 80.0
436.341339 112.0
436.914093 36.0
437.167267 80.0
437.207275 52.0
437.247253 160.0
438.180817 72.0
438.247528 212.0
438.287567 72.0
438.728058 28.0
439.262299 76.0
440.197998 108.0
440.224762 96.0
440.786652 44.0
441.027588 28.0
441.174866 76.0
441.215027 108.0
442.219818 136.0
443.212341 408.0
443.239197 256.0
443.266022 424.0
443.574768 28.0
444.071625 28.0
444.192535 140.0
444.219421 100.0
444.259705 292.0
444.300018 124.0
444.998993 24.0
445.187286 60.0
445.267975 84.0
446.210052 84.0
447.234009 96.0
447.935272 40.0
448.178131 84.0
448.245605 232.0
448.286102 92.0
448.542572 28.0
449.096252 64.0
449.231354 28.0
449.271881 124.0
451.219635 20.0
451.653046 96.0
452.222198 144.0
452.276428 44.0
453.10376 164.0
453.212311 76.0
453.239441 408.0
453.253021 408.0
453.280151 152.0
453.524475 60.0
454.013336 48.0
454.257843 660.0
454.285004 356.0
454.448059 28.0
454.801453 32.0
454.842224 32.0
455.059784 72.0
455.168579 32.0
455.236572 500.0
455.277374 372.0
456.22998 836.0
456.284424 232.0
457.088165 24.0
457.115417 28.0
457.224457 208.0
457.360779 24.0
457.388031 56.0
457.919861 28.0
458.11087 68.0
458.220001 92.0
458.984467 36.0
459.243988 100.0
460.24173 144.0
460.269104 64.0
460.296448 104.0
460.665771 52.0
461.254272 156.0
462.226807 88.0
462.939728 56.0
463.241516 88.0
463.378723 52.0
464.216125 56.0
464.257355 88.0
465.191772 48.0
465.246765 132.0
465.274292 140.0
465.893219 60.0
466.085876 36.0
466.223511 76.0
466.251038 240.0
466.319855 68.0
467.187469 52.0
467.256378 184.0
467.283936 108.0
468.055908 28.0
468.276581 164.0
469.795166 32.0
469.891907 32.0
470.27887 1132.0
470.334167 92.0
470.513916 48.0
470.762848 28.0
471.21936 380.0
471.274719 1032.0
471.316223 124.0
471.399261 88.0
471.717651 28.0
472.216187 200.0
472.257751 972.0
472.313171 40.0
473.200195 48.0
473.241791 352.0
473.269531 252.0
473.311127 80.0
473.463715 24.0
474.213013 60.0
474.657318 48.0
475.226868 36.0
476.255768 68.0
476.673187 140.0
477.27182 28.0
477.71756 132.0
478.958344 32.0
479.879547 24.0
480.061096 24.0
480.214752 52.0
480.256653 268.0
480.326508 44.0
480.354431 32.0
480.494171 60.0
480.578003 44.0
480.661835 44.0
480.787628 28.0
481.039246 92.0
481.248993 112.0
481.780548 48.0
481.850494 40.0
481.892487 32.0
481.934448 40.0
481.97644 36.0
482.088409 20.0
482.242371 5320.0
482.676422 28.0
482.732452 36.0
482.760437 24.0
482.900513 48.0
482.984558 40.0
483.068634 24.0
483.236755 1940.0
483.320862 28.0
483.489044 36.0
483.615204 84.0
483.755371 56.0
483.8255 24.0
484.063873 32.0
484.190125 32.0
484.232208 360.0
484.274261 156.0
484.302338 100.0
485.270752 188.0
485.298859 96.0
485.383118 40.0
485.481415 32.0
486.085571 28.0
486.226105 32.0
486.521332 28.0
486.549469 36.0
486.619751 20.0
486.929169 20.0
487.224609 72.0
487.309021 64.0
487.632751 32.0
488.23822 1352.0
488.294556 696.0
488.350891 84.0
488.759491 40.0
488.801788 20.0
488.928619 32.0
489.154175 20.0
489.23877 304.0
489.295166 328.0
489.788818 56.0
490.113342 44.0
490.282684 180.0
490.423859 48.0
490.62149 32.0
490.663849 36.0
491.25708 84.0
491.822388 28.0
491.963776 20.0
492.204163 48.0
492.246582 312.0
493.279572 180.0
493.322021 20.0
494.228577 52.0
494.327789 40.0
495.221069 44.0
495.263641 72.0
495.320374 44.0
495.391296 40.0
495.944794 44.0
496.029968 40.0
496.299744 88.0
496.384979 36.0
497.194824 32.0
497.408051 32.0
497.848877 36.0
497.948425 24.0
498.005341 64.0
498.104919 44.0
498.133362 40.0
498.275665 2572.0
498.346802 220.0
498.417969 56.0
498.731079 56.0
498.873474 32.0
499.158264 24.0
499.21521 92.0
499.257965 896.0
499.343414 28.0
499.428894 72.0
499.65683 40.0
499.870605 32.0
499.899109 32.0
499.941864 52.0
499.984619 56.0
500.013123 48.0
500.07016 24.0
500.198456 76.0
500.255463 2784.0
500.326782 168.0
500.355286 28.0
500.526398 36.0
500.611969 36.0
500.84021 56.0
500.868744 64.0
501.082764 28.0
501.253998 1212.0
501.325348 100.0
501.396729 36.0
501.453827 52.0
501.553741 32.0
501.61084 44.0
501.725067 32.0
501.853577 44.0
502.124939 24.0
502.25351 364.0
502.710754 36.0
503.211121 24.0
503.268311 16.0
503.511444 36.0
504.498901 40.0
505.258026 36.0
506.003387 24.0
507.151184 40.0
507.409607 52.0
507.553192 44.0
508.027222 52.0
508.156555 36.0
508.257141 336.0
508.975952 64.0
509.249237 152.0
509.277985 228.0
509.306763 168.0
509.349915 96.0
509.810394 48.0
510.227875 64.0
510.285461 480.0
510.328674 180.0
510.890442 40.0
511.279541 448.0
511.30835 476.0
511.337189 24.0
512.043762 36.0
512.260132 84.0
512.303406 184.0
512.433289 36.0
514.195251 40.0
515.294373 132.0
515.699646 52.0
516.293335 620.0
516.380249 24.0
516.452637 32.0
517.220703 36.0
517.278687 900.0
517.307739 372.0
517.481689 128.0
517.800781 36.0
517.902344 28.0
518.207031 36.0
518.279541 124.0
518.773071 36.0
519.136108 44.0
519.252319 112.0
519.295898 64.0
520.226013 240.0
521.069641 48.0
521.200562 72.0
521.491699 36.0
521.564453 40.0
521.797424 44.0
522.263489 84.0
523.298279 64.0
524.202759 64.0
524.261169 48.0
524.304932 72.0
524.611511 60.0
525.078857 36.0
525.181091 36.0
525.297974 172.0
525.371033 44.0
525.663269 24.0
526.262634 536.0
527.008728 64.0
527.125793 32.0
527.286804 792.0
527.31604 884.0
527.403931 40.0
527.462463 24.0
527.799255 68.0
527.887085 36.0
527.945679 28.0
528.223999 64.0
528.253296 76.0
528.297302 412.0
528.341248 96.0
528.458435 36.0
528.546387 28.0
529.294067 84.0
529.895508 28.0
531.628418 32.0
531.848938 44.0
533.349426 64.0
534.247864 104.0
534.306763 92.0
536.696472 148.0
537.006653 24.0
537.050964 64.0
537.257812 568.0
537.287354 632.0
537.346436 88.0
538.233398 280.0
538.263 280.0
538.292542 520.0
538.336914 48.0
538.544006 28.0
539.2099 120.0
539.254333 252.0
539.328308 76.0
539.387512 36.0
539.965088 24.0
540.246521 132.0
540.291016 76.0
540.320618 104.0
540.587402 48.0
540.98761 24.0
541.313843 956.0
541.388 172.0
541.417664 76.0
542.129883 44.0
542.218933 44.0
542.322815 316.0
542.352539 44.0
543.258484 64.0
543.30304 268.0
543.362488 60.0
543.407043 40.0
544.254395 296.0
544.284119 152.0
544.343628 52.0
544.551819 44.0
544.894043 24.0
544.998169 48.0
545.266113 100.0
545.31073 92.0
545.668091 32.0
548.262085 44.0
548.814514 92.0
548.993713 44.0
549.964966 40.0
550.114502 108.0
550.293884 172.0
550.338745 88.0
550.772522 40.0
551.28125 40.0
551.311218 148.0
551.35614 52.0
551.416016 76.0
552.239563 80.0
552.329468 76.0
552.554199 40.0
552.778992 140.0
553.288696 76.0
553.588623 24.0
554.098633 88.0
554.248718 40.0
554.93927 32.0
555.179565 56.0
555.299744 2368.0
555.795532 36.0
555.870667 44.0
555.960876 44.0
555.990906 40.0
556.231445 128.0
556.291565 820.0
556.607361 24.0
557.16394 36.0
557.269287 192.0
557.344482 40.0
558.292969 64.0
558.338196 284.0
559.317688 84.0
559.58905 128.0
560.298035 68.0
561.279236 116.0
563.728394 32.0
564.93988 24.0
565.09137 116.0
566.592529 28.0
567.260376 100.0
567.336304 1708.0
567.518494 24.0
568.171692 36.0
568.247681 60.0
568.278076 20.0
568.338867 744.0
568.399597 100.0
568.810059 40.0
569.251038 32.0
569.296631 548.0
569.327026 428.0
569.600891 48.0
569.646484 24.0
569.783447 28.0
569.859558 32.0
569.981262 76.0
570.300903 516.0
570.514038 40.0
570.559753 60.0
570.666321 48.0
571.260376 68.0
571.321289 72.0
571.351746 48.0
572.251099 92.0
572.281616 76.0
572.388367 72.0
573.151123 36.0
573.19696 44.0
573.288513 64.0
573.319031 72.0
573.380066 156.0
573.410645 36.0
573.47168 152.0
574.357422 80.0
574.708801 44.0
574.73938 24.0
574.876953 36.0
576.574707 144.0
576.712463 28.0
577.309631 88.0
577.340271 68.0
577.692627 36.0
578.305603 60.0
579.655396 52.0
579.701416 20.0
580.315552 24.0
581.744507 76.0
581.867493 52.0
581.975159 52.0
582.021301 60.0
582.082825 32.0
583.298401 120.0
583.406189 20.0
584.284119 88.0
584.592346 28.0
584.85437 28.0
584.931458 36.0
584.96228 40.0
585.008545 64.0
585.05481 28.0
585.224426 100.0
585.255249 104.0
585.347778 5212.0
585.409485 356.0
585.471191 76.0
585.702576 44.0
585.795166 32.0
585.841431 28.0
585.887695 48.0
586.180908 64.0
586.273499 188.0
586.350708 2288.0
586.427856 20.0
586.474182 44.0
586.690308 52.0
586.95282 36.0
587.26178 100.0
587.292664 128.0
587.369873 536.0
587.678894 24.0
588.343567 60.0
588.730225 24.0
589.565735 64.0
589.797913 32.0
590.277893 60.0
591.502014 20.0
592.091309 24.0
592.463623 36.0
592.649841 24.0
592.665344 24.0
592.773987 32.0
592.929199 44.0
592.991272 64.0
593.053406 32.0
593.084412 36.0
593.270752 40.0
593.488159 36.0
594.156067 132.0
594.358093 76.0
594.513489 36.0
594.591248 100.0
594.824402 36.0
595.104309 76.0
595.197571 32.0
595.228699 32.0
595.322021 6400.0
595.415344 76.0
595.67981 76.0
595.72644 24.0
595.835388 60.0
595.866516 36.0
595.959839 44.0
596.037659 24.0
596.177734 64.0
596.224426 88.0
596.255554 84.0
596.333374 2736.0
596.489075 36.0
596.971802 32.0
597.283325 164.0
597.314514 312.0
597.345642 368.0
597.407959 64.0
598.358765 88.0
598.483521 140.0
599.279114 116.0
599.341553 104.0
599.49762 48.0
599.872253 44.0
600.325073 56.0
600.356323 36.0
601.309448 484.0
601.637756 172.0
601.934875 24.0
602.341553 116.0
603.045776 68.0
603.264954 40.0
603.327576 76.0
603.358887 24.0
603.515503 28.0
603.578125 32.0
603.985413 68.0
604.25177 152.0
604.330078 60.0
605.317749 108.0
606.117859 36.0
607.326843 220.0
607.405396 48.0
607.452576 48.0
608.332703 56.0
608.364136 92.0
608.395569 104.0
608.474182 28.0
609.811462 64.0
610.016113 72.0
610.268066 32.0
610.378296 32.0
610.850891 88.0
610.898132 44.0
611.370911 80.0
611.481201 36.0
611.591553 20.0
611.717712 24.0
611.843811 56.0
612.064575 36.0
612.09613 48.0
612.206543 84.0
612.316956 104.0
612.364258 180.0
612.411621 24.0
612.600891 40.0
612.695557 36.0
612.727112 20.0
612.758667 36.0
612.884949 32.0
612.963867 32.0
612.995422 32.0
613.026978 32.0
613.105896 32.0
613.153259 28.0
613.169006 28.0
613.200623 48.0
613.247925 52.0
613.263733 52.0
613.342651 6412.0
613.390015 536.0
613.421631 280.0
613.468994 112.0
613.532104 80.0
613.563721 36.0
613.737427 20.0
613.832153 56.0
613.895325 48.0
613.926941 36.0
614.069092 36.0
614.132263 24.0
614.163879 48.0
614.195435 24.0
614.258667 32.0
614.337646 3136.0
614.495667 68.0
614.859131 96.0
614.906555 28.0
614.938171 28.0
615.017212 40.0
615.112061 36.0
615.191162 32.0
615.238586 56.0
615.286011 96.0
615.333435 856.0
615.380859 156.0
615.444153 32.0
615.523193 36.0
615.760437 28.0
615.934448 60.0
616.124329 36.0
616.266724 32.0
616.330017 452.0
616.456665 20.0
616.773254 48.0
617.374939 48.0
618.072083 44.0
618.246399 24.0
618.848816 36.0
619.673706 24.0
621.039124 52.0
621.293335 24.0
621.754211 20.0
622.342468 96.0
622.724182 24.0
622.89917 40.0
622.962769 32.0
623.296936 144.0
623.344666 152.0
623.694885 128.0
623.965515 36.0
624.204407 32.0
624.268127 116.0
624.347778 264.0
624.411438 72.0
624.857544 24.0
625.271912 92.0
625.303772 120.0
625.335693 64.0
625.415405 52.0
625.574829 24.0
625.813965 52.0
625.97345 56.0
626.308411 84.0
626.340332 28.0
627.377747 44.0
628.320129 48.0
628.655701 40.0
629.039368 40.0
629.359131 200.0
629.391113 84.0
629.695007 28.0
630.014954 24.0
630.319031 76.0
630.351013 420.0
630.383057 256.0
630.495056 32.0
630.543091 68.0
631.343689 160.0
632.321106 28.0
632.545532 68.0
634.053467 32.0
634.278198 92.0
634.326355 104.0
634.358459 140.0
634.631409 76.0
634.711731 32.0
635.290039 148.0
635.322144 28.0
636.318726 72.0
638.362488 28.0
638.910217 32.0
639.31311 120.0
639.587097 80.0
640.345032 368.0
640.409546 92.0
641.103394 52.0
641.329407 384.0
641.68457 20.0
642.023743 28.0
642.185242 20.0
642.282227 192.0
642.314514 288.0
642.362976 504.0
642.411438 104.0
642.443787 68.0
642.912415 20.0
643.300354 48.0
643.365051 304.0
644.384094 64.0
645.355347 80.0
646.068054 28.0
647.316284 148.0
647.819153 60.0
648.33844 140.0
648.581909 36.0
649.426392 24.0
651.295837 464.0
651.360901 72.0
652.353699 864.0
652.402527 124.0
652.467651 88.0
652.532837 36.0
653.151733 40.0
653.29834 60.0
653.363525 180.0
653.770935 44.0
654.308899 100.0
654.341553 204.0
654.765564 36.0
655.042908 32.0
655.336609 36.0
656.348694 132.0
656.381409 76.0
656.512024 40.0
657.279907 68.0
657.345276 696.0
657.394348 124.0
657.427002 92.0
657.73761 28.0
658.179077 48.0
658.211792 52.0
658.326294 432.0
658.358948 668.0
658.424377 32.0
658.489807 76.0
658.898865 32.0
659.324341 132.0
659.357056 316.0
659.635376 24.0
660.224915 36.0
660.388672 76.0
660.699951 44.0
661.044128 68.0
663.242126 152.0
664.424622 60.0
664.753296 40.0
665.953613 44.0
666.282654 64.0
666.908081 52.0
667.336121 76.0
667.418457 40.0
667.599609 92.0
668.14325 80.0
668.324524 624.0
668.917908 36.0
669.31366 696.0
669.379639 40.0
669.445618 64.0
669.825012 48.0
670.204529 36.0
670.303528 148.0
670.353027 660.0
670.435547 76.0
671.079407 76.0
671.211548 36.0
671.327148 288.0
671.360168 256.0
671.393188 148.0
671.756653 32.0
672.301941 28.0
672.368103 44.0
672.73175 32.0
672.913635 28.0
673.608337 40.0
673.657959 32.0
674.336487 112.0
674.369629 504.0
674.452393 56.0
674.700745 40.0
675.164429 36.0
675.346619 112.0
675.379761 136.0
675.661438 36.0
676.374084 88.0
676.423828 108.0
677.385742 68.0
677.83374 76.0
678.497803 32.0
679.427917 156.0
680.192505 108.0
681.706177 156.0
682.15564 188.0
682.338806 44.0
682.372131 68.0
682.405396 92.0
682.63855 36.0
682.955017 32.0
683.354919 68.0
683.438232 88.0
683.48822 24.0
684.288391 96.0
684.33844 348.0
684.371765 404.0
684.405151 108.0
685.339355 120.0
685.389404 152.0
685.422791 76.0
686.32428 720.0
686.825378 24.0
687.176208 44.0
687.276489 56.0
687.343323 380.0
687.577332 68.0
687.928406 40.0
688.296265 40.0
688.329712 20.0
693.35614 44.0
693.389709 64.0
694.380371 52.0
694.414001 116.0
695.35498 112.0
696.801331 132.0
698.148132 68.0
698.333435 68.0
698.367126 140.0
699.159058 48.0
699.2771 20.0
699.344482 40.0
702.297668 84.0
702.348389 608.0
702.4328 104.0
703.379272 332.0
704.089478 36.0
704.343201 116.0
704.377075 92.0
704.410889 72.0
705.392517 72.0
705.680359 32.0
706.391724 52.0
707.289978 28.0
707.357788 20.0
708.358398 108.0
708.409302 108.0
710.361816 176.0
710.395752 104.0
710.718628 64.0
710.99054 64.0
711.211548 72.0
711.415527 124.0
711.449524 108.0
711.772644 40.0
712.316956 60.0
712.350952 148.0
712.402039 132.0
712.827454 44.0
713.338135 80.0
713.406189 124.0
714.377014 164.0
714.411133 160.0
714.496277 124.0
715.17804 136.0
718.078979 128.0
719.360718 72.0
720.335571 72.0
720.386902 28.0
722.835571 96.0
723.058411 20.0
724.61908 20.0
726.370361 76.0
726.404724 96.0
726.439087 152.0
726.989014 40.0
727.040588 32.0
727.126526 32.0
727.384399 412.0
727.435974 260.0
728.399048 224.0
729.362793 76.0
729.414429 60.0
730.378845 28.0
732.378601 108.0
735.417969 48.0
736.386353 344.0
736.870789 40.0
737.026489 36.0
737.268799 20.0
737.407288 416.0
737.511169 32.0
737.909363 24.0
738.394287 208.0
738.775452 52.0
739.277954 36.0
739.399292 116.0
739.884705 28.0
740.404968 40.0
741.619629 128.0
741.706482 128.0
742.036316 64.0
742.366333 20.0
742.401062 124.0
742.435791 36.0
743.374023 52.0
743.582581 32.0
745.130432 36.0
745.182617 68.0
746.470886 112.0
751.075867 20.0
751.145752 52.0
751.704895 64.0
751.739868 28.0
752.439087 48.0
752.544006 116.0
752.841309 40.0
753.138672 24.0
753.401123 1056.0
753.47113 44.0
753.506104 92.0
753.611084 32.0
753.751099 28.0
754.101196 44.0
754.223694 56.0
754.328735 44.0
754.381287 984.0
754.486328 64.0
754.766479 20.0
754.801514 52.0
754.889099 24.0
754.976685 36.0
755.256958 40.0
755.327026 140.0
755.432129 3188.0
755.519714 80.0
755.55481 56.0
755.624878 140.0
755.677429 28.0
755.694946 28.0
755.99292 44.0
756.062988 68.0
756.431152 1600.0
756.536316 68.0
756.571411 56.0
756.729187 28.0
756.869507 24.0
757.115051 40.0
757.395691 248.0
757.465881 424.0
757.536072 72.0
757.834351 56.0
758.448669 244.0
759.41449 28.0
760.11731 68.0
762.03418 36.0
762.544556 24.0
762.896667 20.0
763.231262 52.0
763.407349 216.0
764.27063 24.0
764.341125 52.0
764.393982 180.0
764.42926 76.0
764.781799 32.0
765.363647 112.0
766.580933 32.0
767.375366 36.0
767.481323 36.0
767.675598 40.0
767.710938 40.0
767.781555 32.0
767.834534 40.0
767.958191 28.0
768.311523 28.0
768.399902 44.0
768.824036 40.0
769.036133 32.0
769.248291 64.0
769.389771 32.0
769.778809 32.0
770.221008 32.0
770.291748 72.0
770.397949 48.0
770.504089 28.0
770.53949 36.0
770.66333 40.0
770.68103 40.0
770.875732 32.0
770.928833 96.0
770.964233 36.0
771.070435 92.0
771.123535 60.0
771.353638 192.0
771.424438 9280.0
771.548401 236.0
771.601501 56.0
771.636963 32.0
771.672363 56.0
771.725464 80.0
771.867126 32.0
771.920288 76.0
771.973389 40.0
772.04425 52.0
772.132812 64.0
772.221375 32.0
772.256836 28.0
772.309937 36.0
772.41626 5548.0
772.522583 76.0
772.557983 68.0
772.611145 68.0
772.646606 32.0
772.75293 60.0
772.806091 32.0
772.876953 52.0
772.930115 24.0
773.036438 32.0
773.142822 60.0
773.213684 28.0
773.426392 1448.0
773.515076 44.0
773.568237 52.0
773.63916 44.0
773.692383 44.0
773.781006 88.0
774.046997 32.0
774.313049 100.0
774.419495 148.0
774.454956 88.0
774.508179 64.0
774.934021 44.0
774.969543 40.0
775.200195 48.0
775.430969 48.0
775.892578 28.0
776.620728 76.0
776.922729 32.0
777.313721 64.0
777.740295 40.0
777.811401 36.0
777.882507 36.0
778.166992 20.0
778.202576 28.0
778.309265 36.0
778.415955 32.0
778.451538 32.0
778.6828 44.0
779.109741 24.0
779.412231 28.0
779.447876 24.0
779.59021 40.0
779.96405 52.0
780.159912 32.0
780.516052 28.0
780.58728 24.0
780.711914 44.0
780.765381 40.0
780.818787 24.0
780.854431 24.0
780.943481 64.0
781.014771 160.0
781.085999 32.0
781.406738 5204.0
781.49585 212.0
781.674011 36.0
781.763123 76.0
781.816589 56.0
781.887939 28.0
782.083984 52.0
782.137451 40.0
782.315735 72.0
782.404907 2744.0
782.529724 36.0
782.601074 36.0
782.654541 60.0
782.832886 52.0
782.868591 20.0
782.904236 36.0
782.975586 68.0
783.011292 32.0
783.082642 56.0
783.153992 52.0
783.189636 64.0
783.403748 968.0
783.528625 48.0
783.814148 20.0
783.903381 28.0
784.206848 28.0
784.403198 184.0
785.22467 36.0
785.385437 100.0
785.421143 88.0
785.867859 44.0
785.975098 36.0
786.171692 152.0
786.296814 52.0
786.690063 68.0
787.101379 148.0
787.655884 20.0
788.65802 64.0
789.284729 28.0
789.499634 32.0
789.804138 28.0
790.054993 32.0
791.130371 108.0
793.067993 44.0
793.355225 52.0
793.606628 32.0
794.450867 64.0
794.576599 44.0
794.666504 36.0
794.846191 28.0
794.882141 24.0
794.918091 44.0
794.971985 36.0
795.061829 40.0
795.097778 68.0
795.187683 36.0
795.241638 52.0
795.259583 52.0
795.403381 28.0
795.439331 28.0
795.475342 56.0
795.691101 108.0
795.763 52.0
795.816956 64.0
795.996765 44.0
796.032776 20.0
796.068726 40.0
796.104675 44.0
796.212646 40.0
796.302551 48.0
796.464478 40.0
796.572388 44.0
796.626404 36.0
796.662354 28.0
796.734314 44.0
796.806274 28.0
796.914246 44.0
796.950256 36.0
796.986267 52.0
797.094238 28.0
797.220215 32.0
797.256226 28.0
797.310242 56.0
797.418213 48.0
797.54425 36.0
797.634216 76.0
797.760254 32.0
797.940308 36.0
798.04834 108.0
798.138428 36.0
798.24646 28.0
798.390564 212.0
798.426575 68.0
798.462585 32.0
798.498596 44.0
798.534668 96.0
798.624695 24.0
798.660767 108.0
798.76886 104.0
798.822876 36.0
798.858948 36.0
798.967041 132.0
799.021057 28.0
799.147217 160.0
799.183289 36.0
799.219299 44.0
799.309387 88.0
799.417542 28404.0
799.543701 128.0
799.579773 152.0
799.615845 32.0
799.651855 40.0
799.723999 108.0
799.814087 88.0
799.868164 76.0
799.904236 108.0
799.940308 28.0
799.994385 112.0
800.030457 92.0
800.084534 48.0
800.120605 76.0
800.192749 32.0
800.264893 40.0
800.300964 28.0
800.427185 15132.0
800.5354 204.0
800.607544 148.0
800.679688 64.0
800.733765 32.0
800.805969 56.0
800.860046 44.0
800.950256 72.0
800.986328 80.0
801.076538 68.0
801.148743 88.0
801.220886 48.0
801.275024 76.0
801.419373 4276.0
801.545715 76.0
801.581787 128.0
801.635925 52.0
801.690125 48.0
801.744263 20.0
801.996948 36.0
802.069153 84.0
802.195557 20.0
802.231628 20.0
802.285828 28.0
802.394165 312.0
802.430298 872.0
802.538635 68.0
802.574768 52.0
802.75531 40.0
802.917908 40.0
803.00824 76.0
803.062378 40.0
803.15271 28.0
803.387573 52.0
803.441772 80.0
803.550232 24.0
803.640564 72.0
803.694763 36.0
804.399719 32.0
804.833679 24.0
805.267761 36.0
805.322021 36.0
806.009583 44.0
806.100098 32.0
806.371582 36.0
807.023376 80.0
807.132019 24.0
807.204468 56.0
807.295044 52.0
807.947205 24.0
809.234131 32.0
810.268127 32.0
811.88385 36.0
812.719543 80.0
812.792236 44.0
813.046692 24.0
813.137573 32.0
813.17395 40.0
814.483276 128.0
814.992737 36.0
815.757202 40.0
816.321716 32.0
816.594971 24.0
817.998169 28.0
820.954346 28.0
821.867859 36.0
822.361328 52.0
822.507568 48.0
827.194336 20.0
END IONS
