BEGIN IONS
PEPMASS=827.27
CHARGE=1
MSLEVEL=2
SOURCE_INSTRUMENT=LC-ESI-Orbitrap
FILENAME=f.daniel/Albis/XA_Frac_4.mzXML;
SEQ=*..*
IONMODE=Positive
ORGANISM=GNPS-LIBRARY
NAME=F-Dehydroxy-Albicidin M+H
PI=Roderich Suessmuth
DATACOLLECTOR=Daniel Petras
SMILES=OC1=CC=C(/C=C(C)/C(NC2=CC=C(C(NC(CC#N)C(NC3=CC=C(C(NC4=CC=C(C(NC5=CC=C(C(O)=O)C=C5OC)=O)C(O)=C4OC)=O)C=C3)=O)=O)C=C2)=O)C=C1
INCHI=
INCHIAUX=
PUBMED=28876492
SUBMITUSER=daniel
TAGS=
LIBRARYQUALITY=3
SPECTRUMID=CCMSLIB00004681477
SCANS=744
258.0 0.754021
258.5 5.9e-05
276.083344 0.504645
276.666656 3.9e-05
280.0 5.296153
280.25 8.897489
280.833344 0.000405
284.583344 1.696815
285.083344 13.732342
285.916656 8.4e-05
293.166656 0.928764
293.666656 8.3e-05
299.083344 0.528597
299.583344 3.9e-05
303.166656 1.390866
303.75 7.9e-05
315.166656 261.394196
316.0 0.001373
316.916656 2.52362
317.833344 3.8e-05
326.083344 1.199482
326.666656 9.2e-05
332.75 4.960529
333.083344 29.689659
333.916656 0.000751
335.0 2.80871
335.666656 9.2e-05
359.5 3.04845
360.083344 0.000158
375.916656 2.814914
376.25 0.901685
376.833344 7.4e-05
394.416687 0.383678
395.0 3.2e-05
400.333344 0.487571
400.916687 4.6e-05
421.916687 2.161469
422.5 0.000115
426.333344 1.269305
426.833344 8.5e-05
434.25 15.355858
434.833344 0.000439
436.333344 0.57427
436.833344 5.6e-05
444.5 2.918831
444.916687 2.490554
445.166687 5.187318
445.833344 0.000223
451.0 2.653846
452.25 245.224457
453.166687 0.000926
461.916687 1.114402
462.083344 1.550203
462.666687 0.000101
466.333344 0.927603
466.916687 5.6e-05
474.833344 2.555392
475.083344 6.5689
475.333344 7.83557
476.0 0.000388
481.75 0.673417
482.083344 5.690868
482.333344 4.396399
482.583344 2.429339
483.166687 0.000145
484.166687 0.9196
484.666687 6.6e-05
495.25 61.20406
496.083344 0.0006
499.25 0.568429
500.25 15.372471
500.666687 3.524118
501.0 0.841439
501.5 4.5e-05
512.166687 1.451828
512.666687 8.2e-05
513.083313 1.281399
513.666687 9.3e-05
523.5 3.17913
524.083313 0.000195
525.25 2.019334
525.833313 0.000144
530.416687 6.959714
531.0 1.545673
531.5 7.8e-05
542.333313 0.300115
542.916687 1.5e-05
583.416687 2.170285
584.0 0.000191
593.833374 1.607092
594.25 0.554305
594.75 4.6e-05
606.25 1.520844
606.833374 8.3e-05
610.583374 1.304511
610.833374 2.353441
611.083374 3.011208
611.333374 3.67646
611.5 5.342981
611.916687 13.682549
612.166687 8.610757
612.833374 0.000225
625.333374 2.38483
625.833374 0.000217
642.333374 0.382298
642.916687 3.5e-05
644.0 3.305549
644.25 7.708295
644.583374 1.378976
645.083374 0.000124
648.416687 6.564098
649.25 181.078018
650.083374 0.001121
651.333374 0.829065
651.833374 5.4e-05
658.25 0.383241
658.833374 3.4e-05
660.25 842.752991
661.416687 0.000507
661.75 0.872466
662.166687 4.298874
662.75 0.000241
667.166687 65.990349
668.0 0.001652
678.333374 2.015642
678.833374 0.000166
689.416687 1.326747
689.833374 3.143672
690.166687 0.654557
690.416687 1.033818
691.0 6.6e-05
722.833374 1.443601
723.416687 8.8e-05
727.75 2.299124
728.333374 0.000112
729.25 1.196758
729.75 7.7e-05
731.166687 1.149019
731.75 7.9e-05
735.833374 4.714076
736.333374 0.000309
738.333374 0.74368
738.833374 5.6e-05
747.333374 2.432302
747.916687 0.000136
755.416687 1.893675
755.916687 0.000115
765.583374 0.967814
766.083374 7.4e-05
769.25 0.461489
769.75 4.1e-05
775.0 1.409669
775.583374 7e-05
782.333374 1.898594
782.916687 9.6e-05
784.25 2.552036
784.75 0.000177
787.333374 0.48224
787.916687 2.9e-05
791.0 0.546031
791.666687 0.696025
792.25 4.9e-05
795.083374 0.496504
795.666687 2.9e-05
797.25 0.530652
797.75 5.6e-05
808.166687 0.481096
809.25 170.68158
810.5 2.200512
811.166687 9.2e-05
812.166687 1.35242
812.75 1.161448
813.083374 1.308898
813.583374 0.000101
827.0 1.57709
827.583374 0.000104
828.0 0.677637
828.583374 3.7e-05
END IONS
