BEGIN IONS
PEPMASS=652.4
CHARGE=1
MSLEVEL=2
SOURCE_INSTRUMENT=LC-ESI-qTof
FILENAME=f.daniel/Carlos_Bsub-Pseudomonas_1/Carlos-BSub_1_MZmine231_gapfilled_manual_check_GNPS.mgf;
SEQ=*..*
IONMODE=Positive
ORGANISM=GNPS-LIBRARY
NAME=val-leu-pro-val-pro M+H
PI=Pieter Dorrestein
DATACOLLECTOR=Daniel Petras
SMILES=N1(C(=O)[C@@H](NC(=O)[C@H]2N(C(=O)[C@@H](NC(=O)[C@@H](N)C(C)C)CC(C)C)CCC2)C(C)C)C(C(=O)N[C@H](C(=O)O)CCC(=O)N)CCC1
INCHI=
INCHIAUX=
PUBMED=
SUBMITUSER=daniel
TAGS=
LIBRARYQUALITY=3
SPECTRUMID=CCMSLIB00004679264
SCANS=6
77.391312 94108.429688
81.29702 80992.304688
84.044487 713355.625
84.601944 87104.007812
86.096436 3749742.75
86.101303 181224.921875
92.565826 95302.695312
98.059807 133912.796875
100.075623 386011.65625
101.070908 541179.625
115.086678 924404.0625
116.070107 154658.84375
129.065521 178131.453125
130.04985 4640904.5
133.496078 94863.375
146.910934 89991.492188
147.076355 24179686.0
169.133499 23987352.0
183.149048 739686.625
185.140137 131381.375
185.164749 9512269.0
197.128281 11416550.0
198.123444 424275.28125
199.107788 155442.546875
208.10849 112920.945312
211.143936 1059817.0
213.159714 11711477.0
217.118469 374294.40625
226.118484 557880.875
227.102707 5857591.0
239.138794 231382.40625
239.21167 455682.1875
244.129105 102733976.0
267.206268 505761.71875
282.215698 125510.148438
294.18042 229499.28125
296.196289 1269279.25
310.212158 9408346.0
314.169464 734697.6875
325.053925 156631.640625
343.197266 643842.9375
381.285736 3079820.5
409.226501 105360.125
409.280853 4726226.0
440.250244 11387742.0
480.730316 128549.390625
506.33252 207407.890625
553.331482 357029.125
652.401306 1046964.25
END IONS
