BEGIN IONS
PEPMASS=559.79
CHARGE=2
MSLEVEL=2
SOURCE_INSTRUMENT=LC-ESI-Orbitrap
FILENAME=f.Rolandoo1/20190519 Moroidin paper GNPS/[Asn0-Gln1]-moroidin.mzXML;
SEQ=*..*
IONMODE=Positive
ORGANISM=GNPS-LIBRARY
NAME=[Asn0-Gln1]-moroidin M+2H
PI=Jing-Ke Weng
DATACOLLECTOR=Roland Kersten
SMILES=CC(C)C1C(C(NC(CC(C)C)C(NC(C(C)C)C(NC(C(NC(C(NCC(NC(CC2=CN3C=N2)C(O)=O)=O)=O)CCCNC(N)=N)=O)CC4=C3NC5=C4C=CC1=C5)=O)=O)=O)NC(C(NC(C(N)CC(N)=O)=O)CCC(N)=O)=O
INCHI=
INCHIAUX=
PUBMED=
SUBMITUSER=Rolandoo1
TAGS=
LIBRARYQUALITY=3
SPECTRUMID=CCMSLIB00005435912
SCANS=1
80.103546 358.692841
80.104225 592.828674
80.104904 666.770996
80.105583 507.04718
80.106262 224.222198
80.106949 0.60996
80.234909 219.857117
80.235588 438.387634
80.236275 574.23291
80.236954 534.18396
80.237633 339.369659
83.056969 0.835342
83.057686 152.464752
83.058403 853.836182
83.05912 1772.099121
83.059837 2345.254639
83.060555 2146.990723
83.061272 1359.385254
83.061989 563.997559
83.062706 123.172623
84.040298 427.26712
84.041031 1258.655762
84.041763 4522.81543
84.042488 12452.955078
84.043221 22262.037109
84.043953 28850.185547
84.044685 24070.974609
84.04541 14492.910156
84.046143 5297.680176
84.046875 936.207397
84.047607 7.337374
86.089615 0.759668
86.090378 106.572014
86.091133 1637.257446
86.091888 1341.371826
86.092651 2484.797119
86.093407 5936.232422
86.094162 16592.056641
86.094917 33225.929688
86.09568 50010.085938
86.096436 50614.40625
86.097191 34996.507812
86.097954 16542.710938
86.098709 4338.797363
86.099464 334.192108
86.883522 246.001846
86.884293 433.789886
86.885063 494.257874
86.885826 393.667419
86.886597 208.180573
86.887367 48.678051
87.048859 58.453228
87.049629 617.777161
87.0504 2155.305664
87.05117 4261.157715
87.051941 9009.874023
87.052711 25904.232422
87.053482 58648.316406
87.054253 97467.445312
87.055023 113717.835938
87.055794 87034.210938
87.056564 48284.445312
87.057335 16405.794922
87.058105 2903.2854
87.058876 330.975769
87.059647 23.35375
87.097397 272.638519
87.098167 531.666443
87.098938 650.62738
87.099709 547.465881
87.100479 306.973389
87.10125 73.82354
88.033623 377.896149
88.034409 1473.992798
88.035187 2963.460938
88.035973 6827.994629
88.036758 20272.091797
88.037537 43692.769531
88.038322 70624.117188
88.039108 78494.59375
88.039886 57558.976562
88.040672 30354.302734
88.041458 9530.107422
88.042236 1500.812988
88.043022 596.63031
88.043808 792.354126
88.044586 977.103333
88.045372 14.306583
88.108856 144.156235
88.109642 736.820007
88.110428 1504.477539
88.111214 2056.775635
88.111992 2008.525635
88.112778 1405.361816
88.113564 678.139526
88.114349 21.72727
88.688087 250.186432
88.688881 537.838379
88.689674 727.4021
88.690468 700.947998
88.691261 495.866638
88.692047 258.071716
88.692841 8.799543
88.693634 331.728333
88.694427 607.332458
88.695221 833.507996
88.696014 916.325867
88.6968 806.34729
88.697594 528.541565
88.698387 225.629105
88.699181 1.262972
88.699974 266.23645
88.70076 564.013794
88.701553 720.381592
88.702347 592.387024
88.70314 304.728638
88.703934 2.007456
92.379913 1.254235
92.380753 160.845428
92.381599 873.78064
92.382439 1717.99939
92.383278 1025.067627
98.016144 0.258044
98.017067 181.531143
98.017982 520.006287
98.018906 676.686157
98.019829 1802.965088
98.020744 5215.26416
98.021667 11328.070312
98.022583 18135.453125
98.023506 19695.404297
98.024429 14155.008789
98.025345 7062.984863
98.026268 2121.001465
98.027191 16.260332
99.051132 4.083013
99.052071 200.681152
99.053001 765.078003
99.05394 1323.409058
99.054871 1568.889526
99.055809 1347.651123
99.05674 826.784668
100.03521 8.725857
100.036156 275.349579
100.037102 1006.578674
100.038055 1593.555786
100.039001 1728.58667
100.039948 1314.095703
100.040901 663.025146
100.041847 139.408386
101.066772 569.309937
101.067734 2135.536377
101.068695 5373.162109
101.069656 9295.875977
101.070625 11164.025391
101.071587 8597.436523
101.072548 4642.000488
101.073517 1542.367798
101.074478 41.474121
106.482399 8.735215
106.483437 265.739807
106.484482 466.453491
106.485519 575.695374
106.486565 522.538452
106.48761 330.774017
110.01992 11.538756
110.021011 290.413879
110.02211 640.366211
110.023201 828.373291
110.0243 702.388062
110.025391 371.896973
112.082649 31.613901
112.083778 430.700958
112.0849 671.655396
112.086029 735.816101
112.087151 567.390503
112.08828 278.517029
112.089401 18.583879
115.042908 529.400696
115.044075 957.772095
115.04525 2712.435791
115.046417 9167.737305
115.047585 21331.632812
115.048759 34851.210938
115.049927 39486.96875
115.051094 28123.568359
115.052269 14936.813477
115.053436 4243.930176
115.054611 578.537964
116.028496 16.649345
116.029686 231.243088
116.030869 519.645691
116.032051 776.742737
116.033241 838.54364
116.034424 655.779907
116.035606 341.155579
123.182281 34.186211
123.183578 330.183167
123.184875 519.254395
123.186172 550.615051
123.187469 412.769257
123.188766 202.805557
128.075851 61.047783
128.077225 489.084473
128.078598 1104.18457
128.079971 1626.808228
128.08136 1700.830444
128.082733 1262.401611
128.084106 587.578186
129.060043 114.719704
129.061432 874.518005
129.06282 2146.689453
129.064209 3666.983398
129.065598 3941.599854
129.066986 2761.093018
129.068375 1255.525269
129.069778 273.192596
129.071167 0.166502
132.062927 3.804021
132.064362 154.764999
132.065796 988.524231
132.067245 2728.59668
132.06868 4919.203125
132.070114 8742.978516
132.071564 25952.921875
132.072998 77796.8125
132.074432 142212.5625
132.075867 198933.65625
132.077316 173408.328125
132.078751 104805.90625
132.080185 42107.515625
132.081635 9826.356445
132.083069 2400.161133
132.084503 2578.793457
132.085953 1516.415771
132.087387 1481.76355
132.088821 483.816406
133.074585 94.278625
133.076035 686.198425
133.077499 1460.421387
133.078949 1948.979858
133.080414 1797.395996
133.081863 1144.423218
133.083313 456.539368
136.032761 33.846146
136.034271 326.252106
136.035782 1065.369629
136.037277 1767.628174
136.038788 2043.117065
136.040283 1691.488525
136.041794 970.632446
136.043304 327.362549
139.044052 147.29776
139.045593 924.157349
139.04715 1844.058594
139.048706 2545.84082
139.050262 2554.973145
139.051819 1885.062866
139.053375 980.625854
139.054932 234.912415
140.137146 56.14336
140.138718 315.77594
140.140289 547.98877
140.141861 636.659607
140.143433 513.389954
140.145004 252.36467
147.267532 43.790279
147.269226 240.932617
147.27092 400.934967
147.272614 462.301605
147.274307 380.952118
147.276001 196.898575
153.058945 92.974777
153.06073 411.252655
153.062531 652.106506
153.064331 724.638794
153.066116 579.259277
153.067917 283.501221
156.068817 76.991249
156.070663 542.934509
156.07251 1516.680664
156.074356 2619.490967
156.076202 3430.904785
156.078049 2557.737305
156.079895 1297.741821
156.081757 453.403076
159.559402 62.067505
159.56131 294.40567
159.563217 665.179504
159.56514 1172.453003
159.567047 1403.773804
159.568954 1259.183716
159.570862 784.188293
159.572784 242.519882
159.616745 29.742687
159.618668 282.583191
159.620575 1147.806763
159.622482 2844.510254
159.624405 4958.711426
159.626312 6337.54248
159.62822 5491.790039
159.630142 3168.336914
159.63205 1245.442505
159.633957 264.361115
159.676041 50.658455
159.677948 260.172424
159.679871 690.875122
159.681778 1394.406616
159.683701 1839.422729
159.685608 1903.784668
159.687515 1533.6698
159.689438 916.963013
159.691345 365.664337
159.854126 66.600975
159.856033 302.109955
159.857956 472.764252
159.859863 492.752777
159.861786 351.845764
159.863708 146.555832
160.654327 108.701668
160.656265 399.484711
160.658203 532.659363
160.660126 537.997314
160.662064 429.210144
160.663986 218.246063
163.030167 241.069214
163.032135 1656.590454
163.034119 4766.708496
163.036087 8456.081055
163.038055 10684.105469
163.040039 9005.602539
163.042007 5199.932617
163.043976 1973.500977
163.045959 392.386444
164.025543 90.719696
164.027542 385.783661
164.029526 745.36731
164.031525 997.245911
164.033508 960.006531
164.035507 654.627869
164.037506 263.69043
167.036301 226.73732
167.038345 1422.667114
167.04039 3913.876953
167.04245 6836.007324
167.044495 8437.188477
167.046539 6870.438477
167.048584 3837.8479
167.050629 1340.019287
167.052673 237.737396
170.396149 75.473221
170.39827 275.066254
170.400375 399.6716
170.402481 425.290375
170.404587 343.663605
170.406693 171.722595
172.929642 89.785408
172.931793 352.785583
172.933945 784.91217
172.936111 1359.847534
172.938263 1485.124878
172.940414 1211.678223
172.942581 736.902283
172.944733 249.399658
181.049393 154.768784
181.051697 1291.182739
181.054001 4578.498535
181.05632 9780.74707
181.058624 14562.128906
181.060928 15026.883789
181.063248 10166.003906
181.065552 4772.898438
181.067871 1219.309204
181.070175 98.742493
184.059265 135.637833
184.06163 996.836975
184.064011 3802.087158
184.066376 9341.956055
184.068741 15700.981445
184.071106 18973.601562
184.073471 15080.660156
184.075851 8344.699219
184.078217 2997.071045
184.080582 557.31842
185.15329 119.39975
185.155685 528.290283
185.158066 1676.851807
185.160461 3617.214111
185.162842 5211.998535
185.165237 5304.818848
185.167633 3809.470947
185.170013 1914.534302
185.172409 468.887146
188.060944 351.616302
188.0634 1478.692871
188.065842 2995.202637
188.068283 4340.324707
188.070724 4395.080078
188.073181 2894.75415
188.075623 1392.267578
188.078064 348.55719
191.037643 133.085846
191.040146 391.317505
191.042648 567.298401
191.045151 608.250305
191.047653 498.409729
191.050156 221.672668
195.104843 117.572235
195.107437 358.096283
195.110016 535.369873
195.112595 561.004028
195.115189 436.958832
195.117767 177.335968
197.094162 191.725845
197.096786 811.334045
197.099411 1584.383423
197.102036 2041.04834
197.10466 1953.583984
197.107269 1371.519409
197.109894 670.85675
197.112518 183.663071
198.073807 94.403687
198.076447 767.770203
198.079086 2767.420166
198.081741 6456.849609
198.084381 10401.761719
198.087021 11446.330078
198.089661 8496.459961
198.092316 4419.38623
198.094955 1478.459595
198.097595 205.855606
199.138031 76.674294
199.140686 483.602142
199.143356 1223.143555
199.146027 1845.156372
199.148682 1923.061401
199.151352 1407.072998
199.154022 699.30481
199.156677 188.888824
205.087601 687.215637
205.090393 2305.047852
205.09317 4363.465332
205.095963 5581.770508
205.09874 4565.101074
205.101532 2495.845459
205.104324 956.09021
205.107101 187.277481
208.060394 257.85434
208.063248 1122.400391
208.066086 2564.687012
208.068939 3614.327148
208.071777 3314.714844
208.074631 2087.095947
208.077469 806.753845
208.080322 116.856834
209.031311 2.391004
209.03418 347.968353
209.037048 552.831482
209.039917 734.308594
209.042786 1847.650757
209.045639 6522.247559
209.048508 17338.728516
209.051376 31985.628906
209.054245 41741.148438
209.057114 36893.078125
209.059982 22742.599609
209.062836 9786.892578
209.065704 2600.454102
209.068573 494.380066
213.15184 188.566925
213.154785 518.899231
213.15773 775.909424
213.16069 811.540222
213.163635 610.840942
213.166595 324.687592
213.16954 69.706665
215.097809 252.830963
215.1008 708.733704
215.10379 2592.684814
215.106781 6946.424316
215.109772 12474.541992
215.112762 15158.832031
215.115768 12069.185547
215.118759 6691.177734
215.12175 2553.144287
215.124741 730.465637
215.127731 129.08609
217.14032 241.876846
217.143356 2101.004395
217.146393 7899.288086
217.149429 16032.467773
217.152466 23708.828125
217.155502 23766.09375
217.158524 16766.201172
217.16156 8385.744141
217.164597 2809.140381
217.167633 522.284058
225.082321 177.706238
225.085526 775.546692
225.08873 2627.104004
225.091934 5703.963867
225.095139 8743.108398
225.098343 9172.171875
225.101532 6608.606445
225.104736 3217.989502
225.107941 1027.231201
225.111145 162.156281
226.058884 166.867462
226.062103 1154.516724
226.065323 2266.717529
226.068558 6096.071289
226.071777 21110.917969
226.074997 48394.558594
226.078217 81014.804688
226.081451 93913.695312
226.084671 73197.984375
226.087891 40972.085938
226.09111 15826.980469
226.094345 4321.873047
226.097565 1948.574463
226.100784 1138.337769
226.104004 571.374207
226.107239 180.642487
226.110458 8.894464
227.074249 159.178482
227.077499 765.298889
227.080734 1797.118042
227.083984 2475.651123
227.087234 2398.235107
227.090469 1715.314575
227.093719 811.358093
227.09697 184.839371
243.080826 392.829712
243.084427 1654.526001
243.088013 2831.455322
243.091614 5203.672363
243.0952 15651.739258
243.098801 49458.753906
243.102386 97787.507812
243.105988 143144.671875
243.109573 139623.875
243.113174 95572.65625
243.11676 45247.296875
243.120361 14259.910156
243.123962 3554.004639
243.127548 1574.628174
243.131149 709.76947
243.134735 109.14502
244.097397 151.254013
244.101013 1073.374634
244.10463 2816.000732
244.108246 4540.250977
244.111862 4814.500488
244.115479 3496.467285
244.119095 1700.989014
244.122711 335.465698
244.98941 232.432541
244.993042 505.817078
244.996674 642.865173
245.00032 560.326355
245.003952 329.156921
245.007584 68.172127
258.067657 367.653748
258.071594 634.608154
258.0755 695.305054
258.079437 548.823181
258.083374 298.536865
258.087311 47.845165
270.961304 284.761108
270.965546 535.18927
270.969788 835.694885
270.973999 946.823181
270.978241 916.632263
270.982452 743.329529
270.986694 589.645569
270.990936 347.322876
270.995148 58.646549
280.288269 213.314407
280.292725 490.053558
280.29718 718.836365
280.301605 742.327332
280.306061 540.115601
280.310516 252.837189
280.314972 27.6709
310.136597 1.437138
310.141785 209.065445
310.146942 463.995667
310.15213 649.606628
310.157318 630.490601
310.162506 412.290161
310.167664 3.177979
325.173248 24.395927
325.178802 363.93866
325.184357 583.510498
325.189911 679.312866
325.195496 609.440186
325.20105 425.840363
325.223297 31.756287
325.228851 475.84494
325.234406 826.075989
325.23996 1311.148071
325.245544 2637.150146
325.251099 2614.193115
325.256653 1838.786255
325.262238 984.457214
325.267792 152.764725
325.273346 44.690434
325.2789 694.744446
325.284485 1539.578369
325.290039 1995.659302
325.295593 1193.935303
325.301147 507.974792
325.306732 180.197327
334.510254 38.572208
334.516052 400.724457
334.521851 853.979797
334.527649 1268.597412
334.533447 1398.179688
334.539246 1143.051392
334.545044 581.128662
334.550873 239.773712
345.798767 41.727436
345.804871 345.163116
345.810974 572.051819
345.817078 633.859314
345.823181 482.967651
345.829254 223.182953
352.153046 33.3186
352.159302 253.656342
352.165588 487.749054
352.171844 582.316284
352.178101 462.294495
352.184387 220.526794
353.66806 46.330578
353.674347 431.697021
353.680664 1300.254761
353.686981 1982.132202
353.693268 2076.866943
353.699585 1501.661987
353.705902 668.000122
355.771179 67.656212
355.777527 427.106232
355.783905 602.227112
355.790253 661.328552
355.796631 561.731262
355.803009 322.759949
359.658691 36.002579
359.665161 667.052551
359.671631 3225.774414
359.678101 8708.208008
359.68457 14448.335938
359.69104 17523.140625
359.69751 13477.90625
359.703979 7460.091309
359.710449 2439.355957
359.716919 392.138885
360.170166 51.756672
360.176636 327.784882
360.183136 574.293152
360.189606 711.636414
360.196106 639.026917
360.202576 379.987305
361.456909 127.711411
361.463409 787.696472
361.46994 1153.45166
361.476471 1231.00647
361.482971 961.428955
361.489502 463.202576
368.169312 6.043879
368.175995 335.457794
368.182709 1978.867798
368.189392 5897.415039
368.196106 10622.84082
368.20282 14020.419922
368.209503 12183.936523
368.216217 7407.258789
368.2229 3131.812988
368.229614 737.901611
368.685638 74.084381
368.692352 416.151855
368.699066 619.671692
368.70578 704.007996
368.712494 607.109619
368.719208 338.125336
373.176666 57.129375
373.183502 338.775177
373.190338 649.525085
373.197174 836.366272
373.20401 780.240295
373.210846 529.132996
373.217682 227.245346
384.501648 60.684719
384.50882 317.336517
384.515961 551.159058
384.523102 643.873657
384.530243 527.972229
384.537415 263.876709
393.152313 267.670929
393.159729 1273.278564
393.167114 2300.414795
393.1745 2900.545654
393.181885 2657.763428
393.189301 1729.518311
393.196686 637.947449
393.204071 69.191315
393.211456 465.992981
393.218872 1184.926636
393.226257 1613.725098
393.233643 1602.80957
393.241028 1149.142578
393.248444 499.141693
393.477753 57.1912
393.485168 282.069672
393.492554 497.097107
393.499969 606.49646
393.507355 540.762085
393.514771 349.457764
393.522156 141.02562
393.69989 64.162598
393.707275 321.415039
393.714691 574.200928
393.722107 631.63385
393.729523 429.235046
393.736908 141.018585
402.205322 163.4953
402.212952 1068.532471
402.220612 2929.49707
402.228241 4889.230469
402.235901 5790.51709
402.243561 4582.824707
402.25119 2476.21167
402.25885 721.315796
407.153137 102.536354
407.16095 408.456726
407.168732 597.016663
407.176514 598.96405
407.184326 407.974091
407.192108 156.218994
407.19989 78.115952
407.207703 377.343628
407.215485 771.126343
407.223267 1064.917236
407.231049 1050.335205
407.238861 741.724365
407.246643 315.778656
407.699005 82.839348
407.706818 365.719482
407.7146 642.7099
407.722412 736.183594
407.730225 558.94574
407.738037 232.741898
411.171143 112.725266
411.179047 443.900421
411.186951 677.343201
411.194855 711.410095
411.202759 522.634705
411.210663 211.03038
416.18924 248.459793
416.197296 1401.048584
416.205353 5829.449219
416.213379 17098.896484
416.221436 33711.089844
416.229492 46850.714844
416.237549 44677.679688
416.245605 28808.955078
416.253662 13610.754883
416.261719 3962.133545
416.269745 1111.120972
416.277802 434.967743
416.696899 96.980843
416.704956 818.67572
416.713043 2997.885254
416.7211 6342.523438
416.729156 9524.161133
416.737244 10176.198242
416.7453 6865.453613
416.753357 3549.047119
416.761444 1015.918335
416.769501 84.949242
421.152222 229.52005
421.1604 1020.489807
421.16861 2191.268066
421.176788 3310.393555
421.184998 3141.749268
421.193207 1686.021973
421.201385 552.008362
421.209595 256.571838
421.217773 1028.104004
421.225983 1659.682373
421.234192 1622.207764
421.242371 998.144836
421.25058 326.880951
422.186707 100.060547
422.194946 396.279449
422.203156 681.472595
422.211395 820.077393
422.219604 712.014771
422.227844 428.445496
422.236084 144.171524
423.200256 115.767532
423.208527 480.844055
423.216766 884.08783
423.225037 1104.475708
423.233276 989.157593
423.241547 624.19989
423.249786 224.608963
423.357147 115.642845
423.365417 566.291138
423.373688 1120.675659
423.381927 1304.173218
423.390198 1125.05835
423.398468 695.653381
423.406708 316.444
423.414978 465.114075
423.423248 1032.135254
423.431488 1466.803833
423.439758 1498.582397
423.448029 1041.976074
423.456299 393.167664
423.687744 191.834824
423.696014 883.653198
423.704285 2204.163818
423.712555 4216.141113
423.720825 5295.81543
423.729095 4071.216553
423.737366 2198.686523
423.745636 747.882446
424.714996 587.795044
424.723297 2654.505615
424.731598 5768.155273
424.739899 8896.202148
424.748199 9280.612305
424.7565 6417.519531
424.764801 3268.311279
424.773102 1123.50647
424.781403 282.610168
425.230042 163.945648
425.238342 552.718567
425.246643 741.317932
425.254974 693.685303
425.263275 453.326843
425.271606 146.173141
428.693268 119.56591
428.70166 440.327209
428.710083 667.159851
428.718506 683.699707
428.726929 481.697449
428.735352 190.096832
429.704987 228.198654
429.71344 1415.959106
429.721893 3752.748779
429.730347 6413.195801
429.73877 7432.251465
429.747223 5678.831055
429.755676 2850.030273
429.76413 1039.037598
429.772583 258.365723
430.186829 189.260986
430.195282 1215.416138
430.203766 5045.488281
430.212219 13707.950195
430.220673 25250.390625
430.229126 33660.335938
430.23761 30380.691406
430.246063 18671.316406
430.254517 8311.521484
430.26297 2015.818726
430.271454 270.664612
430.694916 193.891266
430.703369 974.887634
430.711853 2632.238525
430.720337 5162.86084
430.72879 7157.650391
430.737274 6778.893555
430.745758 4281.686523
430.754242 1908.699829
430.762726 405.311798
437.200439 183.312607
437.209137 666.560425
437.217804 1067.839844
437.226471 1194.48938
437.235138 965.301636
437.243805 553.915955
437.252472 184.498459
438.712616 407.908051
438.721313 1818.075195
438.730042 3939.418945
438.738739 6011.893066
438.747467 6350.300781
438.756165 4258.781738
438.764893 1729.135986
438.773621 286.03598
440.697174 180.592957
440.705963 566.897461
440.714722 743.221436
440.723511 706.818909
440.732269 500.722931
440.741058 221.634644
442.668762 204.643448
442.677612 1516.507568
442.686432 5590.473145
442.695251 12795.494141
442.704102 19728.140625
442.712921 21916.822266
442.721771 16146.523438
442.730591 8501.439453
442.739441 2669.178711
442.74826 482.995483
443.172577 120.190987
443.181427 450.517212
443.190277 1196.221436
443.199127 2554.533936
443.207977 3689.711182
443.216797 3668.406494
443.225647 2450.86377
443.234497 1165.072266
443.243347 227.770813
443.703827 626.40979
443.712708 2617.683594
443.721558 5474.317383
443.730408 8030.936523
443.739288 8018.581543
443.748138 5544.21582
443.757019 2672.496094
443.765869 803.332581
443.77475 162.875824
449.195679 106.254486
449.204712 533.700195
449.213745 1189.255493
449.222778 1633.001221
449.231781 1572.246826
449.240814 1080.758667
449.249847 438.405884
451.179199 166.157074
451.188293 972.180359
451.197357 3241.081055
451.206451 7814.287109
451.215546 13143.890625
451.22464 15527.75
451.233734 11868.260742
451.242798 6540.642578
451.251892 2341.166504
451.260986 439.045074
451.706696 132.868164
451.71582 429.081268
451.724915 596.042542
451.734009 553.376099
451.743134 349.139282
451.752228 122.73703
456.672028 139.637726
456.681274 688.262268
456.690521 1475.536255
456.699768 2066.719238
456.709045 2249.630859
456.718292 1890.841797
456.727539 1189.279053
456.736786 428.939789
457.237 125.288651
457.246277 451.717407
457.255554 753.109009
457.264832 825.539062
457.274078 635.437866
457.283356 266.762238
463.682617 100.356529
463.692078 584.557434
463.701569 1382.544922
463.711029 1994.502075
463.72049 2084.770508
463.72995 1567.571167
463.739441 782.825073
463.748901 193.403152
465.19162 130.143417
465.201141 439.669769
465.210663 747.923523
465.220154 940.068359
465.229675 887.50592
465.239197 617.390564
465.248718 237.258835
471.224274 429.965759
471.233978 1438.353516
471.243683 2765.911621
471.253357 3869.968994
471.263062 3613.192627
471.272766 2241.711914
471.282471 926.11969
471.292175 206.440277
471.690186 59.716019
471.69989 784.88147
471.709625 3477.829346
471.71933 8106.724121
471.729034 13052.432617
471.73877 14407.967773
471.748474 11057.477539
471.758179 6108.21875
471.767914 2457.525879
471.777618 623.178833
472.185974 85.403618
472.195709 544.317505
472.205444 1911.330811
472.215179 4296.739746
472.224884 6634.661621
472.234619 7087.728516
472.244354 5215.467285
472.254089 2721.079102
472.263824 979.273315
472.27356 186.756561
476.220032 236.054581
476.229889 597.528015
476.239716 724.574646
476.249573 696.302551
476.25943 513.518738
476.269287 204.450287
477.671875 120.414482
477.681763 786.23999
477.691681 2329.991943
477.701569 4407.196289
477.711456 5567.712891
477.721375 4608.807617
477.731262 2509.845703
477.74118 950.731689
477.751068 242.561417
479.737549 183.768677
479.747528 868.536316
479.757477 1833.831177
479.767456 2441.050537
479.777405 2311.74292
479.787384 1559.058105
479.797363 556.792175
480.236115 231.00235
480.246094 917.891052
480.256073 1637.986816
480.266052 1895.53833
480.276031 1633.2854
480.286011 1021.184937
480.29599 343.080139
480.715454 351.94278
480.725464 1297.718994
480.735443 2293.046387
480.745453 2756.768555
480.755432 2462.401367
480.765442 1621.723389
480.775452 669.667114
480.785431 103.618317
485.224182 183.804092
485.234344 564.825439
485.244476 891.517822
485.254608 1012.601685
485.26474 843.511047
485.274872 500.22583
485.285004 157.914734
485.700867 142.103134
485.711029 484.814972
485.721191 1102.457031
485.731323 1973.154175
485.741486 1989.993652
485.751648 1377.131958
485.76178 1010.672241
485.771942 606.170959
485.782104 210.728989
486.188446 488.891418
486.198608 2118.171875
486.208771 4723.932129
486.218933 7548.820312
486.229095 8516.682617
486.239258 6602.367188
486.24942 3408.632324
486.259613 966.306458
486.269775 102.615242
486.707275 282.406647
486.717438 760.777344
486.727631 994.058838
486.737823 902.764404
486.747986 562.862549
486.758179 180.817993
492.728821 225.895432
492.739197 581.80011
492.749573 752.53833
492.759918 710.863464
492.770294 486.496643
492.78067 169.424896
493.715515 174.255737
493.725922 1377.741821
493.736328 6345.873047
493.746735 16043.624023
493.757141 27896.695312
493.767548 34041.691406
493.777954 27996.78125
493.788361 16173.144531
493.798767 6504.895996
493.809143 1615.158936
493.81955 344.49704
494.204773 18.226019
494.21521 718.307556
494.225616 4017.727783
494.236023 12280.958984
494.24646 23913.578125
494.256866 33482.800781
494.267303 32591.236328
494.27771 22303.478516
494.288147 10978.334961
494.298553 3430.203613
494.30896 634.226624
494.715637 324.734192
494.726074 1527.135986
494.736511 3840.158691
494.746948 6499.435547
494.757385 7620.549316
494.767792 6192.366699
494.778229 3522.955078
494.788666 1237.077881
494.799103 147.935455
498.725494 335.7995
498.736053 1032.973145
498.746613 1719.847168
498.757172 2060.390381
498.767731 1795.848389
498.77829 1102.00708
498.788849 314.981537
499.211639 377.940491
499.222229 2188.64209
499.232788 5253.06543
499.243378 8633.624023
499.253937 10000.487305
499.264526 7846.354004
499.275116 4249.318848
499.285675 1495.096558
499.296265 265.130585
499.370331 248.077286
499.38089 625.294434
499.391479 815.212219
499.402069 776.308167
499.412659 528.259521
499.423218 180.577988
499.719696 330.798798
499.730286 992.525635
499.740875 1603.790771
499.751465 1905.776978
499.762054 1740.505737
499.772644 1243.413452
499.783234 455.609131
501.461365 203.052475
501.472015 493.333038
501.482666 638.467224
501.493317 640.506104
501.503967 491.474823
501.514618 198.394882
502.720154 28.077251
502.730865 550.284302
502.741547 2897.068604
502.752228 7135.122559
502.762909 11811.489258
502.773621 13525.344727
502.784302 10469.051758
502.794983 5656.105957
502.805695 2029.341675
502.816376 346.232056
503.212158 164.306732
503.22287 1399.034424
503.233582 3846.877441
503.244293 6696.224121
503.254974 8402.737305
503.265686 7427.949219
503.276398 4862.668945
503.287109 2305.097168
503.297821 596.157471
505.736969 219.974243
505.747742 716.625488
505.758545 1210.238159
505.769318 1405.851685
505.780121 1166.706177
505.790894 681.004272
505.801666 223.168243
507.716278 289.227539
507.727112 1739.984985
507.737976 5986.52002
507.74881 13038.650391
507.759674 19367.005859
507.770508 19933.966797
507.781372 13726.263672
507.792206 6668.044434
507.80307 1810.99707
507.813904 240.978546
508.226501 434.917511
508.237366 1465.508301
508.24823 3097.485352
508.259094 4738.365723
508.269958 4806.27832
508.280823 3206.435791
508.291687 1527.319092
508.302551 444.916687
513.194885 364.994873
513.205872 1673.876709
513.216919 6299.34375
513.227905 15168.783203
513.238953 25810.476562
513.25 31039.595703
513.260986 25153.923828
513.272034 14348.676758
513.283081 5644.26123
513.294067 1369.361816
513.305115 278.643921
513.702332 22.603199
513.713379 811.884399
513.724426 3235.659912
513.735474 6717.15332
513.74646 9731.010742
513.757507 9385.360352
513.768555 6050.399902
513.779602 2611.865479
513.790649 727.653687
513.801697 138.618912
516.740723 222.939514
516.751831 579.522949
516.763 799.561401
516.774109 795.314514
516.785278 570.194702
516.796387 197.464462
519.727478 387.631348
519.738708 1377.584351
519.749939 2703.779541
519.761169 3762.824219
519.7724 3525.384521
519.78363 2249.689453
519.794861 945.116272
519.806091 184.703262
520.210876 122.647591
520.222107 710.607483
520.233398 2132.064209
520.244629 4340.239746
520.255859 6122.824219
520.267151 5765.645508
520.278381 3623.868652
520.289673 1611.167847
520.300903 408.648926
520.728821 230.498657
520.740051 1103.965454
520.751343 2408.626709
520.762573 3441.948242
520.773865 3598.467529
520.785156 2804.655518
520.796387 1514.002319
520.807678 440.250824
521.710449 503.403534
521.721741 2717.891357
521.733032 9358.582031
521.744324 19598.947266
521.755615 29620.228516
521.766907 30898.767578
521.778259 22201.658203
521.789551 11282.306641
521.800842 3746.234131
521.812134 731.100952
521.823425 35.878487
522.219238 229.862061
522.230591 1819.468018
522.241882 5004.765625
522.253235 9219.489258
522.264526 11632.966797
522.275818 9395.071289
522.28717 5309.322754
522.298462 2075.775391
522.309814 364.179199
524.216553 158.496078
524.227905 389.569733
524.239319 503.321411
524.250671 472.44397
524.262085 309.633636
524.273438 98.558128
528.23407 384.939148
528.245605 2145.925781
528.257141 5187.956543
528.268616 8489.987305
528.280151 9499.587891
528.291687 7243.12207
528.303162 3886.232178
528.314697 1450.425537
528.326233 250.292145
528.729431 418.961823
528.740967 2094.91748
528.752502 4924.405273
528.764038 8085.537598
528.775574 8713.759766
528.787109 6420.281738
528.798645 3363.976562
528.810181 1144.248291
528.821716 214.350998
530.219727 57.240711
530.231262 904.183899
530.242859 3776.165039
530.254456 8970.552734
530.265991 15078.415039
530.277588 17475.730469
530.289185 13559.298828
530.30072 7445.152344
530.312317 2758.551514
530.323914 549.205627
530.33551 48.464333
530.741028 242.534729
530.752625 996.954529
530.764221 1874.466064
530.775818 2310.598877
530.787415 2058.351807
530.799011 1306.822998
530.810608 511.292877
530.822205 85.794144
533.721558 356.202881
533.733215 1709.253296
533.744934 4098.137207
533.756592 6689.831543
533.768311 7385.727051
533.780029 5595.95459
533.791687 2944.667725
533.803406 952.716614
533.815063 90.355087
534.201233 120.846741
534.212952 1035.068848
534.224609 4392.683105
534.236328 9444.258789
534.248047 14165.103516
534.259766 14606.22168
534.271484 10399.601562
534.283203 5152.578125
534.294922 1547.496216
534.30658 254.176712
534.716736 269.983887
534.728455 1072.532104
534.740173 2264.60083
534.751892 3147.607422
534.763611 2674.561035
534.77533 1617.671753
534.787048 690.668945
534.798828 131.621841
537.258179 339.557556
537.27002 766.976379
537.281799 931.660278
537.29364 799.224182
537.30542 468.579041
537.317261 127.17395
542.192261 318.278961
542.204224 759.907898
542.216187 1321.108398
542.228149 4579.974121
542.240112 16419.011719
542.252075 37826.273438
542.264099 63402.113281
542.276062 75211.8125
542.288025 60328.195312
542.299988 34813.304688
542.311951 13945.897461
542.323975 3458.3125
542.335938 762.173767
542.3479 137.379486
542.683411 273.610016
542.695374 592.299744
542.707336 1146.302246
542.71936 4592.946777
542.731323 18028.708984
542.743347 47147.011719
542.75531 84525.632812
542.767334 108539.585938
542.779297 93993.320312
542.791321 58880.546875
542.803284 25876.689453
542.815247 7584.909668
542.827271 1997.527588
542.839233 759.686157
542.851257 992.730042
542.86322 499.578003
543.211243 154.584457
543.223206 1546.083618
543.235229 6218.705566
543.247253 13950.055664
543.259216 22556.011719
543.27124 25104.519531
543.283264 19039.582031
543.295288 10261.241211
543.307251 3658.357422
543.319275 710.114868
543.331299 75.13858
545.753113 144.579697
545.765198 385.570648
545.777283 576.752869
545.789368 615.393982
545.801453 462.158051
545.813538 150.882492
550.731384 182.006256
550.743652 972.290283
550.75592 3213.602783
550.768127 7237.10791
550.780396 11868.069336
550.792664 13217.767578
550.804932 9992.048828
550.8172 5131.374023
550.829407 1743.682129
550.841675 295.543976
551.197388 186.339218
551.209656 973.778442
551.221924 2077.645996
551.234192 7373.241699
551.24646 27003.269531
551.258728 60311.367188
551.270996 98496.179688
551.283264 110924.75
551.295532 84852.84375
551.3078 46926.765625
551.320068 18226.822266
551.332336 5054.958496
551.344666 1657.890625
551.356934 474.866119
551.369202 45.358601
551.676208 125.940071
551.688538 334.301544
551.700806 481.941162
551.713074 472.160034
551.725403 986.780701
551.737671 3215.367432
551.749939 10872.444336
551.762268 23144.302734
551.774536 35711.554688
551.786804 37753.847656
551.799133 27463.068359
551.811401 14074.287109
551.823669 4748.007324
551.835999 991.78009
551.848267 131.180344
553.030212 206.952393
553.042542 508.843994
553.054871 693.646912
553.0672 652.763855
553.079529 407.906677
553.091919 110.805153
558.133606 230.364502
558.146118 506.570587
558.15863 668.341675
558.171143 684.99176
558.183655 534.39502
558.196167 166.273819
559.699768 718.180542
559.712341 5344.078613
559.724915 9727.977539
559.737427 20955.107422
559.75 71295.296875
559.762573 228447.84375
559.775146 452725.25
559.787659 659432.6875
559.800232 646228.6875
559.812805 445572.3125
559.825378 215695.890625
559.837891 72527.671875
559.850464 21460.505859
559.863037 10550.160156
559.87561 4956.887695
559.888184 1664.354858
559.900696 450.283752
560.189758 260.77536
560.202332 557.689331
560.214905 1553.928711
560.227478 2564.229248
560.240051 7402.141602
560.252625 27608.421875
560.265198 85865.34375
560.277771 164464.109375
560.290344 230546.296875
560.302917 216113.140625
560.315491 144517.046875
560.328064 66721.171875
560.340637 20966.6875
560.35321 5659.03125
560.365845 2347.176514
560.378418 990.517578
560.390991 155.394897
600.289795 339.097931
600.303711 605.030518
600.317688 674.409424
600.331604 587.057922
600.345581 381.015106
600.359497 91.353828
600.666504 232.280624
600.680481 547.003296
600.694397 740.59259
600.708374 687.943604
600.722351 435.740784
600.736328 104.382507
607.267151 271.213928
607.281311 611.952332
607.295532 861.616394
607.309692 896.957092
607.323914 682.353394
607.338074 347.615845
607.352295 78.97435
619.247314 355.714172
619.261963 1129.682129
619.27655 3457.664307
619.291138 6607.432617
619.305786 8889.180664
619.320374 7756.500977
619.335022 4798.354004
619.349609 1830.301758
619.364258 271.13208
636.292419 260.603577
636.307617 624.692017
636.322815 904.285034
636.338074 919.063599
636.353271 655.813232
636.368469 306.923157
636.383728 51.922337
638.443726 209.166595
638.458984 568.346008
638.474304 1097.583496
638.489624 1820.736816
638.504883 2395.701172
638.520203 2523.775635
638.535522 1895.437378
638.550781 1169.859863
638.566101 505.080566
638.581421 82.026138
706.33252 612.943848
706.350281 1274.854736
706.368103 1667.762817
706.385925 1527.061401
706.403687 949.750793
706.421509 64.496414
718.283325 0.319297
718.301575 46.977898
718.319824 1563.456665
718.338074 4611.572266
718.356323 8077.227051
718.374573 9841.069336
718.392883 7519.264648
718.411133 4322.16748
718.429382 1449.900757
718.447632 43.265404
735.318909 333.26532
735.33783 2415.63916
735.35675 9310.513672
735.375671 18224.195312
735.394531 26512.501953
735.413452 23656.513672
735.432373 14301.862305
735.451294 5882.258789
735.470215 1673.932007
735.489136 394.729065
735.507996 25.149126
736.340942 164.272705
736.359863 769.082153
736.378845 1717.798096
736.397766 2370.644287
736.416748 2230.743896
736.435669 1427.62793
736.454651 424.052887
736.473572 28.23263
746.312012 557.633667
746.33136 1367.606567
746.350647 2165.961914
746.369995 2452.286133
746.389343 2041.522095
746.408691 1226.320435
746.42804 414.15332
746.447327 24.807417
756.368652 500.620392
756.388367 956.396362
756.408081 1252.264893
756.427795 1183.091187
756.44751 792.902344
756.467285 349.953125
756.487 18.853991
758.384521 247.934799
758.404358 453.863892
758.424133 566.088379
758.44397 498.585114
758.463745 285.945648
758.483582 18.173588
797.650757 224.910248
797.672119 540.761169
797.693481 754.351013
797.714844 1035.223267
797.736206 1114.795898
797.757568 900.584045
797.778931 868.374023
797.800293 653.808472
797.821655 388.631775
797.843018 7.244845
801.380615 590.346252
801.4021 1419.255127
801.423645 2334.279785
801.445129 2702.057617
801.466675 2209.785645
801.488159 1201.543579
801.509705 209.923965
801.531189 0.664212
813.365906 4.080771
813.387939 728.282227
813.409912 1731.861206
813.431946 2614.925537
813.453918 2780.227295
813.475891 2111.650635
813.497925 942.323608
814.334595 2.828776
814.356628 257.392487
814.378662 1515.008545
814.400696 3970.364502
814.422729 6391.250488
814.444763 6805.380371
814.466797 4640.730469
814.488831 2238.057861
814.510925 699.039612
814.532959 33.215446
831.342773 8.194107
831.36554 581.667847
831.388245 2450.700195
831.411011 7773.993652
831.433716 13934.473633
831.456482 18878.117188
831.479187 15828.262695
831.501953 9538.454102
831.524658 3452.374512
831.547424 632.246277
832.366516 11.016875
832.389282 369.027405
832.412048 970.981506
832.434875 2355.229248
832.457642 3102.181396
832.480408 2543.605225
832.503174 1478.164429
832.52594 522.461731
834.39679 15.98377
834.419678 484.516968
834.442505 733.678589
834.465393 820.84967
834.48822 681.41626
834.511108 395.856934
842.337646 22.531746
842.36084 576.38269
842.384033 1679.980347
842.407227 2671.270752
842.43042 2917.483154
842.453552 2236.392822
842.476746 1130.846313
848.350342 34.989605
848.373779 785.164917
848.397217 2619.241943
848.420654 10069.043945
848.444092 24063.039062
848.467529 38579.472656
848.490967 43606.3125
848.514404 30052.103516
848.537842 15835.93457
848.561279 4542.614258
848.584717 846.086731
849.382202 77.814438
849.40564 930.19458
849.429138 3319.574951
849.452637 6594.305664
849.476074 9281.550781
849.499573 8504.777344
849.52301 5272.374512
849.546509 2046.474121
849.570007 235.577438
858.372437 26.345594
858.396301 543.685181
858.420105 2358.986816
858.44397 4170.320312
858.467834 5306.464355
858.491699 4310.89502
858.515503 2416.888672
858.539368 699.217346
858.563232 0.617859
859.327087 27.706276
859.350952 553.480347
859.374817 2813.328125
859.398743 9765.328125
859.422607 19096.191406
859.446533 27978.8125
859.470398 26143.255859
859.494263 16466.365234
859.518188 7304.73584
859.542053 1746.785522
859.565979 189.192444
860.355103 29.241528
860.379028 541.011108
860.402954 1565.708008
860.42688 3321.013428
860.450806 4974.623047
860.474731 3934.97876
860.498657 1945.373535
860.522583 798.790771
874.329895 18.145636
874.354431 297.540924
874.378906 1080.17627
874.403442 1821.58374
874.427979 2162.148193
874.452454 1867.734985
874.47699 1130.366577
874.501526 215.077423
876.245117 12.237684
876.269714 252.342651
876.294312 1626.361694
876.318909 4200.333984
876.343506 7135.515625
876.368103 10126.839844
876.3927 31314.148438
876.417297 101649.789062
876.441895 211092.421875
876.466492 320351.65625
876.49115 324855.6875
876.515747 212073.609375
876.540344 104494.101562
876.564941 29885.691406
876.589539 9504.630859
876.614136 6859.041992
876.638794 4602.943848
876.663391 2281.233154
876.687988 554.661743
877.30365 17.935307
877.328308 556.721008
877.352905 1087.610352
877.377563 2730.786133
877.402222 10487.079102
877.42688 33473.070312
877.451538 62504.707031
877.476135 88740.601562
877.500793 79210.34375
877.525452 48442.023438
877.55011 20523.796875
877.574768 5167.961914
877.599426 1408.49707
877.624023 441.35376
884.318359 30.171574
884.343262 457.628143
884.368225 1121.335083
884.393127 1416.724121
884.418091 1296.723999
884.443054 852.427246
884.467957 321.495605
886.341553 5.597931
886.366577 220.299484
886.391602 1590.005981
886.416626 4743.544434
886.44165 8490.4375
886.466675 10436.912109
886.491699 7793.164062
886.516724 4189.447754
886.541748 1296.739136
887.368286 23.453468
887.393372 298.320282
887.418457 691.311829
887.443542 1090.428223
887.468567 1233.824951
887.493652 1017.11499
887.518738 595.675598
887.543823 222.10228
912.294189 68.145264
912.320312 740.91803
912.346436 1975.631592
912.372559 3566.999023
912.398743 4830.42627
912.424866 4474.324219
912.450989 2841.082764
912.477112 1290.302734
912.503235 232.703323
970.39978 53.678867
970.428467 372.135468
970.457153 627.297607
970.485779 726.120483
970.514465 598.109741
970.543152 330.101868
970.571777 51.116791
987.387756 336.077545
987.417175 1607.014648
987.446594 5017.55957
987.476013 9564.571289
987.505432 13497.37207
987.534851 12608.039062
987.56427 7990.60791
987.593689 3492.127686
987.623169 646.581299
988.388794 84.478058
988.418213 776.206543
988.447693 2444.394287
988.477173 3764.484375
988.506653 4174.11377
988.536072 3052.746094
988.565552 1601.862915
988.595032 397.23233
997.407104 88.853195
997.436951 556.514038
997.466858 963.850647
997.496704 1177.123535
997.526611 1047.827759
997.556458 667.841003
997.586365 267.647064
1004.433228 95.834038
1004.463379 720.052429
1004.493591 1835.765137
1004.523743 2635.525146
1004.553955 2619.691162
1004.584167 1672.707153
1004.614319 774.007629
1004.644531 258.422638
1014.34613 62.256306
1014.37677 675.041687
1014.40741 3458.086914
1014.438049 12189.104492
1014.468689 29164.824219
1014.499329 45928.5
1014.529968 52202.195312
1014.560608 37540.144531
1014.591248 20173.275391
1014.621887 6039.347656
1014.652527 1116.375244
1014.683167 41.571892
1015.388428 90.549522
1015.419128 1112.132202
1015.449768 4085.998047
1015.480469 8531.088867
1015.511169 11886.244141
1015.54187 11238.191406
1015.57251 7080.120117
1015.60321 3266.519531
1015.633911 871.606506
1032.443481 124.235504
1032.474854 679.137451
1032.506348 1120.750977
1032.537842 1299.931274
1032.569214 1088.379272
1032.600708 640.680298
1032.632202 229.785645
END IONS
