BEGIN IONS
PEPMASS=1053.32
CHARGE=1
MSLEVEL=2
SOURCE_INSTRUMENT=LC-ESI-Hybrid FT
FILENAME=f.novakj/siderophores/Ferri_ferrichrome_A.mzXML;
SEQ=*..*
IONMODE=Positive
ORGANISM=GNPS-LIBRARY
NAME=Ferrichrome A [M+Fe-2H] M+H
PI=Havlicek
DATACOLLECTOR=
SMILES=OCC1NC(C2NC(C3NC(C(NC(=O)CNC(C(NC1=O)CO)=O)CCCN1O[Fe]456([O]=C1\C=C(\CC(O)=O)C)[O]=C(N(O4)CCC2)\C=C(\CC(O)=O)C)=O)=O)=O.C(=[O]5)(N(O6)CCC3)\C=C(\CC(O)=O)C
INCHI=
INCHIAUX=
PUBMED=27956353
SUBMITUSER=novakj
TAGS=
LIBRARYQUALITY=3
SPECTRUMID=CCMSLIB00001059075
SCANS=1
173.496429 2540363.0
288.345367 5457908.0
398.951324 5061111.0
416.961884 5350581.0
436.067596 3192300.0
442.941101 3262634.0
454.078064 3642925.0
460.951752 3490020.0
478.962311 5240921.0
486.915497 5201677.0
486.93103 7713173.0
493.088959 1680201.0
504.941559 5349462.0
505.08902 2238877.0
510.115509 2249201.0
511.099548 1948789.0
522.140747 2419762.0
522.952087 7716593.0
523.099548 4415049.0
530.905273 1938951.0
538.135498 16300275.0
539.138977 3659317.0
540.962646 2283423.0
541.110046 3204310.0
544.004089 31182824.0
545.007507 6879927.0
548.915833 3077877.0
562.014526 2297846.0
566.123657 2107176.0
566.126404 4814143.0
566.130432 74651104.0
566.134949 4944215.0
566.13739 2358294.0
566.140198 2126811.0
567.129456 1955680.0
567.133911 15844221.0
578.130371 2365368.0
583.156921 2719202.0
584.141113 2374463.0
584.152161 1728700.0
587.967834 3026934.0
587.978638 1865814.0
587.993896 29453676.0
587.998718 1871893.0
588.997314 6263231.0
595.156982 2226678.0
605.141296 3120921.0
623.146484 2129382.0
623.152039 34826968.0
623.157349 2459912.0
624.155334 8252267.0
631.983643 9210470.0
632.987122 1890700.0
633.172424 1903065.0
635.151917 11487953.0
636.155579 2698498.0
649.994263 3202329.0
653.162537 12709131.0
653.173523 2680779.0
654.165955 2988546.0
661.167603 4967894.0
675.973572 6755552.0
682.188904 3054493.0
692.17334 18448634.0
693.176758 5305778.0
693.984009 3965885.0
704.173401 3720668.0
710.17688 3130129.0
710.183838 48485724.0
710.190979 3233903.0
711.187256 13212141.0
716.173401 1872782.0
720.168274 2419619.0
722.184021 2932966.0
724.235779 1957102.0
731.184204 3923030.0
732.168335 2310786.0
733.200012 2920171.0
734.183899 8105774.0
735.187317 2710069.0
743.184082 4959108.0
744.168335 9567601.0
745.171692 2422581.0
748.21106 1884941.0
749.194702 6710795.0
750.19812 1884010.0
751.210571 2695597.0
752.194519 3581834.0
753.226074 3682250.0
761.186646 2299655.0
761.194641 36570052.0
761.202942 2344010.0
762.178833 21705216.0
762.187256 1904051.0
762.198242 10617171.0
763.182251 6295439.0
766.220947 2778477.0
769.221313 2661204.0
778.221619 5276753.0
779.192139 1805606.0
779.19696 3733582.0
779.205322 58047848.0
779.213989 3942373.0
779.218628 1709306.0
780.208801 17336998.0
781.211853 1818708.0
783.247681 2237514.0
793.257568 2498972.0
796.231689 5269710.0
797.202148 2381188.0
797.20697 5026498.0
797.216003 77111336.0
797.224915 5536538.0
797.230042 2549670.0
798.210327 2666465.0
798.219482 23383478.0
798.228333 1708710.0
799.222595 2538068.0
801.258606 1764209.0
811.268311 3250087.0
814.24231 5922795.0
822.23645 2050403.0
822.247925 1708101.0
834.236511 9246352.0
835.239441 2969466.0
844.231934 2358120.0
856.231934 2342618.0
861.258545 2647199.0
862.242432 2055147.0
865.289429 1732430.0
873.258667 4511074.0
874.242615 5851491.0
875.245544 2006685.0
879.257874 7287966.0
880.260986 2691390.0
891.269104 11282879.0
892.252808 5899691.0
892.272705 4090172.0
893.256348 2111555.0
909.279419 22558724.0
910.28302 8604467.0
927.277954 3685474.0
927.290222 53593500.0
927.302246 3748098.0
927.309082 1739820.0
928.28186 2233520.0
928.293945 19542020.0
929.296265 3137562.0
948.278931 2791940.0
966.290222 3888425.0
972.279053 2069557.0
973.31073 2395553.0
975.362793 2548408.0
987.290283 2545708.0
989.305786 3036148.0
990.2901 4083115.0
991.321777 3208354.0
993.300537 5724668.0
993.373291 5962135.0
994.304443 4486146.0
994.377747 1911364.0
999.290344 3473219.0
1000.274231 3218470.0
1005.301208 2223060.0
1007.316345 3873602.0
1008.300476 3551952.0
1008.320251 1765594.0
1017.286316 2427354.0
1017.300781 35441176.0
1017.315491 2564509.0
1017.373474 2345920.0
1018.28479 5460654.0
1018.304321 14598126.0
1019.288086 2457551.0
1019.307373 3029166.0
1025.327148 6897328.0
1026.329956 2948882.0
1035.296631 2729117.0
1035.311401 42797540.0
1035.326416 3021990.0
1035.383545 4842960.0
1036.314941 18818248.0
1036.329956 1704900.0
1036.377441 2409993.0
1036.390991 1716737.0
1037.317383 4075625.0
1052.3396 6026371.0
1052.351074 4057134.0
1053.297607 1856454.0
1053.306396 4048934.0
1053.321655 57611376.0
END IONS
