BEGIN IONS
PEPMASS=793.341
CHARGE=1
MSLEVEL=2
SOURCE_INSTRUMENT=LC-ESI-qTof
FILENAME=f.Esposito/E-dendroides-ref/euphodendroidin K.mgf;
SEQ=*..*
IONMODE=Positive
ORGANISM=GNPS-LIBRARY
NAME=euphodendroidin K M+Na
PI=Litaudon and Paolini
DATACOLLECTOR=Esposito
SMILES=C[C@@]1(OC(C)=O)C[C@](O)(C([C@@H](C)/C=C/C(C)(C)[C@H](OC(C)=O)[C@H](OC(C)=O)[C@@H](OC(C2=CC=CC=C2)=O)C([C@@H]3OC(C(C)C)=O)=C)=O)[C@]3([H])[C@H]1OC(C(C)C)=O
INCHI=
INCHIAUX=
PUBMED=
SUBMITUSER=Esposito
TAGS=
LIBRARYQUALITY=3
SPECTRUMID=CCMSLIB00004680129
SCANS=1
69.033295 526.170227
71.04866 1617.014038
77.038506 640.490417
83.04866 481.964508
95.08445 306.437012
105.032951 12975.740234
106.036301 358.515198
107.0849 329.433685
109.100609 983.000427
119.084427 276.961609
123.079483 556.28717
131.083786 293.001495
133.099854 329.599792
135.079086 442.722992
147.079254 452.399506
157.099121 361.271912
159.079086 582.484985
159.115341 432.286987
161.094955 391.83609
171.115356 499.903198
173.094467 349.865204
175.074219 485.060608
175.10994 310.395386
185.09436 311.598694
187.073898 935.69043
187.110306 827.609619
189.1259 547.773926
195.115356 645.547424
197.094772 327.792908
197.126907 371.900085
199.110001 351.440186
201.089081 286.4599
207.114639 475.221008
209.094879 650.655579
209.131271 867.748779
211.10997 369.575409
213.125412 593.836487
215.068756 595.055481
215.104065 432.977997
223.110535 572.273193
223.145645 340.8508
225.125961 476.635406
227.104248 379.290588
227.141708 439.409485
237.126022 948.873779
237.162018 1285.672974
241.120422 650.411682
241.155487 433.040894
247.146179 914.458923
250.133408 307.313202
251.141342 907.56427
253.121094 444.282806
255.13652 655.573792
255.172913 1109.865967
265.157379 8100.660156
266.160767 641.271729
267.135284 374.64859
267.171326 279.955597
269.152283 702.539124
275.141052 823.223572
283.16806 5406.169922
284.171722 455.691315
293.152283 4868.460938
294.155731 398.718109
301.177917 599.662781
311.162903 7778.99707
312.165192 665.172607
325.177948 1208.43103
329.173248 1736.926025
333.144745 1059.619019
343.188782 724.658386
353.173218 883.570679
353.207428 481.969788
371.184174 1289.157959
375.155243 699.61731
381.20401 748.863403
385.19928 1103.904053
387.193207 368.638794
393.166077 949.839417
399.214691 524.490112
403.188538 665.16687
405.201721 277.918304
413.194794 406.458313
415.188599 2280.681885
416.191071 327.03949
421.196533 1461.828003
431.205139 335.842102
433.199249 2033.660034
435.177063 698.230225
437.172272 316.165405
451.208374 316.116302
453.187469 1639.331055
455.181671 445.272308
463.207794 1714.432983
475.210236 366.99231
481.216339 408.191315
493.21936 366.161194
497.191254 287.711609
515.201843 540.41803
521.250916 345.987091
523.228821 4778.26709
524.232056 724.090088
525.223938 400.587189
543.233948 858.977112
551.259644 3168.696045
552.262329 464.383392
575.222046 278.580688
583.251465 1354.703003
583.278809 548.567017
585.243652 1177.771973
603.253601 302.466095
611.281128 21973.820312
612.284119 3372.586914
613.276428 504.607788
623.283142 457.261902
645.264709 2417.233887
646.267883 405.998688
651.313599 617.612671
671.301758 9215.114258
672.305481 1724.646973
673.296448 4901.824219
674.298767 951.743713
705.28656 1353.27002
711.33551 18489.429688
712.338623 3468.684082
733.318237 127556.296875
734.321228 25158.099609
734.459106 335.901886
793.338501 272984.1875
794.342651 49144.191406
794.84259 313.615906
795.064575 288.933899
END IONS
