BEGIN IONS
PEPMASS=898.63
CHARGE=1
MSLEVEL=2
SOURCE_INSTRUMENT=LC-ESI-qTof
FILENAME=f.MSV000079140/ccms_peak/Dark/B2-2 dark/EtOAc/B2-2DE-H13.mzXML;
SEQ=*..*
IONMODE=Positive
ORGANISM=GNPS-LIBRARY
NAME=Dereplicator Identification - E'Champacyclin' M+H
PI=Pieter Dorrestein
DATACOLLECTOR=Liangyu Chen
SMILES=CC[C@H](C)[C@@H]1NC(=O)[C@@H](C)NC(=O)C(NC(=O)[C@@H](CCCCN)NC(=O)[C@@H](NC(=O)[C@@H](NC(=O)[C@@H](CC2=CC=CC=C2)NC(=O)[C@@H](CC(C)C)NC1=O)[C@@H](C)CC)C(C)C)C(C)CC
INCHI=
INCHIAUX=
PUBMED=
SUBMITUSER=chenliangyu
TAGS=
LIBRARYQUALITY=3
SPECTRUMID=CCMSLIB00000839204
SCANS=722
185.129257 500.0
197.166138 368.0
219.15448 448.0
227.176086 916.0
228.170731 432.0
233.168625 560.0
242.190857 1536.0
247.154312 940.0
248.15535 424.0
253.202896 420.0
261.165497 4780.0
262.169556 1120.0
284.203644 1376.0
298.218689 3312.0
299.225403 488.0
301.233673 500.0
324.226074 492.0
327.204681 348.0
329.230682 512.0
332.202301 900.0
341.256104 724.0
352.265259 472.0
355.272644 448.0
360.235474 1556.0
366.282227 636.0
369.285675 1000.0
374.251862 4504.0
375.248657 964.0
383.302643 660.0
389.254913 516.0
397.28952 616.0
400.267334 584.0
409.32135 388.0
411.309143 752.0
412.30426 808.0
417.282928 696.0
425.178711 352.0
426.323334 752.0
428.296783 344.0
431.275574 1356.0
445.291992 3204.0
446.292511 636.0
454.333832 604.0
457.319305 528.0
460.334015 608.0
465.351624 428.0
468.799744 452.0
471.311188 428.0
473.32016 824.0
474.342682 448.0
482.356628 412.0
487.343048 680.0
488.331757 924.0
497.386261 464.0
502.349426 476.0
507.374481 568.0
508.375092 492.0
510.377869 740.0
513.356384 420.0
516.357605 744.0
517.362549 332.0
525.389526 732.0
530.364502 400.0
539.405212 436.0
544.36261 1328.0
545.379578 388.0
558.375854 916.0
559.374756 536.0
573.416077 380.0
587.425842 416.0
601.412903 500.0
602.419983 416.0
615.433838 664.0
620.462341 380.0
627.441284 348.0
638.471252 536.0
639.464539 336.0
643.444336 360.0
644.453918 568.0
657.447693 1164.0
658.450195 384.0
671.462952 380.0
672.458557 1248.0
686.472778 784.0
714.501221 608.0
733.557129 372.0
770.532776 1128.0
771.536194 452.0
785.542725 1180.0
786.541748 568.0
799.561951 444.0
870.63208 1128.0
871.642822 496.0
880.606995 636.0
898.629944 47908.0
899.633362 22840.0
900.637512 7636.0
901.639526 1088.0
END IONS
