BEGIN IONS
PEPMASS=1505.86
CHARGE=1
MSLEVEL=2
SOURCE_INSTRUMENT=DI-ESI-qTof
FILENAME=Plipastatin_1H_LTQ_1505_8577.mzXML
SEQ=*..*
IONMODE=Positive
ORGANISM=GNPS-LIBRARY
NAME=Plipastatin-C17-Val M+H
PI=Dorrestein
DATACOLLECTOR=J Watrous
SMILES=CCC(C)[C@H]1CC(=O)[C@@H](NC(=O)[C@H](NC(=O)[C@H]2CCCN2C(=O)[C@@H](NC(=O)[C@H](NC(=O)[C@H](NC(=O)[C@@H](CC3=CC=C(C=C3)OC1=O)NC(=O)[C@H](CCCN)NC(=O)[C@@H](CCC(=O)O)NC(=O)CC(CCCCCCCCCCCC(C)C)O)C(C)O)CCC(=O)O)C(C)C)CCC(=O)N)CC4=CC=C(C=C4)O
INCHI=N/A
INCHIAUX=N/A
PUBMED=N/A
SUBMITUSER=jdwatrou
TAGS=
LIBRARYQUALITY=3
SPECTRUMID=CCMSLIB00000072180
SCANS=1
446.0 1.501516
460.333344 2.369519
471.333344 1.670405
474.25 1.626397
480.083344 2.016312
493.833344 1.623514
502.0 1.746698
502.333344 5.450813
516.25 1.796437
523.0 2.549378
523.333313 1.886999
539.333313 1.512186
541.333313 1.654866
550.666687 1.521848
563.416687 4.353337
573.666687 1.731274
584.333313 2.289086
589.416687 2.704249
599.25 4.041964
601.333313 2.537205
607.25 4.61936
620.166687 6.975883
620.333313 7.911067
620.583313 4.642113
621.083313 1.549379
634.083313 2.92546
634.333313 2.766891
638.25 1.60917
648.166687 1.634623
652.333313 4.157959
655.416687 2.292931
656.0 2.415751
656.333313 1.793398
662.583313 1.608005
665.25 1.898583
665.5 1.852583
667.0 1.676155
669.416687 1.626725
675.5 2.915342
682.5 1.487945
690.416687 1.51964
700.583313 1.717803
702.5 2.643127
703.5 1.78739
705.416687 3.360772
712.416687 1.745272
712.916687 2.20809
713.25 2.716768
718.083313 3.164146
718.583313 1.620841
719.083313 2.423688
720.166687 3.074241
720.583313 1.790693
722.083313 1.887365
722.333313 1.684206
722.583313 3.556367
723.333313 2.271087
730.5 4.150825
731.416687 5.774633
733.416687 2.223919
738.333313 2.071262
741.166687 2.389345
744.416687 7.385729
747.166687 1.939181
748.083374 3.038548
748.333374 7.46872
749.25 5.087259
751.416687 2.914807
761.5 2.34087
763.416687 2.011642
763.583374 2.058582
764.416687 1.902135
765.25 1.788041
766.25 4.963451
766.583374 3.437593
769.083374 4.377145
769.416687 6.124273
781.416687 1.850093
784.25 2.463317
784.5 1.762728
786.083374 1.4894
787.0 1.611767
795.083374 1.635612
796.333374 3.290759
797.5 3.518968
798.583374 2.045808
803.083374 1.855103
804.833374 2.353101
805.25 2.363287
813.25 2.806955
815.416687 3.666388
816.166687 1.961564
817.416687 1.70962
818.25 2.265039
831.333374 5.654664
831.916687 1.490497
832.25 4.755579
832.666687 1.741565
833.333374 2.698426
834.5 1.854525
838.333374 1.911222
842.166687 1.613547
842.666687 2.275095
843.083374 1.504697
846.25 2.503569
847.166687 2.098574
847.416687 1.54397
849.0 2.199294
849.5 2.490633
851.416687 1.476753
851.666687 1.881898
859.083374 3.076883
859.5 11.449894
860.083374 4.219073
860.416687 4.706574
860.583374 3.263542
862.083374 1.851949
863.25 3.727009
864.25 1.822981
864.666687 1.510987
865.416687 5.300145
865.666687 5.109992
867.416687 1.981987
871.5 1.633923
875.416687 2.439667
875.583374 1.817686
877.25 13.915028
877.75 2.058122
878.083374 3.585469
878.333374 5.372943
878.583374 4.460322
880.5 2.083415
882.916687 2.092696
883.5 28.281586
887.25 1.692265
887.75 1.474963
893.5 2.467986
895.166687 7.636919
895.5 10.581192
895.833374 2.566245
903.416687 1.730702
904.166687 2.16764
905.333374 1.929318
905.5 1.973556
908.75 1.645812
912.666687 2.197758
913.583374 2.370115
914.083374 1.557674
914.416687 1.560561
915.0 1.872809
915.25 2.397968
915.416687 2.681856
915.75 2.113828
922.083374 1.989244
923.083374 1.795801
930.916687 3.720905
931.166687 2.503916
931.5 12.34742
932.083374 1.527143
932.333374 4.274007
933.166687 1.549085
933.333374 2.086871
933.666687 3.078754
934.416687 1.958969
940.5 2.143115
941.333374 8.532714
941.666687 2.307042
944.5 2.008655
948.333374 3.294805
948.5 4.991346
949.333374 16.978998
949.583374 20.689381
950.166687 2.811493
950.5 3.375617
950.666687 1.50969
951.083374 1.760252
951.583374 3.511344
957.916687 1.575301
958.5 10.310223
959.0 6.263591
959.416687 21.587463
962.583374 1.772822
965.583374 2.740105
966.416687 28.911922
973.333374 2.522974
974.25 1.790698
975.75 2.48811
976.5 46.804176
977.416687 57.240913
978.75 1.618778
979.333374 1.834867
979.916687 2.320297
984.5 2.954925
988.25 1.46323
991.5 3.183403
992.25 1.809017
992.666687 2.097555
993.416687 4.060331
994.416687 225.979355
995.666687 3.493471
1004.666687 1.992172
1005.333374 1.793386
1008.333374 2.954306
1009.25 2.388798
1009.583374 4.34236
1012.5 1.531163
1015.333374 1.762923
1021.666687 1.775752
1022.416687 1.902538
1026.166626 1.935207
1034.583374 3.582487
1037.416626 1.551406
1043.25 2.838648
1044.583374 1.647801
1045.333374 2.22522
1046.666626 3.777328
1050.5 1.691652
1052.5 1.462334
1054.916626 1.825302
1062.333374 2.006504
1062.666626 1.90784
1063.583374 3.856627
1064.5 2.439121
1069.25 1.560467
1072.333374 6.474913
1072.583374 2.425443
1072.75 3.206128
1073.416626 19.90473
1074.166626 3.643451
1074.666626 2.550644
1077.5 2.243426
1078.5 1.61933
1080.333374 3.488782
1080.666626 3.564968
1081.583374 1.628835
1083.25 1.535603
1083.75 2.05893
1089.583374 1.513782
1090.166748 3.254245
1090.5 14.444327
1091.583374 30.871574
1092.75 1.461926
1093.166748 1.824046
1099.916748 2.895088
1101.5 2.495475
1102.5 2.585461
1103.416748 1.963493
1104.5 2.726642
1104.75 1.563526
1106.75 2.049557
1107.25 1.744137
1108.5 156.284683
1108.666748 151.401703
1109.166748 5.721556
1109.416748 1.97102
1109.583374 2.273395
1112.5 5.092018
1113.583374 1.624125
1118.583374 2.031509
1121.416748 1.995704
1121.666748 1.9614
1122.75 3.43608
1123.583374 3.862484
1124.0 3.717207
1124.583374 2.296891
1128.916748 1.493956
1134.833374 2.732191
1140.666748 1.473636
1141.25 2.296184
1141.583374 2.459365
1147.666748 2.213972
1150.666748 2.082507
1158.583374 21.853081
1161.333374 1.589642
1163.25 2.047024
1163.583374 2.626398
1163.833374 1.558862
1164.5 1.80071
1173.583374 1.498916
1174.25 2.408957
1176.666748 3.141607
1178.666748 1.476876
1179.666748 1.591048
1181.0 4.685502
1181.416748 1.670853
1181.583374 2.747871
1184.5 1.524148
1186.666748 2.055488
1189.75 1.679519
1193.666748 1.757333
1201.583374 1.784762
1211.166748 2.164005
1212.416748 2.29222
1218.333374 4.353144
1218.75 2.22992
1219.083374 2.284131
1219.5 4.972404
1223.166748 1.756392
1224.25 2.225738
1224.5 1.509816
1229.416748 3.984652
1229.583374 1.978299
1229.833374 3.263055
1232.416748 1.885804
1233.75 2.042955
1237.583374 5.578094
1238.166748 3.273367
1242.333374 2.087402
1243.166748 2.620263
1244.166748 3.423496
1244.666748 5.991529
1244.833374 3.975255
1245.75 1.957819
1246.5 1.888807
1247.083374 1.555967
1249.583374 1.575241
1251.583374 1.929684
1252.333374 2.862329
1256.333374 4.547122
1257.333374 2.405154
1257.583374 1.992348
1259.333374 1.87613
1259.666748 5.927965
1261.166748 4.769465
1261.5 6.954174
1262.083374 2.494149
1262.416748 12.689032
1262.666748 7.335855
1263.416748 2.031774
1272.833374 2.199699
1273.083374 1.50705
1274.416748 3.522767
1274.583374 3.426995
1275.25 2.534323
1275.75 3.870724
1277.083374 1.571663
1277.5 7.322424
1277.75 6.920857
1278.666748 1.544476
1279.333374 4.295976
1279.666748 9.44619
1280.333374 12.822592
1280.833374 12.980838
1291.25 2.016015
1291.416748 1.883156
1291.583374 1.581003
1291.833374 2.196169
1292.166748 1.965303
1292.416748 3.486226
1292.666748 2.465667
1294.833374 1.760624
1295.75 1.523604
1304.666748 1.585293
1306.833374 1.485472
1309.333374 3.625445
1309.75 1.74501
1312.25 1.926734
1312.5 2.179209
1313.083374 1.612851
1321.75 1.713701
1324.833374 2.025586
1325.5 2.070324
1325.666748 1.747482
1327.166748 3.424237
1332.333374 2.537106
1332.666748 2.395152
1338.75 1.646113
1340.0 2.822373
1340.25 1.723961
1342.583374 2.798908
1343.083374 3.117853
1343.416748 5.051714
1345.25 1.960554
1345.416748 1.482351
1349.666748 1.973844
1352.583374 1.653903
1353.916748 2.785649
1355.166748 1.608503
1355.5 2.413913
1355.916748 1.463552
1357.5 2.417047
1358.083374 6.833697
1358.333374 6.656821
1360.75 1.90511
1362.5 2.285198
1364.583374 1.940842
1364.833374 1.60286
1365.083374 1.4968
1370.833374 2.747859
1371.166748 1.748438
1371.583374 5.07111
1371.916748 1.507954
1372.333374 1.827891
1373.583374 5.50747
1373.833374 3.62275
1374.333374 1.836688
1374.75 2.266713
1375.0 1.627956
1376.416748 1.614949
1376.75 2.453516
1378.5 2.832073
1378.833374 2.066609
1379.0 1.757512
1381.666748 1.927277
1385.25 1.837325
1386.333374 2.139692
1387.0 4.203919
1388.25 2.620212
1388.416748 3.005329
1388.75 5.176621
1389.833374 4.635785
1390.333374 3.613769
1390.75 9.286015
1391.166748 4.56734
1391.833374 1.590298
1392.0 2.325004
1394.166748 1.617685
1394.416748 2.233958
1394.666748 2.397384
1400.75 2.034333
1405.166748 2.279235
1406.25 6.277925
1406.5 21.56324
1406.75 28.571241
1407.583374 1.797738
1408.416748 5.12842
1408.666748 3.97745
1409.0 1.867549
1415.583374 2.016698
1416.666748 1.467455
1416.916748 2.241784
1417.666748 3.567962
1418.5 2.039242
1418.833374 1.602287
1425.833374 3.747642
1430.916748 2.348083
1431.75 1.673627
1433.833374 2.045415
1434.916748 4.088127
1441.333374 1.680314
1441.833374 1.629002
1442.166748 3.482217
1442.333374 4.514951
1442.583374 4.887337
1442.75 4.699023
1443.0 4.316292
1443.583374 11.374416
1443.75 12.533522
1444.666748 3.175022
1444.833374 5.097397
1445.166748 2.616029
1451.416748 2.610592
1451.666748 5.094685
1452.0 2.060274
1452.333374 4.526045
1452.583374 6.945053
1452.75 7.279079
1455.833374 1.85998
1459.333374 1.66342
1459.583374 9.296417
1459.75 8.258563
1460.083374 9.277156
1460.25 6.607023
1460.5 12.852934
1460.75 9.670349
1461.0 10.601361
1461.166748 11.725599
1461.666748 29.145529
1465.5 1.673928
1467.166748 3.426093
1468.166748 1.64464
1468.5 2.85667
1469.666748 34.392174
1470.75 84.654091
1471.583374 3.096238
1471.833374 2.082154
1474.166748 2.7397
1474.583374 1.819557
1475.583374 1.527881
1475.916748 2.176939
1476.666748 2.18103
1476.916748 2.622196
1477.833374 63.143536
1478.833374 1.837887
1483.25 4.057434
1483.583374 2.13967
1483.833374 1.736477
1484.166748 2.080519
1485.0 2.827627
1486.916748 18.042938
1487.75 228.322861
1488.75 95.889664
1490.916748 3.226422
1491.416748 1.614971
1494.75 2.621583
1505.916748 1.662417
1551.666748 1.517129
1628.333374 2.764513
1652.166748 2.589181
1912.083374 1.536018
END IONS
