BEGIN IONS
PEPMASS=1403.85
CHARGE=1
MSLEVEL=2
SOURCE_INSTRUMENT=LC-ESI-qTof
FILENAME=f.crath3/Lipids/Figure_S11A.mgf;
SEQ=*..*
IONMODE=Negative
ORGANISM=GNPS-LIBRARY
NAME=Lipid IVa M-H
PI=C. Rath
DATACOLLECTOR=C. Rath
SMILES=O=C(C[C@@H](CCCCCCCCCCC)O)N[C@@H]1[C@H]([C@H](O)[C@@H](CO[C@@H]2O[C@H](CO)[C@@H](OP(O)(O)=O)[C@H](OC(C[C@@H](CCCCCCCCCCC)O)=O)[C@H]2NC(C[C@@H](CCCCCCCCCCC)O)=O)O[C@@H]1OP(O)(O)=O)OC(C[C@@H](CCCCCCCCCCC)O)=O
INCHI=
INCHIAUX=
PUBMED=27681620
SUBMITUSER=crath3
TAGS=Lipid, Lipid IVa is an intermeidate in the Raetz pathway for LPS biosysnthesis in gram negative bacteria.[Chemical Family]
LIBRARYQUALITY=3
SPECTRUMID=CCMSLIB00000840424
SCANS=1
74.591286 23651.240234
96.969917 41957.878906
152.953033 1660.739014
158.926559 46924.269531
176.937454 35662.480469
216.931076 1162.932983
227.202744 8571.057617
242.16243 1679.57605
252.824402 8630.232422
255.234833 10841.860352
267.235077 12067.990234
281.205933 1090.949951
391.214325 1121.207031
448.072327 1984.188965
466.223816 10822.339844
508.234528 9527.396484
526.247314 1340.709961
693.474304 9863.268555
705.458496 8300.541992
710.431763 10409.679688
711.366638 1355.453003
719.488953 2758.053955
720.501953 1308.572021
721.341248 1676.73999
733.509644 15615.389648
734.488037 3180.631104
742.553467 6175.311035
743.555298 9720.688477
744.484314 1044.593994
752.444031 5484.354004
761.542358 8266.058594
773.37262 1108.614014
817.467468 11085.69043
818.453857 1684.902954
835.480164 11076.290039
836.467163 2841.596924
853.487122 9996.883789
854.472412 8513.137695
877.491882 8609.056641
915.443848 8558.800781
963.667175 1454.906982
1043.650513 1973.324951
1044.611694 1319.60498
1061.676392 30501.820312
1062.679077 17611.259766
1063.681396 5682.711914
1064.677002 1405.416992
1079.686035 15457.889648
1080.68335 5230.144043
1081.65979 1652.17395
1141.622925 2743.516113
1142.516968 1610.328003
1159.654175 43382.078125
1160.657715 21075.919922
1161.659668 6768.009766
1162.677124 1903.277954
1181.631836 3922.613037
1182.590942 3416.250977
1183.640747 8110.277832
1305.882568 24318.210938
1306.885254 12918.549805
1307.876831 4880.402832
1308.885864 1625.468994
1385.659424 2119.611084
1386.838623 1790.409058
1401.817017 8338.492188
1403.861206 87301.976562
1404.864746 59835.628906
1405.866333 23748.210938
1406.86792 6717.312012
1407.023071 572.09082
1407.793579 1869.307007
1425.840332 12022.660156
1426.81958 3399.971924
1427.863403 1585.343994
END IONS
