BEGIN IONS
PEPMASS=507.25
CHARGE=1
MSLEVEL=2
SOURCE_INSTRUMENT=LC-ESI-qTof
FILENAME=f.chenliangyu/A1B2 light EtOAc ACN/A1B2-LEA-F5.mzXML;
SEQ=*..*
IONMODE=Positive
ORGANISM=GNPS-LIBRARY
NAME=Antimycin A4 M+H
PI=Dorrestein
DATACOLLECTOR=Liangyu Chen
SMILES=CCCCC1C(C(OC(=O)C(C(OC1=O)C)NC(=O)C2=C(C(=CC=C2)NC=O)O)C)OC(=O)CCC
INCHI=InChI=1S/C25H34N2O9/c1-5-7-10-17-22(36-19(29)9-6-2)15(4)35-25(33)20(14(3)34-24(17)32)27-23(31)16-11-8-12-18(21(16)30)26-13-28/h8,11-15,17,20,22,30H,5-7,9-10H2,1-4H3,(H,26,28)(H,27,31)
INCHIAUX=
PUBMED=3084472
SUBMITUSER=chenliangyu
TAGS=
LIBRARYQUALITY=3
SPECTRUMID=CCMSLIB00000578443
SCANS=1054
136.047241 2096.0
150.058777 524.0
191.089188 4364.0
192.07518 1164.0
209.098984 968.0
220.105408 684.0
230.091232 348.0
236.08757 2080.0
237.095627 17748.0
238.100449 2004.0
251.113022 3008.0
252.116974 544.0
268.140381 640.0
286.153107 12644.0
287.154266 2936.0
288.16394 532.0
300.169189 2268.0
304.165771 752.0
388.219788 568.0
END IONS
