BEGIN IONS
PEPMASS=522.78
CHARGE=2
MSLEVEL=2
SOURCE_INSTRUMENT=LC-ESI-Orbitrap
FILENAME=f.Rolandoo1/20190519 Moroidin paper GNPS/Moroidin-[QLLVWRGGH].mzXML;
SEQ=*..*
IONMODE=Positive
ORGANISM=GNPS-LIBRARY
NAME=Moroidin-[QLLVWRGGH] M+2H
PI=Jing-Ke Weng
DATACOLLECTOR=Roland Kersten
SMILES=O=C1CCC(C(NC(C(NC(CC(C)C)C(NC(C(C)C)C(NC(C(NC(C(NCC(NC2)=O)=O)CCCNC(N)=N)=O)CC3=C(N4C=NC(CC(C(O)=O)NC2=O)=C4)NC5=C3C=CC6=C5)=O)=O)=O)C6C(C)C)=O)N1
INCHI=
INCHIAUX=
PUBMED=
SUBMITUSER=Rolandoo1
TAGS=
LIBRARYQUALITY=3
SPECTRUMID=CCMSLIB00005435922
SCANS=1
72.592125 421.194702
72.592705 749.829285
72.593292 934.177979
72.59388 888.824158
72.594467 624.945923
72.595055 79.236092
73.083115 1228.033569
73.083702 4779.875
73.084297 7172.172852
73.084892 7329.813965
73.08548 5160.459961
73.086075 2301.772217
73.08667 9.016884
74.265511 9.920319
74.266113 1274.797729
74.266724 2387.124023
74.267326 2958.641846
74.267937 2579.685547
74.268539 1463.119385
74.26915 65.374168
75.054573 1188.517578
75.055191 1936.280396
75.055809 2195.275879
75.056419 1811.654175
75.057037 1008.432251
75.057655 51.286282
81.321266 1195.308472
81.32196 2206.770264
81.322655 2678.063477
81.323349 2291.571533
81.324051 1334.724976
81.324745 96.954193
83.536407 491.279022
83.537132 802.724792
83.537857 918.313354
83.538582 837.239807
83.539299 594.802673
83.540024 177.950623
84.035995 226.324066
84.036728 1855.588745
84.037453 2672.163086
84.038185 1779.348267
84.038918 516.319275
84.03965 4285.817383
84.040375 3663.383301
84.041107 7865.067383
84.04184 22289.175781
84.042572 80123.703125
84.043297 250023.953125
84.044029 454805.125
84.044762 624419.4375
84.045494 534852.5
84.046219 330611.3125
84.046951 130882.265625
84.047684 34478.347656
84.048416 8752.329102
84.049141 5417.388184
84.049873 2004.795166
84.050606 0.111278
84.35318 1414.296997
84.353912 2728.628418
84.354645 3459.173584
84.355385 3202.777832
84.356117 2166.178955
84.35685 511.262512
86.089684 381.967072
86.090446 5194.01123
86.091202 12580.856445
86.091957 32218.943359
86.092712 59496.785156
86.093475 85104.375
86.094231 246109.265625
86.094986 830770.6875
86.095749 1717416.75
86.096504 2667799.25
86.09726 2706896.25
86.098015 1795230.75
86.098778 883731.625
86.099533 261254.765625
86.100288 76784.359375
86.101051 54061.675781
86.101807 38025.121094
86.102562 16565.609375
86.103317 3429.815918
86.10408 1.451827
87.097458 2916.9375
87.098228 11346.513672
87.098999 26677.199219
87.09977 42539.492188
87.10054 44940.839844
87.101311 30382.289062
87.102081 13327.594727
87.102852 3397.883789
87.103622 62.14209
89.209953 1438.606079
89.210754 2741.040039
89.211555 3400.259033
89.212349 3071.675781
89.21315 1999.337036
89.213951 224.949036
90.917465 1702.604248
90.918289 2968.060791
90.919106 3433.618164
90.91993 2886.215088
90.920753 1695.95166
90.921577 149.813797
92.326927 478.417053
92.327766 6102.180176
92.328606 16348.554688
92.329453 34189.203125
92.330292 31599.492188
92.331131 21280.316406
92.331978 15494.029297
92.332817 13247.490234
92.333656 9746.143555
92.334496 8981.02832
92.335342 7513.556152
92.336182 4624.706055
92.337021 1749.454102
92.33786 284.760712
92.338707 15.332571
94.051598 1536.946289
94.05246 3020.854736
94.053322 3805.674561
94.054192 3398.301758
94.055054 2080.835449
94.055916 303.848755
95.562309 370.497528
95.563194 784.987427
95.564079 991.013916
95.564964 870.316956
95.565849 532.04187
95.566734 102.441528
102.052727 995.44519
102.053703 2174.743408
102.05468 3253.782227
102.055656 3510.135498
102.056633 2695.648193
102.057617 1342.974365
102.058594 5.369902
110.067993 585.510498
110.069092 3950.182861
110.070183 8553.430664
110.071281 15427.141602
110.072372 14919.033203
110.073471 9545.234375
110.074562 4505.092773
110.075661 1098.301392
112.08255 24.957191
112.083672 1478.293457
112.084801 5901.57666
112.085922 13881.329102
112.087051 24417.101562
112.088173 23766.216797
112.089302 13655.727539
112.090424 6342.373047
112.091553 2040.817139
112.092674 93.114632
121.571144 19.874748
121.572418 1143.871338
121.573692 1829.004639
121.574959 2050.43335
121.576233 1688.00769
121.577499 1000.823608
121.578773 11.720591
123.14061 2191.756592
123.141907 3648.507324
123.143204 4157.837402
123.144501 3437.991455
123.14579 1998.647461
123.147087 81.231102
125.083511 79.943954
125.084839 2498.805176
125.086166 3416.330322
125.087494 3541.448486
125.088821 2679.731934
125.090149 1312.950439
125.092804 18.776211
125.094124 1627.741089
125.095451 2479.446777
125.096779 2726.759277
125.098106 2172.443115
125.099434 1204.127563
125.102089 13.521138
125.103416 1161.491455
125.104744 1947.195312
125.106064 2293.338135
125.107391 1915.30603
125.108719 1061.234497
125.123322 10.735315
125.124649 902.867615
125.125969 1750.718506
125.127296 2198.145264
125.128624 1921.634888
125.129951 1107.841797
125.181732 12.148847
125.18306 958.139526
125.184387 1875.577148
125.185715 6972.250977
125.187042 8936.698242
125.18837 8837.196289
125.189697 6543.207031
125.191025 4031.958252
125.19236 60.76918
125.196342 40.421356
125.19767 998.160767
125.198997 1822.000732
125.200325 2715.1521
125.201653 2974.967041
125.20298 2541.85791
125.204308 2018.467651
125.205643 2632.693848
125.20697 2467.784668
125.208298 3284.761475
125.209625 3887.622559
125.210953 4606.930664
125.21228 5282.95752
125.213608 5987.875977
125.214935 5813.609375
125.21627 4518.609375
125.217598 4155.34082
125.218925 2690.104492
125.220253 1171.319702
125.225571 14.789238
125.226898 1113.032837
125.228226 1954.932983
125.229553 2447.311768
125.230881 2261.656982
125.232208 3059.16333
125.233543 3456.726074
125.234871 4006.82373
125.236198 4335.779297
125.237526 3931.148193
125.238853 2381.361816
125.240189 4801.384277
125.241516 9842.37207
125.242844 14849.000977
125.244171 19704.814453
125.245499 16674.869141
125.246834 12270.808594
125.248161 6105.310059
125.249489 4030.768066
125.250816 5607.325684
125.252144 10986.573242
125.253479 14340.517578
125.254807 16079.236328
125.256134 14373.098633
125.257462 9074.884766
125.258797 5211.635254
125.260124 3761.818115
125.261452 5726.269531
125.262779 7479.530762
125.264107 7490.439453
125.265442 3238.031982
125.266769 514.179871
125.269424 32.648354
125.27076 3973.697266
125.272087 9685.236328
125.273415 14176.515625
125.274742 17476.990234
125.276077 25913.701172
125.277405 24450.849609
125.278732 15443.240234
125.280067 8175.470703
125.281395 4152.913574
125.282722 2614.08252
125.28405 6363.161621
125.285385 9509.490234
125.286713 10628.393555
125.28804 8782.317383
125.289375 5143.004883
125.290703 1168.387573
125.29203 72.676033
125.293358 2421.26416
125.294693 4482.134766
125.296021 6931.260254
125.297348 8614.242188
125.298683 15928.010742
125.300011 21015.238281
125.301338 23313.292969
125.302673 18262.474609
125.304001 18792.849609
125.305328 14470.484375
125.306664 12916.607422
125.307991 8807.46582
125.309319 8289.583984
125.310654 8623.194336
125.311981 9086.264648
125.313309 13761.788086
125.314644 25440.207031
125.315971 32286.994141
125.317299 23627.050781
125.318634 16075.640625
125.319962 10879.195312
125.321289 11099.494141
125.322624 13623.905273
125.323952 17070.746094
125.325279 16054.704102
125.326614 11828.477539
125.327942 7153.038086
125.329277 3902.693359
125.330605 4108.598145
125.331932 4959.970215
125.333267 6797.114258
125.334595 9078.881836
125.335922 8795.860352
125.337257 8613.365234
125.338585 10781.148438
125.33992 13848.288086
125.341248 15293.527344
125.342575 13961.126953
125.34391 11297.342773
125.345238 10080.766602
125.346573 7919.373047
125.3479 11742.707031
125.349236 21750.25
125.350563 23484.025391
125.351891 16778.816406
125.353226 6786.742188
125.354553 3189.14209
125.355888 3844.84375
125.357216 5766.575684
125.358551 4955.955078
125.359879 3587.868408
125.361206 3437.833008
125.362541 6398.054199
125.363869 8633.051758
125.365204 9145.836914
125.366531 11412.0
125.367867 14036.844727
125.369194 16684.857422
125.370529 17226.951172
125.371857 16744.943359
125.373184 19832.308594
125.374519 14924.46875
125.375847 10774.198242
125.377182 7970.32373
125.37851 4172.955078
125.379845 90.75396
125.381172 1254.360474
125.382507 4032.195557
125.383835 7078.21875
125.38517 13079.926758
125.386497 22193.6875
125.387833 23974.806641
125.38916 16386.990234
125.390495 7585.745605
125.391823 4109.650879
125.393158 7715.084473
125.394485 12172.915039
125.395821 14385.408203
125.397148 6206.111816
125.398483 2664.6875
125.399811 2254.995605
125.401146 6880.010742
125.402473 10526.779297
125.403809 9119.079102
125.405144 6198.891602
125.406471 4047.27417
125.407806 3257.981445
125.409134 5548.653809
125.410469 9058.395508
125.411797 9783.338867
125.413132 8793.682617
125.414459 6703.15625
125.415794 4454.562012
125.417122 1975.288574
125.418457 782.97699
125.419792 1323.993164
125.42112 1854.407227
125.422455 3039.792236
125.423782 3696.892334
125.425117 3877.665527
125.426445 5190.079102
125.42778 6512.623047
125.429115 9459.474609
125.430443 10569.458984
125.431778 9288.419922
125.433105 5396.932129
125.434441 2923.261719
125.435776 78.346855
125.437103 455.877136
125.438438 927.177307
125.439766 1492.909058
125.441101 1821.675659
125.442436 2433.679932
125.443764 2851.256104
125.445099 2830.844482
125.446426 2320.958008
125.447762 1088.109375
125.470413 1504.871826
125.471748 2998.614258
125.473076 3784.58374
125.474411 3052.30542
125.475746 1375.048462
125.477074 4.79833
128.472351 26.815386
128.473724 1680.853394
128.475113 3098.399414
128.476486 3664.437988
128.477875 2949.965332
128.479248 1502.234985
128.480637 34.486954
129.061172 120.308983
129.062576 1722.682861
129.063965 7076.432129
129.065353 13892.333984
129.066742 17180.583984
129.06813 13590.619141
129.069519 7325.38623
129.070908 1826.567627
129.072296 735.030884
130.567368 44.900997
130.568771 1479.870361
130.57019 2300.762695
130.571609 2509.441406
130.573013 1923.448975
130.574432 944.69519
130.747208 1109.985229
130.748627 2956.983398
130.750046 4714.980957
130.751465 8505.27832
130.752884 11319.255859
130.754303 10281.212891
130.755707 8834.881836
130.757126 9451.788086
130.758545 7019.024902
130.759964 6047.262695
130.761383 3925.512451
130.762802 1414.879028
130.764221 68.253609
132.886719 158.957535
132.888168 2055.718018
132.889633 3136.194824
132.891083 3354.864014
132.892532 2588.55957
132.893982 1314.007812
140.139923 150.944702
140.141495 1478.146118
140.143066 3063.741455
140.144653 4015.83667
140.146225 3648.647949
140.147797 2193.402588
142.62326 58.804592
142.624878 1652.47168
142.62648 2923.929199
142.628098 3406.454834
142.629715 2783.462646
142.631332 1509.709351
142.63295 15.810977
154.807739 136.566727
154.80957 1010.568787
154.811386 1924.042114
154.813217 2254.408203
154.815048 1748.190674
154.816879 801.607788
156.071976 495.850677
156.073822 3946.408691
156.075668 7491.528809
156.077515 9461.597656
156.079361 8465.800781
156.081223 5306.072754
156.083069 2044.387329
156.815979 198.368469
156.817841 2185.134033
156.819702 3242.699463
156.821564 3471.163818
156.823425 2664.302002
156.825287 1302.291992
159.926392 209.91124
159.928299 1862.431885
159.930222 3630.115967
159.932144 5055.336426
159.934052 5105.671875
159.935974 3827.025146
159.937897 1966.44043
168.134109 397.500793
168.136169 2081.979492
168.138245 3083.793213
168.140305 3454.806396
168.14238 2856.560791
168.14444 1417.906982
169.345795 91.858887
169.347885 638.09259
169.349976 1047.86377
169.352066 1209.394409
169.354156 1011.533813
169.356247 553.837952
170.06691 296.94339
170.069016 1937.409668
170.071106 3437.121094
170.073212 4063.984131
170.075317 3353.398682
170.077423 1750.905518
185.15477 1549.841064
185.157166 13642.430664
185.159546 53151.964844
185.161942 121845.617188
185.164337 187445.125
185.166718 202994.734375
185.169113 146908.84375
185.171494 76719.640625
185.173889 25632.546875
185.176285 6597.378418
185.178665 1983.209717
186.162216 656.948547
186.164627 2797.429932
186.167023 4272.299805
186.169434 4660.259766
186.171844 3654.786865
186.174255 1709.769775
192.112732 588.746155
192.115265 2121.599365
192.117783 2960.713623
192.120316 2997.94458
192.122833 2216.261475
192.125366 983.334534
196.157166 523.774231
196.15976 1918.923828
196.162369 2788.298584
196.164978 2902.598145
196.167587 2222.448486
196.170181 1013.506287
197.481949 145.009338
197.484589 618.278992
197.487213 957.256531
197.489853 1035.180298
197.492477 776.085632
197.495117 336.55014
202.745087 639.832947
202.747818 2253.894043
202.750565 3140.742432
202.753296 3287.106934
202.756027 2536.291992
202.758774 1167.328735
213.150513 1010.757812
213.153458 5237.543945
213.156418 12026.186523
213.159363 17513.855469
213.162323 17910.445312
213.165268 13068.456055
213.168213 6444.575684
213.171173 1416.938599
221.605896 1142.557251
221.609024 2981.508301
221.612152 3766.486084
221.61528 3553.022461
221.618408 2404.790771
221.621536 860.90271
221.743591 393.754364
221.746719 1274.266846
221.749863 1983.177734
221.752991 2070.996826
221.756119 1426.219727
221.759247 496.393341
231.149963 463.485626
231.153305 1519.498169
231.156631 2526.929688
231.159958 2879.157471
231.1633 2309.68042
231.166626 927.78418
231.403427 1032.875977
231.406769 2518.749023
231.41011 3151.250732
231.413437 2971.51416
231.416779 2001.494507
231.42012 723.357849
237.801407 219.156784
237.804886 660.343689
237.808365 992.969788
237.811829 1031.953369
237.815308 759.6922
237.818787 298.084717
243.860672 1062.323608
243.864288 2962.799805
243.867905 4605.517578
243.871506 5513.29248
243.875122 5055.126953
243.878738 3471.163818
243.882339 1292.609009
270.106689 603.736694
270.110901 2693.878174
270.115112 5235.843262
270.119324 6679.614746
270.123535 6179.984375
270.127747 4186.305664
270.131958 1679.47998
270.136169 259.487915
288.511414 1158.63269
288.516083 2149.092041
288.520721 2465.794434
288.52536 2068.89917
288.529999 1284.786133
288.534668 262.455078
289.149078 697.86969
289.153748 2042.383423
289.158386 3411.427734
289.163055 3962.82251
289.167725 3318.757324
289.172394 1923.283081
289.177032 390.827393
302.234711 775.781433
302.239685 1778.182251
302.244659 2294.876221
302.249664 1988.298218
302.254639 1198.705078
302.259613 233.016159
303.499146 384.199097
303.50415 820.84198
303.509155 1039.790894
303.514191 913.551086
303.519196 542.214661
303.5242 126.320808
308.169739 1157.341431
308.174866 2120.734131
308.179993 2617.697266
308.18512 2422.700928
308.190247 1569.072754
308.195374 270.144073
315.659393 1001.001404
315.664734 2311.817139
315.670044 3027.31665
315.675354 2607.104736
315.680664 1460.56543
315.686005 205.554001
330.681976 1266.467773
330.687683 2471.48291
330.69339 2854.401367
330.699097 2060.082275
330.704773 802.536377
330.71048 71.23587
332.652161 4313.613281
332.657928 16883.460938
332.663666 34785.816406
332.669434 49386.976562
332.675171 43349.300781
332.680939 26174.423828
332.686676 10114.017578
332.692444 2098.979736
332.698212 136.015533
334.19931 929.77179
334.205109 1873.947266
334.210907 2324.176758
334.216705 1952.892456
334.222504 1092.452637
334.228271 110.668526
336.669159 575.466736
336.675018 5482.200684
336.680878 14450.897461
336.686737 25785.228516
336.692596 27229.371094
336.698456 21284.65625
336.704315 12146.734375
336.710175 4376.743164
336.716034 463.349213
338.651825 2708.207031
338.657745 8305.878906
338.663635 18526.259766
338.669556 26345.003906
338.675476 23408.701172
338.681366 13684.667969
338.687286 5855.375
338.693207 523.85321
342.339478 1566.511353
342.34549 3210.932861
342.351471 4011.715576
342.357483 3238.485352
342.363495 1530.106323
342.369507 121.595894
343.121582 950.710571
343.127625 2361.321289
343.133636 3673.560547
343.139679 4100.327637
343.145691 3348.970459
343.151733 1930.137207
343.157745 175.245895
345.191986 2817.948242
345.19809 5848.735352
345.204163 7943.533203
345.210236 7507.23291
345.216339 4861.963379
345.222412 1150.800293
345.228485 63.406494
345.679016 723.238953
345.68512 3236.343018
345.691193 6313.907715
345.697296 7818.150879
345.7034 6608.744141
345.709473 3776.729004
345.715576 265.473846
346.197601 941.125305
346.203705 2814.639893
346.209808 4508.503418
346.215912 5036.322754
346.222015 4238.920898
346.228119 2690.034912
346.234253 241.211746
347.158508 1406.66333
347.164642 4936.907715
347.170776 16396.691406
347.17691 33154.375
347.183044 48824.59375
347.189178 44345.835938
347.195312 25901.683594
347.201447 10749.230469
347.207581 2622.460205
347.213715 146.518387
347.668121 968.630005
347.674286 3852.436768
347.68042 6720.043945
347.686584 7923.882324
347.692719 6826.080078
347.698853 4224.749512
347.705017 1132.831055
347.711151 59.400055
350.674805 4039.716309
350.68103 8729.333984
350.687286 12390.25
350.693512 12370.042969
350.699738 8459.179688
350.705963 3378.109375
350.712189 208.534454
351.1922 3584.165039
351.198456 6690.48291
351.204681 8491.749023
351.210938 8057.424805
351.217163 5729.63623
351.223419 2120.068115
351.229645 107.299805
359.182739 908.461548
359.189209 4056.050293
359.195679 6776.39502
359.202118 7511.345703
359.208588 5912.519531
359.215027 3128.565674
359.221497 120.938042
359.673798 917.357666
359.680267 2314.021729
359.686737 4110.89502
359.693207 5282.808594
359.699677 5207.005371
359.706146 3986.04541
359.712616 2271.422852
359.719086 856.336914
359.725555 18.606548
361.166046 1225.88147
361.172546 3091.2771
361.179077 4822.894043
361.185577 5223.402832
361.192078 3942.193848
361.198608 1975.426636
361.205109 33.703854
363.678223 974.905396
363.684784 2494.843018
363.691376 4215.873047
363.697937 4927.800781
363.704529 3999.487549
363.71109 2146.905273
363.717682 652.156311
363.724243 17.823626
365.182251 1714.927856
365.188873 6953.377441
365.195465 13207.986328
365.202087 16776.355469
365.20871 15822.657227
365.215332 8192.692383
365.221954 1996.927612
365.228577 61.91161
365.672394 894.760193
365.679016 3198.011963
365.685669 9664.597656
365.692291 19069.208984
365.698914 25342.847656
365.705536 20191.419922
365.712189 13145.001953
365.718811 5837.407227
365.725433 754.711426
365.732086 23.222691
366.688965 904.779236
366.695618 2061.296143
366.702271 3132.39209
366.708923 3474.612549
366.715576 2784.977051
366.72226 1458.098145
366.728912 25.457474
370.676056 2429.065918
370.6828 3900.297363
370.689575 4345.196777
370.69635 3332.83374
370.703125 1568.692871
370.709869 15.008997
373.233551 653.542786
373.240387 1018.456116
373.247253 1140.425537
373.254089 943.768616
373.260925 536.873108
373.267761 23.055002
373.685211 3.260933
373.692078 754.144043
373.698914 6834.900879
373.70578 16397.939453
373.712616 30745.953125
373.719482 32732.248047
373.726318 21820.753906
373.733185 10585.72168
373.740021 2987.258057
373.746887 96.091141
374.178864 746.255188
374.18573 4977.756348
374.192596 16834.195312
374.199463 35953.078125
374.206329 55539.335938
374.213196 55198.527344
374.220062 35435.847656
374.226929 16545.183594
374.233795 3573.220703
375.672607 17.595001
375.679504 2850.414795
375.686432 4312.673828
375.693329 5062.952148
375.700226 4395.764648
375.707123 2619.138672
378.191437 31.801157
378.198395 1695.9021
378.205383 2497.634766
378.212341 2953.658203
378.21933 2905.677246
378.226288 2266.076172
378.233276 1283.597534
379.667206 57.113049
379.674225 2741.743896
379.681213 8992.238281
379.688232 19978.091797
379.695251 28663.443359
379.702271 27281.171875
379.70929 17250.175781
379.716309 5435.778809
379.723328 765.380432
381.19397 59.921581
381.201019 3022.963867
381.208069 5793.17627
381.215118 7960.720703
381.222198 8123.815918
381.229248 5984.232422
381.236298 2913.423584
381.243347 794.259094
382.162598 7.523377
382.169678 1456.491211
382.176758 7783.505371
382.183868 39933.503906
382.190948 118652.109375
382.198029 205360.515625
382.205109 269408.625
382.212189 220055.15625
382.219269 130449.726562
382.226379 49148.328125
382.233459 12374.098633
382.24054 2726.625732
382.673157 60.41925
382.680267 1027.990845
382.687347 8028.491211
382.694458 21620.3125
382.701538 34972.316406
382.708649 39698.109375
382.715759 28764.392578
382.722839 13692.166016
382.72995 4106.743164
382.73703 774.358948
386.693695 42.97646
386.700897 995.063782
386.708099 2153.653076
386.715302 3301.357178
386.722534 3773.68335
386.729736 3180.473389
386.736938 1771.924561
388.168762 100.4021
388.176025 2719.772705
388.183289 21512.066406
388.190521 64524.507812
388.197784 117055.867188
388.205048 157221.078125
388.21228 132472.15625
388.219543 76000.664062
388.226807 30405.396484
388.234039 7471.648926
388.241302 1806.046143
388.67688 107.855415
388.684143 2707.190918
388.691406 12270.458984
388.698669 24299.09375
388.705933 32093.552734
388.713226 26034.71875
388.72049 13961.679688
388.727753 4261.315918
388.735016 1099.505371
391.695099 85.796921
391.702454 1464.346924
391.709808 2340.652344
391.717163 2614.758789
391.724518 2119.884277
391.731873 1236.869141
392.180695 75.863304
392.18808 1555.380249
392.195435 5600.70166
392.202789 9300.555664
392.210175 10831.375977
392.217529 8798.535156
392.224884 4614.916016
392.232269 906.772766
392.689331 161.04184
392.696716 2894.967529
392.704071 7044.342285
392.711456 10841.957031
392.718842 11404.265625
392.726227 8215.604492
392.733612 3755.053955
393.672516 148.320511
393.679932 2522.922852
393.687347 4745.127441
393.694733 5721.587402
393.702148 4528.141602
393.709564 2111.814941
396.674316 335.626129
396.681824 4807.453613
396.689301 19171.964844
396.696808 77305.460938
396.704285 220721.765625
396.711792 371470.5625
396.719269 468040.75
396.726776 363969.28125
396.734253 209627.515625
396.74176 71412.367188
396.749237 18301.753906
396.756744 5355.76416
396.764221 1485.697632
397.184204 261.391205
397.191711 5347.032715
397.199219 23611.591797
397.206726 56292.496094
397.214233 88096.164062
397.221741 96097.867188
397.229248 68469.632812
397.236755 36538.398438
397.244263 10004.332031
397.25177 1578.432861
399.210938 247.217758
399.218506 4540.066406
399.226074 9682.639648
399.233643 12720.306641
399.241211 11077.68457
399.248779 6339.623047
399.256317 2006.274536
400.68985 217.408691
400.697449 3749.143555
400.705078 9933.869141
400.712677 21464.386719
400.720276 33750.363281
400.727875 30258.902344
400.735504 15025.787109
400.743103 5668.123535
400.750702 759.206177
401.192261 177.905289
401.19989 3300.148926
401.20752 8672.119141
401.215118 11969.513672
401.222748 12154.788086
401.230377 9484.974609
401.238007 5390.560059
401.245605 1004.223816
401.680359 182.901688
401.687988 3608.641113
401.695648 7962.297852
401.703278 11369.351562
401.710907 11281.282227
401.718536 7623.088867
401.726166 1926.924561
402.659241 463.541199
402.666901 4636.414551
402.674561 20730.302734
402.68222 68494.09375
402.68988 138492.0
402.69754 203646.671875
402.7052 200959.5
402.71286 129831.109375
402.72052 63109.449219
402.72818 18092.888672
402.73587 4649.536133
403.165344 337.694916
403.173035 1913.255615
403.180725 8071.765137
403.188385 20525.154297
403.196075 32454.779297
403.203735 36145.117188
403.211426 27383.902344
403.219086 14831.963867
403.226776 2832.564209
406.688446 574.394043
406.696228 6237.182617
406.70401 20693.429688
406.711792 41052.824219
406.719543 57718.953125
406.727325 50681.820312
406.735107 29756.117188
406.742889 11729.324219
406.750671 2795.88501
407.716919 369.917969
407.724701 4524.456055
407.732513 7923.630859
407.740326 13134.819336
407.748138 13228.136719
407.755951 8690.429688
407.763763 2862.594238
407.771545 1132.855103
408.209137 188.79158
408.216949 2583.097656
408.224792 7193.384766
408.232605 14445.380859
408.240417 18576.685547
408.24826 15691.43457
408.256073 9425.647461
408.263885 3755.923096
408.733612 153.808853
408.741455 1886.21582
408.749268 3394.145752
408.757111 3751.217529
408.764954 2863.21167
408.772797 1488.391479
409.699066 169.460739
409.70694 2070.419922
409.714783 4314.90625
409.722656 6097.5625
409.73053 6164.068359
409.738373 4546.849121
409.746246 2311.346191
413.204773 192.924957
413.212738 2015.415894
413.220703 3714.591064
413.228668 4882.49707
413.236633 4650.067383
413.244598 3136.031006
413.252563 1368.013184
413.714966 269.489899
413.722931 2765.561768
413.730927 3979.338379
413.738892 4394.52002
413.746887 3620.943115
413.754852 1933.376099
414.69812 296.664185
414.706146 2954.09375
414.714142 4082.523438
414.722168 4063.737061
414.730164 2998.292725
414.73819 1476.415405
415.203064 301.356323
415.21109 3255.469238
415.219116 6127.989746
415.227142 10195.246094
415.235168 10405.206055
415.243195 8304.3125
415.25119 4462.552734
415.259216 1628.071899
415.700897 295.850616
415.708923 3366.187988
415.716949 8793.511719
415.725006 12998.734375
415.733032 13755.069336
415.741058 10234.710938
415.749115 5020.442871
415.757141 851.546692
416.175446 170.540115
416.183502 1672.880127
416.191559 3150.593262
416.199615 4145.134766
416.207642 3506.654785
416.215698 1485.791016
416.223755 1029.109131
416.231812 5256.714355
416.239868 10253.724609
416.247925 14277.50293
416.255951 7152.303711
416.264008 1866.836792
416.658905 89.394814
416.666962 1731.590698
416.675018 13853.579102
416.683075 43071.480469
416.691162 75614.601562
416.699219 95420.648438
416.707275 72939.507812
416.715332 38322.566406
416.723419 13938.99707
416.731476 8956.119141
416.739532 14033.412109
416.74762 18227.396484
416.755676 14558.521484
416.763733 8967.333984
416.77182 3461.982178
417.175476 117.025505
417.183563 1313.577026
417.19165 2793.125244
417.199738 4080.046143
417.207794 4415.662109
417.215881 3538.757324
417.223969 2019.867065
417.232056 744.311829
420.679626 59.984417
420.687805 3341.246582
420.695984 18690.585938
420.704163 45115.457031
420.712341 69850.921875
420.72052 77867.390625
420.728699 57066.367188
420.736877 30554.453125
420.745087 10156.097656
420.753265 2556.063965
421.187317 173.900848
421.195526 1934.374023
421.203705 6835.245117
421.211914 11485.710938
421.220093 16144.759766
421.228302 10276.139648
421.236511 5784.289551
421.24469 1380.146851
421.712372 382.141174
421.720581 4008.232178
421.72879 12310.44043
421.737 22621.130859
421.745209 29361.824219
421.753418 22843.160156
421.761627 11058.670898
421.769867 2488.403076
422.205475 240.762939
422.213715 2698.600586
422.221954 9234.203125
422.230164 17841.246094
422.238403 22462.804688
422.246613 19056.875
422.254852 11671.650391
422.263092 4773.927246
422.271301 413.939087
426.198486 153.289352
426.206818 1277.140869
426.215179 2552.494873
426.223511 3215.859863
426.231873 2855.226807
426.240204 1722.582764
427.377289 151.883636
427.385651 1491.307495
427.394043 2509.204346
427.402405 2914.288086
427.410797 2490.97168
427.419159 1445.360474
429.192596 45.549412
429.201019 2784.58667
429.209442 13118.904297
429.217865 34934.113281
429.226318 59030.835938
429.234741 72814.15625
429.243164 53932.964844
429.251617 29593.533203
429.26004 8682.424805
429.268463 1213.285278
429.682007 26.690845
429.69043 1289.264282
429.698883 9577.306641
429.707336 33379.503906
429.71579 60697.988281
429.724243 83206.882812
429.732666 74665.507812
429.741119 46206.007812
429.749573 19667.271484
429.758026 3234.996826
430.197632 329.085724
430.206085 3251.199463
430.214539 8777.69043
430.223022 13020.385742
430.231476 13141.771484
430.239929 6902.865234
430.248413 2427.368164
430.256866 775.570679
430.705719 212.786346
430.714203 3317.314697
430.722656 15614.118164
430.73114 51278.980469
430.739624 103083.023438
430.748108 151124.40625
430.756561 143242.90625
430.765045 88715.328125
430.773529 38980.320312
430.782013 9682.917969
430.790497 1781.836426
431.180756 152.035614
431.18924 1433.617065
431.197723 3497.319824
431.206207 4690.679688
431.214691 3620.337158
431.223206 1557.856567
431.231689 3333.168457
431.240173 14473.050781
431.248657 23528.955078
431.257172 28735.798828
431.265656 19364.099609
431.274139 8763.570312
431.282623 1600.267212
435.715698 673.483276
435.724335 5582.632324
435.732941 11408.050781
435.741577 16852.320312
435.750183 20125.552734
435.75882 11920.091797
435.767456 5422.469727
435.776062 760.222595
436.199036 123.78331
436.207672 1509.429077
436.216309 6891.741699
436.224945 15925.545898
436.233582 22810.832031
436.242218 21882.042969
436.250885 14716.136719
436.259521 7081.29541
436.268158 1928.541138
438.210052 689.292908
438.21875 5622.600098
438.227448 9921.485352
438.236145 12288.6875
438.244843 10803.797852
438.25354 6168.053711
438.262238 1099.343628
438.714966 371.898529
438.723663 3269.688965
438.732391 8611.967773
438.741119 13466.947266
438.749817 14852.569336
438.758545 12077.790039
438.767242 7007.989258
438.77597 1759.02832
440.725861 197.314301
440.73465 1370.65918
440.743408 2238.415771
440.752197 2651.834229
440.760956 2175.145996
440.769745 1028.883545
443.192627 641.684937
443.201477 5635.106445
443.210327 16579.677734
443.219177 30821.769531
443.228027 38871.707031
443.236877 29959.193359
443.245728 12638.821289
443.254578 3052.123535
443.263428 524.022705
443.679596 5.305782
443.688477 2798.781494
443.697327 16270.462891
443.706207 40543.566406
443.715057 65426.976562
443.723907 75533.992188
443.732788 57636.371094
443.741638 31219.414062
443.750519 11633.99707
443.759369 2485.238037
444.682648 614.512085
444.691528 3376.255371
444.700439 8447.076172
444.70932 17001.658203
444.718201 65627.117188
444.727112 193605.34375
444.735992 370479.53125
444.744904 518765.6875
444.753784 486423.4375
444.762665 305431.75
444.771576 142832.03125
444.780457 41281.742188
444.789368 12830.577148
444.798248 6021.730469
444.807159 2296.382324
444.81604 14.070429
445.198792 39.854061
445.207703 745.343018
445.216614 6204.336426
445.225525 25936.869141
445.234436 63727.292969
445.243347 104091.507812
445.252258 120482.570312
445.261169 85076.703125
445.27005 44662.019531
445.278961 13064.623047
445.287872 2482.80957
449.225128 305.522766
449.234161 1968.435913
449.243195 3458.125977
449.252228 5018.243652
449.261261 6116.774414
449.270264 5576.594727
449.279297 2725.581543
449.28833 1393.572021
449.713043 171.103134
449.722076 1182.865112
449.73114 2526.150879
449.740173 3483.520752
449.749207 3303.357666
449.75827 2130.751709
449.767303 816.190063
452.173706 526.31604
452.1828 4072.564697
452.191925 15595.292969
452.20105 70461.179688
452.210175 241163.734375
452.219269 573118.8125
452.228394 896593.25
452.237518 1018388.6875
452.246643 740611.4375
452.255768 403494.71875
452.264893 130386.554688
452.273987 37589.203125
452.283112 15090.229492
452.292236 7567.016602
452.301361 392.800446
452.684692 90.637772
452.693817 2548.693115
452.702942 18769.376953
452.712097 68937.328125
452.721222 156243.53125
452.730347 236401.15625
452.739471 253161.40625
452.748627 177335.578125
452.757751 93014.242188
452.766876 28653.041016
452.776031 7307.896484
452.785156 2513.428223
453.214844 443.873047
453.223999 5587.111328
453.233124 24720.998047
453.242279 69687.992188
453.251434 122911.367188
453.26059 161079.875
453.269745 134862.390625
453.27887 78056.242188
453.288025 28968.876953
453.29718 5498.227051
453.306335 718.553101
453.7276 599.41687
453.736755 5059.942871
453.745911 14887.765625
453.755096 23542.904297
453.764252 26012.904297
453.773407 17187.789062
453.782593 8911.771484
453.791748 1875.501587
456.600372 121.689613
456.609619 841.337708
456.618866 1225.652954
456.628143 1251.946777
456.63739 922.924805
456.646637 445.529022
457.193024 757.599976
457.202301 4663.507324
457.211578 8846.370117
457.220856 11166.943359
457.230103 9581.985352
457.23938 5358.614746
457.248657 1497.051025
457.684692 199.9991
457.694 1875.101685
457.703278 6432.144531
457.712555 11217.485352
457.721832 13444.399414
457.73114 8848.55957
457.740417 4425.170898
457.749695 459.531189
458.214386 1580.839844
458.223663 4760.022949
458.232971 13545.307617
458.242279 24444.753906
458.251587 36611.960938
458.260864 34579.921875
458.270172 22627.216797
458.27948 11187.427734
458.288788 3291.935547
458.698364 564.625
458.707703 4768.291504
458.71701 18868.84375
458.726318 50317.824219
458.735626 87527.742188
458.744965 114305.460938
458.754272 93174.40625
458.76358 52177.640625
458.772919 20292.492188
458.782227 4318.135254
458.791534 300.052307
459.201813 197.225464
459.211151 3070.944336
459.220459 13766.570312
459.229797 33942.664062
459.239136 52635.351562
459.248474 58502.957031
459.257782 42718.949219
459.26712 22504.947266
459.276459 6510.430176
459.285797 955.282227
463.221466 371.58194
463.230896 3133.965332
463.240356 10632.797852
463.249817 22153.925781
463.259277 31648.386719
463.268738 31062.908203
463.278168 20284.96875
463.287628 9595.170898
463.297089 2462.469727
463.732361 718.065247
463.741821 4070.213867
463.751282 6116.369629
463.760773 6839.532715
463.770233 5636.841797
463.779694 2841.446777
465.689117 11.867676
465.698639 1887.620239
465.708191 9627.249023
465.717712 35516.21875
465.727234 72657.835938
465.736755 106292.671875
465.746307 107282.195312
465.755829 70907.640625
465.76535 34001.8125
465.774902 8138.128906
465.784424 1163.502197
466.175476 446.359711
466.185028 4345.169434
466.19455 19778.572266
466.204102 80953.109375
466.213654 216163.28125
466.223206 371080.875
466.232758 473034.3125
466.242279 393097.71875
466.251831 230409.765625
466.261383 93452.0
466.270935 26011.53125
466.280487 8351.660156
466.290009 3489.661865
466.691284 750.96698
466.700836 6942.557129
466.710388 26417.210938
466.71994 57403.820312
466.729523 84947.890625
466.739075 86602.5
466.748627 57684.464844
466.758209 27477.134766
466.767761 6854.77002
466.777313 1676.624878
467.207916 401.326538
467.217499 3957.332031
467.227081 18470.658203
467.236664 55272.339844
467.246216 108623.742188
467.255798 154955.390625
467.265381 149334.171875
467.274963 95544.554688
467.284546 45175.53125
467.294098 11541.999023
467.30368 1545.019897
467.715851 98.012405
467.725433 1599.610474
467.735016 8291.129883
467.744629 19720.037109
467.754211 29464.751953
467.763794 31417.603516
467.773407 23196.638672
467.78299 12666.192383
467.792572 4060.706055
471.226685 434.717194
471.236359 2511.191895
471.246063 5310.32959
471.255768 9698.129883
471.265472 11157.582031
471.275177 6263.289062
471.284882 3198.463623
471.294586 932.251465
471.74115 653.969543
471.750885 3707.002441
471.76059 6896.317871
471.770294 9267.633789
471.780029 9488.485352
471.789734 7416.970215
471.799469 4084.969482
471.809174 893.667908
472.227295 1251.856445
472.23703 6273.789551
472.246765 18723.90625
472.2565 34767.398438
472.266235 47435.554688
472.27594 39519.515625
472.285675 24242.984375
472.29541 9910.573242
472.305145 2489.827637
472.743439 333.791382
472.753174 2666.4729
472.762909 8086.307617
472.772675 13529.599609
472.78241 15876.112305
472.792175 13894.380859
472.80191 9173.293945
472.811646 3893.748291
473.192078 457.237823
473.201843 4603.443359
473.211578 18243.367188
473.221344 47604.175781
473.23111 81434.828125
473.240875 97787.789062
473.250641 75123.5
473.260406 39776.980469
473.270172 14183.617188
473.279938 4049.786133
473.289703 1023.817871
473.709778 572.199829
473.719574 4509.112793
473.72934 11871.646484
473.739105 17675.466797
473.748901 17930.9375
473.758667 11463.205078
473.768433 3372.595703
473.778229 413.773315
477.219238 596.434082
477.229126 4718.257812
477.239014 15674.96875
477.248901 30396.507812
477.258789 40474.945312
477.268677 37312.796875
477.278564 23896.164062
477.288452 10677.639648
477.29834 2239.712891
477.733673 466.008759
477.743591 2300.113037
477.753479 3399.742676
477.763397 3451.878662
477.773285 2493.063965
477.783203 1156.499756
480.238525 486.476776
480.248505 2531.984863
480.258484 4446.861816
480.268463 5318.29834
480.278442 4542.804688
480.288422 2784.888428
480.298401 1204.650146
480.30838 209.305664
481.217957 1733.860474
481.227966 10646.644531
481.237976 28410.714844
481.247986 48248.878906
481.257996 61033.84375
481.268005 44399.410156
481.278015 23695.158203
481.288025 6362.894531
481.718842 733.474365
481.728851 4680.373047
481.738892 12015.234375
481.748901 19417.347656
481.758942 22116.609375
481.768951 17464.689453
481.778992 9873.894531
481.789001 2612.332275
485.723602 378.325897
485.733734 5265.914551
485.743896 19230.154297
485.754059 51967.085938
485.764191 90583.195312
485.774353 119481.289062
485.784515 100839.0625
485.794647 57973.539062
485.80481 21421.447266
485.814972 3969.305664
485.825104 253.451782
486.221344 875.679932
486.231506 7300.256836
486.241669 24747.751953
486.251862 57370.855469
486.262024 91939.890625
486.272186 103417.5
486.282349 73709.5625
486.292511 39116.605469
486.302673 12306.025391
486.312866 1597.992676
486.730042 381.312836
486.740234 4658.933105
486.750427 22839.816406
486.76059 60541.628906
486.770782 100569.46875
486.780975 127582.773438
486.791138 107114.984375
486.801331 63421.335938
486.811523 24814.025391
486.821686 4874.652344
487.249756 796.595947
487.259949 4402.69873
487.270142 10431.827148
487.280334 17625.613281
487.290527 17007.289062
487.300751 10450.084961
487.310944 4212.393066
487.321136 995.310791
490.746063 645.029358
490.756378 3016.226318
490.766663 4692.919922
490.776978 4784.045898
490.787292 3229.025879
490.797607 1248.614014
491.220581 459.030365
491.230896 2275.893066
491.241241 5150.986328
491.251556 9571.647461
491.261871 10598.97168
491.272186 7616.057617
491.282532 3972.41626
491.292847 1256.894531
493.219025 464.185577
493.229431 3124.959717
493.239807 8783.603516
493.250183 15916.712891
493.26059 20521.761719
493.270966 14740.601562
493.281342 6694.092773
493.291748 1636.637939
494.228058 916.915466
494.238464 4081.483887
494.248871 6263.640625
494.259308 7137.387207
494.269714 5977.512207
494.280151 3435.03833
494.290558 931.793396
494.749359 467.747345
494.759796 1902.951904
494.770233 2483.326416
494.78067 2629.083008
494.791107 2229.777344
494.801544 1198.364868
499.711517 387.799957
499.722107 3713.182129
499.732697 18624.521484
499.743286 65370.367188
499.753906 148887.78125
499.764496 227493.734375
499.775085 247967.125
499.785675 179205.671875
499.796265 94880.195312
499.806854 30616.076172
499.817444 7067.293945
499.828064 577.635437
500.209717 207.935852
500.220337 2289.36792
500.230927 12575.389648
500.241547 43819.351562
500.252167 94332.195312
500.262756 139542.15625
500.273376 146029.359375
500.283997 101634.25
500.294586 52248.582031
500.305206 16949.326172
500.315826 4107.437012
500.337036 524.506836
500.347656 2009.431152
500.358276 2240.013672
500.368866 2313.823975
500.379486 2034.480347
500.390106 1184.013306
500.549347 440.41748
500.559967 1879.345703
500.570587 3813.173096
500.581207 6820.414062
500.591827 7378.476562
500.602448 7006.243164
500.613068 5472.26416
500.623688 2718.335938
500.644928 526.775085
500.655548 2311.004639
500.666168 3669.739014
500.676788 4150.182129
500.687408 3449.34668
500.698029 1785.487061
500.719269 610.602234
500.729919 2813.043945
500.74054 5653.577148
500.75116 12388.584961
500.76178 24023.359375
500.7724 29021.533203
500.78302 23636.71875
500.793671 13107.535156
500.804291 4594.077637
500.836182 915.903931
500.846802 4484.898438
500.857422 8482.506836
500.868042 11930.171875
500.878693 12810.885742
500.889313 11708.289062
500.899933 9419.451172
500.910583 7518.461426
500.921204 5685.892578
500.931824 2961.72876
500.942474 2112.218018
500.953094 4099.281738
500.963715 8753.238281
500.974365 15306.650391
500.984985 17294.572266
500.995636 13968.170898
501.006256 8059.572266
501.016876 5967.445312
501.027527 9156.924805
501.038147 15549.307617
501.048798 14124.47168
501.059418 9177.019531
501.070068 5486.780762
501.080688 6413.095215
501.091339 7039.881836
501.101959 9963.848633
501.11261 19307.626953
501.12323 27396.074219
501.133881 28278.158203
501.144531 22731.332031
501.155151 21636.660156
501.165802 20535.626953
501.176422 22478.990234
501.187073 25733.064453
501.197723 32768.765625
501.208344 37359.527344
501.218994 33215.4375
501.229614 25750.046875
501.240265 19646.511719
501.250916 16952.976562
501.261566 15389.369141
501.272186 14695.670898
501.282837 17397.328125
501.293488 21219.09375
501.304108 14698.677734
501.314758 8855.21582
501.325409 10928.209961
501.33606 16465.919922
501.34668 19477.412109
501.35733 21222.886719
501.367981 32988.761719
501.378632 42386.421875
501.389282 44332.535156
501.399902 40599.226562
501.410553 30049.914062
501.421204 16708.587891
501.431854 7935.696777
501.442505 4295.23291
501.453156 9202.581055
501.463806 14990.952148
501.474457 20660.988281
501.485107 23781.990234
501.495728 20575.478516
501.506378 11261.417969
501.517029 6949.062988
501.527679 12233.291016
501.53833 19178.597656
501.548981 17684.875
501.559631 10470.838867
501.570282 5404.115723
501.580933 4147.791016
501.591583 5036.925293
501.602234 10870.167969
501.612885 13102.069336
501.623566 8797.258789
501.634216 6972.572754
501.644867 12386.97168
501.655518 22422.455078
501.666168 28451.9375
501.676819 29475.947266
501.687469 21522.171875
501.69812 13207.978516
501.708771 9092.699219
501.719452 7400.501953
501.730103 5674.92627
501.740753 9035.431641
501.751404 11625.339844
501.762054 13420.189453
501.772736 12642.954102
501.783386 9173.383789
501.794037 4962.925293
501.804688 3633.885986
501.815369 1697.735107
501.826019 909.451233
501.83667 327.927124
501.911316 137.59201
501.921967 680.656311
501.932617 1631.873535
501.943298 3479.388184
501.953949 4503.833008
501.96463 4571.727051
501.975281 3559.88208
501.985931 1763.341797
505.222168 731.554504
505.23291 2863.336426
505.243683 3863.669434
505.254456 4072.983398
505.265228 3318.744141
505.276001 1663.679565
508.685516 493.249207
508.696411 3879.19043
508.707275 11743.623047
508.71817 18525.044922
508.729034 36290.910156
508.739929 127379.9375
508.750793 371604.09375
508.761688 750989.1875
508.772552 1076713.75
508.783447 1073247.75
508.794312 711858.625
508.805206 352046.625
508.816101 106038.09375
508.826965 32805.988281
508.83786 17711.447266
508.848755 9964.289062
508.859619 2515.209473
509.18631 102.671883
509.197205 874.047729
509.208099 2796.55127
509.218994 4939.877441
509.229889 10809.495117
509.240784 35332.980469
509.251678 107234.859375
509.262573 223452.921875
509.273468 327791.96875
509.284363 336674.84375
509.295258 227344.078125
509.306183 114021.890625
509.317078 31860.615234
509.327972 6353.392578
509.338867 2289.275879
513.71582 864.971375
513.726868 6950.523438
513.737915 29309.251953
513.748901 77584.859375
513.759949 131961.375
513.770996 164335.5625
513.782043 131166.859375
513.793091 73291.421875
513.804138 26485.759766
513.815186 6489.743652
513.826233 726.992981
514.22406 2336.372314
514.235107 10648.616211
514.246155 30626.597656
514.257202 55817.191406
514.26825 73995.304688
514.279297 62999.820312
514.290405 36959.960938
514.301453 14144.069336
514.3125 2192.078613
515.220581 435.374969
515.231689 2551.107666
515.242798 5784.30127
515.253845 7526.310059
515.264954 7350.285645
515.276062 5493.348633
515.287109 2570.557129
518.227722 516.484741
518.238892 2200.42627
518.250061 3662.518066
518.26123 4298.549805
518.272461 3485.538574
518.28363 1581.921997
522.119873 118.800568
522.131226 803.47345
522.142517 2326.599854
522.153809 4358.010254
522.165161 6084.237305
522.176453 5946.339844
522.187744 3825.125
522.199097 1700.002319
522.210388 201.539017
522.233032 412.442963
522.244324 2741.567871
522.255676 8661.213867
522.266968 17674.148438
522.27832 23324.384766
522.289612 18201.035156
522.300903 9331.637695
522.312256 2826.102783
522.674622 2014.032715
522.685974 15261.829102
522.697266 76207.585938
522.708618 198245.65625
522.719971 332733.21875
522.731262 912432.75
522.742615 2990341.5
522.753967 7137660.5
522.765259 11540092.0
522.776611 13640999.0
522.787964 10603585.0
522.799316 5929432.0
522.810608 2202349.75
522.82196 620018.0
522.833313 255224.703125
522.844604 191769.8125
522.855957 80595.804688
522.86731 23573.814453
522.878662 0.704112
523.173523 2550.779541
523.184875 13237.850586
523.196228 34442.863281
523.207581 68310.148438
523.218933 100227.585938
523.230286 214244.53125
523.241638 711452.5625
523.252991 1807855.625
523.264343 3140421.5
523.275635 3999351.5
523.286987 3385313.5
523.29834 1997818.25
523.309692 844631.1875
523.321045 240694.71875
523.332397 93571.835938
523.34375 69676.304688
523.355103 36576.621094
523.366455 13730.454102
523.377808 2161.75415
542.242615 303.52121
542.254578 3346.720459
542.266541 10627.100586
542.278503 17298.263672
542.290466 20765.367188
542.302429 18503.185547
542.314453 11645.99707
542.326416 4053.881592
570.231934 562.599609
570.244873 3467.598877
570.257751 9543.552734
570.270691 17796.185547
570.283569 23727.044922
570.296509 19986.1875
570.309387 10790.582031
570.322327 4636.008789
570.335266 1337.813599
650.279175 919.686768
650.294922 2306.9375
650.310669 2989.75708
650.326355 2789.129883
650.342102 1820.387573
650.357849 584.562866
664.274902 691.970947
664.291138 4714.375488
664.307373 11951.510742
664.323608 17850.576172
664.339844 17476.517578
664.356079 11329.287109
664.372314 4302.897461
664.38855 620.317444
672.284973 574.750854
672.301514 1742.589355
672.318054 2808.073975
672.334595 3028.708496
672.351074 2189.237305
672.367615 721.535217
676.269409 1215.255005
676.286072 5596.339355
676.302734 16012.301758
676.319458 26650.599609
676.336121 28403.126953
676.352783 21086.689453
676.369446 10778.742188
676.386169 3726.721436
676.402832 758.048889
693.29303 1347.166504
693.310364 6950.914551
693.327698 17394.226562
693.344971 30884.623047
693.362305 36530.847656
693.379578 28096.113281
693.396912 14503.069336
693.414246 5597.868164
693.431519 1334.094727
709.316833 1176.142212
709.334778 2947.209717
709.352661 4085.716553
709.370605 3930.924316
709.388489 2603.075684
709.406433 762.326477
710.321045 1206.859009
710.338989 2737.802734
710.356934 3665.032471
710.374878 3637.949707
710.392822 2534.537598
710.410767 773.332336
741.294067 513.896545
741.313232 1660.081177
741.332336 3173.399658
741.351501 4259.066406
741.370667 4110.5625
741.389771 2840.682617
741.408936 1352.612305
741.428101 299.215729
746.314331 740.880859
746.333679 2050.438232
746.352966 3270.412842
746.372314 3619.575684
746.391663 2794.653564
746.411011 1407.067627
746.430359 312.173553
757.121033 904.565491
757.140747 2145.348633
757.160522 2855.476074
757.180298 2670.083496
757.200012 1838.470581
757.219788 505.126221
758.347229 1301.768677
758.367004 3016.986328
758.386841 4002.626221
758.406616 3768.518066
758.426453 2470.762939
758.446228 650.77771
759.298584 918.981628
759.31842 5708.441895
759.338257 13398.015625
759.358093 20813.660156
759.377991 21440.839844
759.397827 15279.986328
759.417664 7223.929688
759.4375 1525.817627
763.34198 993.622986
763.362 2512.125
763.381958 3690.466064
763.401978 3958.162354
763.421997 3207.022949
763.441956 1918.494751
763.461975 490.972626
769.295898 995.560547
769.316101 2450.593262
769.336365 3420.814209
769.356567 3369.940186
769.376831 2392.937988
769.397034 659.138733
771.343384 1998.133789
771.363708 5397.42627
771.384033 9044.666016
771.404358 11074.319336
771.424622 9840.473633
771.444946 6090.007812
771.465271 1504.099731
775.319702 1697.566406
775.340149 5743.433105
775.360657 15015.112305
775.381104 25616.509766
775.401611 28986.564453
775.422058 22039.982422
775.442505 10967.638672
775.463013 3777.789795
775.483459 641.984619
776.344238 623.959534
776.364746 1870.077759
776.385254 3095.286377
776.405762 3435.962646
776.42627 2620.238525
776.446777 1321.284302
776.467285 286.702545
786.346497 1166.331299
786.367432 2441.814209
786.388306 3127.067871
786.409241 2968.366455
786.430176 2010.514282
786.45105 476.797089
787.267273 976.404663
787.288208 4652.028809
787.309204 19277.595703
787.330139 42631.023438
787.351074 66859.101562
787.372009 69646.375
787.393005 49037.609375
787.41394 24519.089844
787.434875 7566.706055
787.455811 1066.343628
788.315613 1426.274292
788.336609 3811.726562
788.357544 5806.708496
788.37854 6216.219727
788.399536 4988.196289
788.420532 3090.642578
788.441528 938.227295
792.339417 1522.403687
792.360596 6422.606934
792.381714 19119.542969
792.402893 36433.117188
792.424011 47751.394531
792.44519 41195.214844
792.46637 25394.523438
792.487488 9587.048828
792.508667 1750.647217
793.376709 831.846558
793.397888 2137.508301
793.419067 3005.730225
793.440247 2746.547363
793.461487 1570.556152
793.482666 446.208923
799.600403 1788.387939
799.621826 4229.263184
799.64325 5916.42627
799.664673 6056.811035
799.686157 4759.300781
799.707581 2894.767334
799.729004 902.741821
804.251465 954.752197
804.273071 3344.199219
804.294678 9001.963867
804.316345 24933.476562
804.337952 74500.828125
804.359558 154789.859375
804.381226 235446.734375
804.402832 245981.90625
804.4245 176196.890625
804.446106 87899.789062
804.467773 26889.880859
804.48938 3786.265381
804.511047 502.121246
805.312195 1602.040649
805.333862 8278.099609
805.35553 19544.378906
805.377197 32853.539062
805.398865 39709.773438
805.420532 32040.353516
805.4422 17342.736328
805.463928 5049.086426
805.485596 98.415764
815.285095 2404.741211
815.30719 9555.645508
815.329224 18230.115234
815.351318 24765.033203
815.373413 23410.714844
815.395447 15545.143555
815.417542 6505.712891
815.439636 1681.96228
815.461731 231.452774
816.323547 1446.781616
816.345642 2833.31665
816.367737 3349.433594
816.389893 2776.459229
816.411987 1545.873291
816.434082 459.79187
829.371094 1364.98999
829.393738 3286.370361
829.416382 4714.644531
829.439026 4608.019043
829.46167 2951.895752
829.484314 612.157166
832.277588 2615.63623
832.300354 12759.578125
832.32312 48556.066406
832.345886 110542.859375
832.368652 182281.671875
832.391418 207417.484375
832.414246 158914.203125
832.437012 87366.367188
832.459778 31329.707031
832.482544 6314.99707
832.50531 551.538635
833.30304 1130.051025
833.325867 7388.570312
833.348694 15570.386719
833.37146 22534.830078
833.394287 22843.236328
833.417114 16861.228516
833.439941 9009.15625
833.462708 2538.061768
833.485535 253.977249
841.343872 1266.037231
841.367004 3207.929932
841.390137 4984.640625
841.41333 5578.135742
841.436462 4470.619629
841.459595 2444.909668
841.482727 474.973053
848.352417 2044.112793
848.375854 5554.227051
848.399292 10894.477539
848.422729 12348.268555
848.446167 8794.691406
848.469604 4631.586914
848.493042 897.216797
857.37384 1618.699341
857.397644 4699.365723
857.421448 8267.625977
857.445251 10387.043945
857.469055 8771.055664
857.492859 5532.813965
857.516663 2161.237549
857.540527 319.996094
858.350647 796.59552
858.374512 6944.48877
858.398376 19526.341797
858.42218 33861.871094
858.446045 37711.519531
858.46991 26338.34375
858.493713 12007.933594
858.517578 3325.706299
858.541443 518.424255
885.36853 920.717102
885.393555 3985.270996
885.418518 7566.312012
885.443481 9773.261719
885.468506 9394.490234
885.493469 6676.047852
885.518433 2741.908203
885.543457 664.573975
886.318542 557.922729
886.343567 4363.223633
886.368591 17293.925781
886.393616 38598.800781
886.41864 61263.628906
886.443665 67097.125
886.468689 50156.082031
886.493713 26392.939453
886.518738 7917.29248
886.543762 796.052612
887.345215 733.344849
887.3703 2279.139893
887.395386 5770.596191
887.42041 8814.626953
887.445496 8672.931641
887.470581 5902.423828
887.495667 2895.216797
887.520691 761.003662
899.422363 1286.652466
899.447937 2575.588867
899.473511 3174.73999
899.499084 2782.381348
899.524658 1736.545288
899.550232 515.002502
903.296875 2902.475098
903.322632 7791.289551
903.348389 18198.017578
903.374146 50747.519531
903.399841 147537.328125
903.425598 289722.96875
903.451355 422736.09375
903.477112 416692.5
903.502869 286019.09375
903.528625 134025.609375
903.554382 36707.226562
903.580139 4105.318848
903.605896 36.624767
904.353271 1864.672729
904.379028 9857.652344
904.404846 33002.136719
904.430603 65906.429688
904.456421 93513.710938
904.482178 90653.875
904.507996 60628.925781
904.533813 26619.525391
904.55957 5898.584473
904.585388 301.936676
905.463135 1367.296997
905.488953 2710.973389
905.514771 3316.626465
905.540649 2812.275146
905.566467 1648.860352
905.592285 263.077637
913.368286 1130.007812
913.39447 3181.18335
913.420654 4956.04541
913.446838 5155.584961
913.473022 3751.181641
913.499207 1893.908569
913.525391 281.624756
914.337524 1654.150269
914.363708 8477.319336
914.389954 16880.1875
914.416138 23674.201172
914.442383 22607.84375
914.468567 14992.630859
914.494812 5976.58252
914.521057 791.590088
915.360779 742.032532
915.387024 2174.370605
915.413269 5797.79541
915.439575 7774.621094
915.46582 7747.453125
915.492065 6395.974609
915.518372 4125.714844
915.544617 650.881042
916.412048 1711.15271
916.438354 3526.920654
916.464661 4571.165039
916.490967 4128.598145
916.517273 2546.070801
916.543579 603.507263
917.359741 656.767822
917.386108 5876.170898
917.412476 24472.753906
917.438782 50182.675781
917.465149 73687.0625
917.491516 73061.039062
917.517883 51027.441406
917.544189 23993.203125
917.570557 7290.179688
917.596924 701.474487
918.41449 2407.761719
918.440918 6345.680664
918.467285 9804.999023
918.493652 10268.574219
918.520081 7585.234863
918.546448 3955.667969
918.572876 1028.113647
931.241455 1054.958252
931.268372 4370.166016
931.295349 7665.957031
931.322266 12901.099609
931.349243 30229.773438
931.37616 93529.007812
931.403137 224110.484375
931.430054 387477.5625
931.457031 476729.0625
931.484009 389887.15625
931.510925 229211.484375
931.537903 87603.75
931.56488 18515.685547
931.591797 2002.421387
932.32019 318.842285
932.347168 3997.942139
932.374207 17096.130859
932.401184 48832.617188
932.428162 89864.8125
932.4552 119632.789062
932.482178 104998.757812
932.509155 64733.761719
932.536194 25315.029297
932.563171 3354.561523
932.59021 70.3246
943.43158 1459.716553
943.459045 3035.977051
943.486511 3698.375732
943.514038 3038.566162
943.541504 1705.928711
943.56897 372.448547
945.330322 2528.478516
945.35791 6208.633789
945.385437 20864.914062
945.413025 64209.480469
945.440613 118132.359375
945.46814 155419.875
945.495728 129663.796875
945.523254 77950.1875
945.550842 28709.349609
945.57843 6052.440918
945.606018 444.903595
946.378479 1462.639648
946.406067 7376.528809
946.433716 16307.84668
946.461304 25911.775391
946.488892 21913.984375
946.516541 13936.115234
946.544128 6541.609375
946.571716 1393.613281
961.378662 1672.098755
961.406921 6607.678711
961.435181 23499.40625
961.46344 48962.320312
961.491699 73920.679688
961.52002 74211.34375
961.548279 51045.652344
961.576538 22760.992188
961.604797 5022.41748
961.633118 316.242401
962.425293 2091.497559
962.453613 4702.265137
962.481934 7072.820312
962.510254 7879.456543
962.538574 6408.626465
962.566895 3501.063477
962.595154 439.650665
1049.513916 541.600708
1049.546143 1003.504395
1049.578491 1204.642944
1049.610718 1058.497437
1049.642944 682.36145
1049.675171 64.991013
END IONS
