BEGIN IONS
PEPMASS=728.46
CHARGE=1
MSLEVEL=2
SOURCE_INSTRUMENT=LC-ESI-Ion Trap
FILENAME=f.yuhaobing/sponge samples/MD-728.mzXML;
SEQ=*..*
IONMODE=Positive
ORGANISM=GNPS-LIBRARY
NAME=microcolin D (desacetylmicrocolin A) M+Na
PI=Gerwick
DATACOLLECTOR=Haobing Yu
SMILES=CN(C([C@H](C)C[C@H](C)CCCC)=O)[C@@H](CC(C)C)C(N[C@@H]([C@@H](C)O)C(N(C)[C@@H](C(C)C)C(N1[C@H](C(N2C(C=C[C@@H]2C)=O)=O)C[C@H](O)C1)=O)=O)=O
INCHI=
INCHIAUX=
PUBMED=14994189
SUBMITUSER=yuhaobing
TAGS=
LIBRARYQUALITY=3
SPECTRUMID=CCMSLIB00005435662
SCANS=494
248.833282 28100.0
317.250854 12132.0
328.037964 6482.0
346.254211 73583.0
348.305176 11128.0
361.158264 54223.0
365.289062 43769.0
376.929443 21802.0
377.633301 2.0
378.26355 5429.0
403.335205 5208.0
404.6604 17806.0
405.296753 121456.0
406.0 1.0
413.147217 17497.0
423.499634 19678.0
434.09668 28766.0
436.324097 22166.0
440.223938 5157.0
447.163635 16016.0
448.428711 32196.0
456.900757 49600.0
457.749939 4.0
474.399963 60842.0
486.985413 20282.0
487.599976 1.0
503.527527 12323.0
518.008545 93888.0
518.800049 1.0
521.423584 54312.0
528.087402 41226.0
539.100586 31258.0
539.733276 1.0
543.365356 135069.0
544.099976 4.0
547.453613 12280.0
569.160645 43497.0
575.265869 99199.0
576.026245 85261.0
587.417236 4188611.0
588.474854 421022.0
589.089111 1089.0
603.197754 83125.0
604.589111 20285.0
612.867188 29314.0
628.37793 165803.0
629.088867 3.0
630.752319 59366.0
631.370483 4742273.0
632.291016 353492.0
633.155518 12.0
655.980713 11374.0
666.559082 130880.0
667.602295 26931.0
672.422607 1080908.0
673.327271 106461.0
674.069336 2494.0
683.689331 58228.0
684.384521 3547983.0
685.414551 667103.0
691.985596 7375.0
710.375488 686399.0
711.450806 142996.0
712.283325 4.0
729.533813 28875.0
END IONS
