BEGIN IONS
PEPMASS=1126.61
CHARGE=1
MSLEVEL=2
SOURCE_INSTRUMENT=LC-ESI-Ion Trap
FILENAME=f.RReher/CUM13APR19-2_H4_22.mzXML;
SEQ=*..*
IONMODE=Positive
ORGANISM=GNPS-LIBRARY
NAME=Kurahamide M+Na
PI=Caro-Diaz
DATACOLLECTOR=Marie and Wildelis
SMILES=CCCC(=O)N[C@@H](C)C(=O)N[C@@H]([C@@H](C)OC(=O)[C@H](C)NC(=O)CCC)C(=O)N[C@H]1[C@H](OC(=O)[C@@H](NC(=O)[C@@H](N(C(=O)[C@@H](N2C(CC[C@@H](C2=O)NC(=O)/C(=C\C)/NC1=O)O)CC3=CC=CC=C3)C)CC4=CC=C(C=C4)O)C(C)C)C
INCHI=
INCHIAUX=
PUBMED=102231215
SUBMITUSER=RReher
TAGS=
LIBRARYQUALITY=3
SPECTRUMID=CCMSLIB00005436079
SCANS=270
385.339478 35021.0
413.260986 39795.0
421.139771 32997.0
431.178467 77432.0
482.29895 13156.0
498.227112 52972.0
499.215942 22101.0
507.240112 14212.0
526.110474 52339.0
526.72644 6.0
543.452881 44064.0
559.345215 74459.0
572.151611 275812.0
572.787109 17.0
590.130615 19246.0
607.232788 50558.0
626.043579 24267.0
629.286743 17016.0
642.289062 31652.0
657.486328 63644.0
660.3396 190652.0
673.377441 140354.0
686.118408 7190.0
691.529175 104367.0
697.103516 10910.0
720.538086 10566.0
743.195801 48029.0
744.053589 126517.0
772.067993 15171.0
804.478271 186540.0
806.419189 182469.0
816.543213 13757.0
824.131958 12725.0
832.401001 440857.0
850.30542 1007763.0
851.147705 31.0
868.255371 78593.0
905.59082 59798.0
923.530762 1146446.0
924.18811 24.0
931.527954 109064.0
939.384888 70562.0
940.063232 1.0
949.498779 1234105.0
965.070679 11173.0
966.459961 189946.0
967.530762 30991208.0
968.537109 1.0
979.200562 23140.0
985.280762 38827.0
991.442627 44750.0
995.344604 18161.0
1009.418823 2121012.0
1010.383057 1.0
1012.929688 47355.0
1013.602783 21334.0
1025.625 45026.0
1027.265137 369541.0
1028.165039 7.0
1080.225342 23099.0
1082.824219 11833.0
1098.033447 90099.0
1098.638184 47893.0
1107.651855 162737.0
1108.427246 4145150.0
1126.495605 298304.0
1127.105957 2.0
END IONS
