BEGIN IONS
PEPMASS=521.258
CHARGE=0
MSLEVEL=2
SOURCE_INSTRUMENT=LC-ESI-qTof
FILENAME=f.chenliangyu/A1B2 LIGHT ETOAC/A1B2-LE-D3.mzXML;
SEQ=*..*
IONMODE=Positive
ORGANISM=GNPS-LIBRARY
NAME=Antimycin A3 M+H
PI=Dorrestein
DATACOLLECTOR=Liangyu Chen
SMILES=CCCCC1C(C(OC(=O)C(C(OC1=O)C)NC(=O)C2=C(C(=CC=C2)NC=O)O)C)OC(=O)CC(C)C
INCHI=1S/C26H36N2O9/c1-6-7-9-18-23(37-20(30)12-14(2)3)16(5)36-26(34)21(15(4)35-25(18)33)28-24(32)17-10-8-11-19(22(17)31)27-13-29/h8,10-11,13-16,18,21,23,31H,6-7,9,12H2,1-5H3,(H,27,29)(H,28,32)/t15-,16+,18-,21+,23+/m1/s1
INCHIAUX=
PUBMED=
SUBMITUSER=chenliangyu
TAGS=
LIBRARYQUALITY=3
SPECTRUMID=CCMSLIB00000531507
SCANS=1035
136.048492 1556.0
164.04184 3296.0
191.088699 1572.0
192.089188 332.0
219.087967 432.0
237.095901 25576.0
238.099533 3736.0
247.080978 980.0
265.09082 11220.0
266.094879 1668.0
521.317139 1008.0
522.311401 512.0
END IONS
