BEGIN IONS
PEPMASS=705.288
CHARGE=1
MSLEVEL=2
SOURCE_INSTRUMENT=LC-ESI-qTof
FILENAME=f.Esposito/SyntheseEuphorbia/pure compounds/oxetanabeodendroidine F.mgf;
SEQ=*..*
IONMODE=Positive
ORGANISM=GNPS-LIBRARY
NAME=oxetanabeodendroidin F M+Na
PI=Litaudon and Paolini
DATACOLLECTOR=Esposito
SMILES=O=C1C([C@H]2OC(C(C)C)=O)[C@@H](OC(C)=O)[C@](C)(O3)C[C@@]13[C@H](/C=C/C(C)(C)[C@H](OC(C)=O)[C@H](OC(C)=O)[C@@H](OC(C4=CC=CC=C4)=O)C2=C)C
INCHI=
INCHIAUX=
PUBMED=
SUBMITUSER=Esposito
TAGS=
LIBRARYQUALITY=3
SPECTRUMID=CCMSLIB00003740019
SCANS=1
51.030647 12.97778
55.026421 71.947563
55.04034 10.14676
55.062607 55.31731
55.07021 11.52337
57.041687 113.965698
57.046932 14.27117
57.049667 16.819139
57.078575 55.800869
59.057961 48.923618
67.063133 92.902748
67.069832 18.405649
69.042747 254.707397
69.050156 51.552521
69.059288 10.73791
69.066208 13.8396
69.079033 156.439407
69.085648 21.14423
69.09407 12.84551
69.101654 13.38748
70.082283 12.43681
71.058311 386.697113
71.066093 50.624668
71.075188 43.376259
71.082596 18.43285
71.094742 12.18314
77.047401 294.390106
77.054817 46.213131
77.063957 29.72588
77.072449 21.877041
79.06337 66.181557
79.071808 20.66898
81.04229 41.193691
81.04911 12.94231
81.079781 165.384705
81.087997 35.602322
81.096863 25.96913
81.106514 11.31966
83.019279 127.619797
83.026863 18.06743
83.037003 13.46718
83.058578 254.445999
83.067825 32.85014
83.075729 30.669411
83.083038 19.387039
83.094391 86.426521
83.104675 10.2478
83.113075 18.308029
84.098892 12.76458
85.038116 137.521194
85.055328 11.04778
85.073463 34.515209
85.089157 10.09081
86.041405 11.19114
91.062943 53.038631
91.070564 10.51063
93.079735 150.620499
93.088707 19.056219
93.098969 13.50966
95.05912 105.651299
95.069443 17.247009
95.081322 15.12785
95.095131 208.024094
95.101822 20.05139
95.105621 13.64277
95.113655 25.1765
97.038834 33.18462
97.075432 88.718948
97.084541 14.82739
97.093948 13.50366
97.111038 38.328529
99.053818 76.767036
99.063499 14.35485
101.07119 19.630131
103.063095 32.220421
103.070251 10.93085
105.043365 4193.679199
105.052139 429.520905
105.06295 372.780792
105.071548 184.991302
105.079155 280.897308
105.08847 115.9478
105.098228 59.065121
105.105232 75.23687
105.114761 21.57395
105.239655 18.53273
105.424988 10.91739
106.046814 77.423752
106.075531 11.71574
107.059509 112.039101
107.095367 419.702606
107.105453 59.64027
107.11525 31.490179
107.122154 28.73691
107.129753 17.7162
107.140427 11.54905
108.098831 10.44956
109.038368 27.06901
109.075706 131.571396
109.084511 21.41251
109.095108 12.76555
109.110985 217.126007
109.120552 52.588211
109.13166 23.34437
109.139877 13.98646
111.052681 172.261795
111.062531 23.749729
111.071121 17.251751
111.089424 45.443138
111.097397 12.42833
113.070641 80.655167
113.080788 14.64744
113.091171 11.7969
117.080032 102.014503
117.089668 12.49602
119.058884 79.544922
119.069267 17.16279
119.095367 135.421494
119.105957 13.82486
119.115616 18.91993
121.039955 25.66457
121.0755 223.399002
121.082794 18.680269
121.09169 11.11825
121.111832 173.320404
121.121643 35.645119
121.132965 23.80658
121.142632 10.06916
123.054756 105.967598
123.075142 13.93385
123.090515 254.951599
123.100967 43.828621
123.111801 12.07868
123.124062 23.11985
123.132561 19.08182
125.031616 22.95933
125.070244 373.745911
125.080872 72.218697
125.091682 31.685471
125.106209 90.845833
125.117661 22.21468
125.127907 11.03446
127.049103 49.49464
127.062622 36.35976
127.074936 17.64904
127.084259 20.72732
128.072906 28.63274
129.080627 106.081398
129.09198 15.50458
129.101547 15.74121
131.095718 278.064911
131.105453 32.86887
131.118073 29.60335
131.12822 16.40659
133.076279 155.514496
133.086166 23.59446
133.112091 253.890198
133.124039 25.09553
133.134689 32.637661
133.144348 14.20274
133.151596 10.1701
133.162231 13.73246
135.056458 30.296579
135.090851 513.846497
135.101425 94.894623
135.113113 53.093922
135.123749 31.80377
135.130905 26.415529
135.141754 14.08415
137.070557 78.853104
137.080246 20.429199
137.09108 11.10977
137.106873 119.264503
137.128159 17.55426
139.086563 32.845329
139.123245 13.53159
139.136475 10.49103
141.079788 23.336679
141.100632 28.452579
142.088898 28.198681
143.09613 243.590302
143.108063 59.914719
143.118195 28.14591
143.136978 11.2226
144.06781 11.00692
144.103577 15.86665
144.117966 10.78234
145.037415 76.592056
145.049194 11.3341
145.061234 11.25927
145.075165 114.740402
145.08638 17.446699
145.101776 15.32048
145.111771 197.128204
145.124405 53.86105
145.135635 30.806829
145.146713 10.34385
147.053482 24.986731
147.091187 355.347504
147.100723 58.47628
147.110703 37.197899
147.127029 86.101067
147.148605 18.515249
149.071304 64.542389
149.090164 16.97736
149.107086 155.680695
149.118103 24.47159
149.129959 11.84447
149.146851 29.512119
151.050766 10.58123
151.085587 92.721626
151.093445 30.787571
151.107986 18.13549
151.122299 16.058649
153.064255 194.372101
153.085068 33.4599
153.097839 30.162609
153.102707 39.674789
153.117889 13.17402
155.08139 46.55162
155.095734 74.463043
155.102066 33.056129
155.115387 19.241159
156.103729 34.335861
157.07605 84.238739
157.111725 324.270111
157.122818 58.686859
157.134247 28.85232
157.149933 15.30702
158.118118 25.782351
159.055939 16.30431
159.09166 251.203293
159.104889 21.13273
159.116882 24.055731
159.127747 235.377502
159.138779 52.0112
159.151672 34.034889
159.163406 19.50367
160.096588 22.896641
161.070801 38.794441
161.106934 209.406204
161.118042 67.25544
161.131454 19.401791
161.144485 41.354549
162.110046 12.44711
163.08667 152.723602
163.100189 31.613779
163.112396 12.38607
163.124908 60.953732
163.145432 10.2887
165.06778 24.820379
165.079865 14.14277
165.102997 64.378197
165.114777 12.41062
165.126282 10.71041
167.082825 49.47937
167.096695 57.212448
167.114746 29.34408
168.105209 55.309361
169.075546 31.793131
169.095337 23.755159
169.112625 214.583496
169.126205 25.536659
169.141235 25.98217
170.120361 59.791889
171.091705 204.845901
171.110764 38.289249
171.128021 300.120087
171.142609 60.567921
171.154419 23.209641
171.168137 23.14547
173.070007 96.115677
173.08194 16.548519
173.107559 282.072906
173.120071 38.319469
173.131714 22.021549
173.143005 77.223869
173.154984 22.120871
173.167496 10.62432
174.112244 11.04327
175.086075 219.785202
175.098938 29.49621
175.111038 17.96604
175.123657 183.342606
175.135025 10.99754
175.146744 18.67392
175.16069 25.313009
176.131165 16.40177
177.068512 22.274929
177.094101 10.97166
177.103256 189.097794
177.115265 30.49514
177.125229 19.626591
177.137711 60.680302
177.147995 16.302771
178.089767 13.3201
179.081741 50.062931
179.095352 47.087761
179.118988 33.638458
179.155548 12.02573
180.10495 52.47171
181.07608 13.40064
181.088364 15.45244
181.096497 68.624474
181.112411 260.019104
181.125305 64.212608
181.138718 21.23579
181.147339 10.94135
181.159149 10.51752
182.121918 18.04645
183.054047 12.20018
183.091812 109.618202
183.104507 17.58013
183.117157 13.66613
183.127716 227.936996
183.1418 40.27689
183.153412 27.687469
183.165115 10.12167
184.133316 31.610519
185.070618 82.316612
185.107178 293.334686
185.118546 39.55859
185.132202 19.079309
185.143692 207.742203
185.155533 45.377029
185.169388 28.568439
185.185837 14.45094
186.073181 22.03788
186.116516 79.737953
186.13176 18.092831
187.048691 197.834595
187.060333 27.813551
187.074493 22.05736
187.086487 180.630798
187.10025 27.73514
187.123398 447.515106
187.13533 70.200813
187.149475 56.59877
187.160278 30.64959
187.171783 12.55808
187.183075 10.60634
188.093475 11.15598
188.129791 33.354279
188.14003 10.265
189.066238 27.18342
189.102768 185.7341
189.112976 20.79903
189.126526 13.50548
189.138565 87.692177
189.15123 26.97294
189.166473 14.56825
191.08223 61.908508
191.097153 32.237041
191.105545 12.65527
191.11969 99.30407
191.130463 21.75845
191.144928 13.48556
191.154495 18.21261
192.102798 36.888
193.096771 81.305763
193.111908 144.550598
193.120667 70.019562
193.136246 46.93869
194.08429 18.02524
194.119659 196.403595
194.13208 35.893028
194.145966 28.767241
195.076462 51.191879
195.091873 63.932579
195.103958 15.05916
195.128571 619.462891
195.140106 103.5075
195.153259 79.106819
195.167068 32.760719
195.177002 13.60837
195.190689 12.99747
196.098846 40.245998
196.134186 34.91272
197.1073 219.515793
197.119156 41.706779
197.132996 13.83895
197.143814 270.49881
197.15567 63.465149
197.170929 31.12734
197.184006 16.25363
198.112732 58.71867
198.153 23.573509
199.086884 53.078339
199.123749 364.772614
199.137482 56.255718
199.150131 32.5289
199.159943 115.0214
199.172638 22.18853
199.186676 16.878059
200.091568 23.01721
200.127823 40.404469
201.100311 36.769489
201.106613 44.909439
201.138397 78.014969
201.150955 22.283701
202.10498 14.81415
203.041519 11.75524
203.08223 62.750511
203.096222 36.973049
203.110443 11.31329
203.118515 128.887207
203.126999 18.85998
203.150284 29.50794
204.088013 15.03516
205.076385 10.36492
205.096527 75.702057
205.111633 86.74836
205.133957 184.968994
205.146027 34.267189
205.161972 21.35541
206.122528 27.19265
207.112747 11.73812
207.128372 360.036591
207.141006 52.134338
207.155624 31.744591
207.172012 20.47291
208.101349 25.29706
208.13681 140.874298
208.150696 30.518801
208.165497 13.03976
209.108047 251.285095
209.117859 13.05619
209.129288 23.416031
209.144058 662.027893
209.158646 59.093689
209.172073 62.262272
209.187439 37.85696
209.206024 11.8849
209.41951 11.89417
209.764847 10.11795
210.114014 63.339211
210.12587 11.03089
210.144196 25.09856
211.086334 33.49411
211.097717 12.33421
211.11058 13.44146
211.124084 318.481415
211.137405 38.613239
211.152771 35.66497
211.160706 56.556622
211.172256 15.82974
212.095551 49.388981
212.13295 40.41452
212.146545 13.66419
213.0672 16.4862
213.101929 145.072495
213.115631 29.868549
213.127853 26.44389
213.139099 472.826202
213.153214 100.097504
213.172134 126.626701
213.187622 42.683411
213.202377 21.692101
213.216766 11.25746
214.109222 40.607632
214.125443 13.54646
214.145584 72.765793
214.160049 16.95973
214.172989 10.81914
215.080154 147.249695
215.097641 30.646681
215.117783 152.524002
215.136276 33.834869
215.155106 46.0471
215.167358 14.89529
217.098343 177.559097
217.114548 46.55143
217.133484 102.470703
217.14505 13.09858
217.162857 20.852949
217.174988 13.37357
218.120468 70.637741
218.138794 30.621929
219.110535 43.003719
219.128922 106.512703
219.149307 42.334862
219.173935 12.37501
220.102417 17.556179
220.136887 23.485029
221.093277 14.54358
221.129318 36.99073
221.144714 191.586807
221.157791 34.485229
221.17308 31.18206
221.191269 14.59588
222.116348 63.87027
222.134109 17.252939
222.151932 174.520203
222.165619 31.506729
222.181244 14.7453
223.123596 497.2453
223.136246 102.391602
223.159332 458.591705
223.172897 77.482246
223.188248 48.656799
223.203384 39.372101
223.213196 14.75362
224.128738 26.55336
224.143341 11.24722
224.164383 31.89073
224.176086 17.685989
225.10231 66.96817
225.114807 10.14988
225.139374 405.755798
225.154099 50.26194
225.16954 44.279362
225.179779 31.10297
226.111389 10.90491
226.145782 31.070511
226.16095 11.4277
227.081207 23.860979
227.118393 308.582611
227.133636 43.361488
227.155075 468.354706
227.169296 99.092216
227.188507 138.857803
227.205475 44.729729
227.22261 18.6812
227.241425 13.11487
228.124344 10.52959
228.157333 11.72692
229.098724 73.990311
229.113113 12.9352
229.134293 118.880302
229.149689 20.91538
229.169815 27.137871
230.13945 18.006001
231.073944 19.78533
231.11235 64.025162
231.128372 37.60482
231.140717 14.69302
231.152252 75.848709
231.1698 17.292669
232.118073 16.54928
232.135727 121.217499
232.148666 39.294868
232.166733 13.60113
233.091599 11.93094
233.108078 33.04015
233.124451 19.604919
233.145111 218.453003
233.164917 50.69561
233.182449 16.377131
234.115662 22.45075
234.152527 90.826637
234.165359 27.258909
234.184158 10.32138
235.108292 19.719231
235.123398 300.565887
235.138916 65.5037
235.157761 64.934914
235.174545 22.76129
236.131241 218.018494
236.145508 35.66737
236.162292 45.44582
236.17691 11.3062
236.707733 10.81441
237.060287 14.1459
237.103729 34.35767
237.118912 18.23881
237.139175 463.652191
237.154205 48.506989
237.176056 643.804016
237.189438 76.755127
237.205826 86.71846
237.223602 30.841209
237.243118 14.23152
237.270477 10.73285
238.11171 47.138741
238.132462 17.125191
238.145935 62.600208
238.158447 16.726509
238.178375 41.757259
239.118317 109.350502
239.131378 29.671921
239.155212 180.372406
239.169189 37.635731
239.189468 65.420319
239.204681 16.07518
239.220444 10.17387
240.125717 16.730459
240.163177 39.361679
240.182709 10.24092
241.100449 34.47279
241.135178 224.309494
241.147919 49.665649
241.170883 345.706207
241.185791 57.116951
241.202545 35.80798
241.219772 16.284639
242.107178 15.25377
242.17865 25.51796
243.113968 82.101448
243.129501 16.581421
243.1521 79.672493
243.189346 16.32346
245.09404 60.892101
245.107986 18.54715
245.126907 87.57148
245.142014 34.30891
245.161606 23.11713
245.171219 29.896629
246.155441 51.162022
247.108841 14.9374
247.123978 33.137829
247.143295 17.45713
247.160248 488.358704
247.172668 113.624199
247.191406 44.644699
247.207092 17.66263
247.230881 10.83389
248.13092 12.85688
248.165009 13.00612
249.102036 16.586349
249.113556 11.75434
249.139725 206.220093
249.155228 49.56012
249.176544 171.861801
249.192993 17.85535
250.10817 10.63388
250.118805 11.62765
250.146866 363.526489
250.162033 84.305054
250.177933 61.06036
250.198242 17.45509
251.11795 151.945496
251.134857 34.136608
251.155197 3131.956055
251.168991 351.760315
251.185745 318.977692
251.200806 139.791107
251.219589 76.518967
251.246994 47.373669
251.287979 11.18087
251.417313 15.83924
251.437424 16.86154
251.52948 14.54621
251.568741 19.155149
251.602234 13.3456
251.623611 14.80736
251.66539 10.20536
251.778687 10.88822
252.12616 37.89946
252.161957 257.119904
252.176666 37.73542
252.192535 23.97789
252.210571 22.9074
253.094543 13.92612
253.135086 263.155304
253.150894 46.369389
253.169037 70.922409
253.179031 11.92618
253.188446 13.06677
253.205475 21.43148
254.138855 44.031799
254.174942 44.731689
254.193924 10.05826
255.114685 119.7183
255.128067 19.67009
255.149536 208.529205
255.162796 71.797272
255.172592 13.24592
255.186264 448.927094
255.201065 85.304733
255.21843 46.638981
255.236542 17.90132
255.253662 10.9416
256.121002 17.448721
256.154114 36.67318
257.09201 36.123009
257.129364 44.253731
257.142853 45.040352
257.166687 39.617191
258.144135 16.79594
259.108368 15.33059
259.144592 40.747421
259.161041 40.7747
259.181824 39.720772
260.131134 188.214005
260.14447 17.94346
260.162933 24.41065
261.104095 20.82118
261.125305 33.15453
261.142395 20.00478
261.168091 43.435131
261.183716 18.74231
263.119354 11.24594
263.156464 63.60968
263.173096 27.834801
264.162262 29.571819
265.134186 53.07579
265.145386 16.466551
265.170807 1777.365967
265.185059 254.912399
265.201172 151.656906
265.218903 68.74292
265.23996 31.720301
265.255157 16.4196
265.26947 20.54978
266.159515 11.45879
266.175262 71.621628
266.190704 20.54356
267.114075 33.61235
267.15033 154.281403
267.166321 54.203091
267.189514 175.272995
267.221344 16.085329
268.120758 17.61622
268.159088 54.372822
268.169861 13.40502
268.189697 21.82275
269.129395 136.144302
269.144653 10.43727
269.165924 893.40271
269.184845 188.814896
269.203674 62.16441
269.222717 18.10009
269.238373 14.50963
269.260803 11.09738
269.691193 12.27777
270.135651 15.85609
270.170502 12.70103
271.109039 32.121559
271.122498 18.910959
271.143341 129.156006
271.158813 32.539631
271.17749 25.60214
273.131836 100.149696
273.156647 43.79705
273.16571 17.86969
273.19873 14.49934
274.144775 21.61841
275.120117 12.33479
275.154724 235.919907
275.177063 38.69875
275.193207 26.43272
276.121185 12.81667
276.162598 51.51656
276.186646 11.99436
277.132904 36.119019
277.165924 24.11628
277.171936 25.929489
278.141602 70.746147
278.158997 17.801809
279.113159 28.155439
279.13147 13.38323
279.151489 21.632629
279.184509 59.6003
281.129578 38.529591
281.164764 81.885941
281.181091 16.88925
281.209442 14.72304
282.161621 12.77128
282.178833 19.58474
283.144348 25.87771
283.182129 1052.508057
283.195587 156.707108
283.213959 109.151497
283.228027 42.251362
283.240021 25.992979
283.254761 15.31437
283.273163 11.76384
283.287445 11.87966
283.371887 11.85776
283.588226 12.6901
284.184784 24.425249
284.208801 10.92072
285.16098 89.194901
285.192841 23.43358
287.143738 87.954308
287.167206 15.68999
287.177216 87.445389
287.196869 24.45228
289.170044 55.080181
289.187103 22.086109
290.172699 10.54933
291.147278 44.648609
291.16156 20.383011
291.185303 17.7785
292.161041 22.90806
292.180298 14.26474
293.111298 12.80189
293.140137 26.32967
293.166382 1624.647949
293.184631 118.042801
293.198425 141.306
293.216736 103.189301
293.241516 25.12118
293.256744 15.70742
293.272156 14.4049
293.353607 12.80766
293.69104 10.77584
293.728638 11.10245
294.138092 16.55731
294.168304 64.178032
294.191711 11.21995
294.211914 10.82827
294.406311 11.50961
295.145172 176.776794
295.168427 78.536346
295.188354 33.629318
296.154022 70.386642
297.124268 17.035959
297.157806 11.71397
297.199097 43.365669
298.165466 11.78308
299.1362 14.94392
299.158386 11.14676
299.175629 43.00095
301.116791 14.63782
301.1521 30.68721
301.162415 13.58395
301.19046 229.021896
301.207703 47.196251
301.229828 22.28734
303.139496 25.088209
303.161591 10.46236
307.182465 113.109901
307.196991 22.396521
307.214233 16.030081
309.161285 40.738251
309.198639 25.572281
310.168579 24.206671
311.139801 19.818581
311.176331 3111.248047
311.191833 393.994507
311.209869 315.893799
311.225677 117.570099
311.236694 28.579941
311.252686 48.053581
311.276855 54.935131
311.347839 12.39615
311.431427 14.28865
311.480988 14.07078
311.569061 11.47768
311.712982 12.03663
311.784546 14.06429
311.825989 10.42079
311.846588 11.80483
312.115631 17.96175
312.142792 13.6778
312.179749 126.7854
312.201508 24.447399
312.378937 11.31788
313.15506 50.565311
313.173065 14.12635
313.192108 10.10299
315.148376 71.765099
315.168518 35.561359
315.18576 11.95539
319.107849 30.34783
319.12738 168.762207
319.144043 26.27038
319.15976 22.39443
320.132874 11.1294
320.157471 18.86767
323.140137 22.37995
323.1698 13.11273
325.192657 155.494995
325.208374 24.06522
325.225006 16.443041
325.241455 13.26495
327.171783 24.41054
329.187317 882.505676
329.202301 151.320908
329.2211 90.156532
329.236694 34.219379
329.261658 19.91416
330.189331 70.581253
330.203674 18.354601
330.223785 10.28373
331.174255 43.048302
333.157898 346.447601
333.17395 65.10215
333.191833 34.931641
333.211182 12.04059
334.160339 20.46755
335.175812 100.503197
335.197144 16.180889
335.218781 17.69495
338.163422 38.143379
339.178833 18.520941
339.208832 65.790253
339.226288 14.87134
340.211151 11.06225
341.187988 20.767309
342.194183 17.23357
343.202148 83.697662
343.224182 21.62269
347.174835 20.707239
347.199341 77.509064
347.215668 21.484579
349.187531 43.79549
349.197144 17.30621
351.170349 109.585197
351.190216 13.97972
351.207031 12.77892
352.174713 17.527571
353.108826 31.05982
353.18692 798.532227
353.205322 85.071442
353.224823 123.297302
353.251709 20.32929
353.270752 14.85108
353.298431 12.41043
354.189606 15.08648
355.18219 12.26734
357.17984 11.0706
358.216644 20.614941
361.189453 19.28639
365.112 12.07256
365.185791 51.437832
369.18869 14.10994
371.196991 629.072693
371.21402 164.352905
371.235168 82.075493
371.266327 28.344219
372.198547 46.083279
373.193573 32.496399
375.168732 796.965698
375.185059 158.839005
375.211761 99.860382
375.243317 24.80917
375.720642 11.19528
376.167084 32.76862
377.187256 25.104
379.200287 23.81424
379.225311 10.27189
381.216949 49.958309
383.155914 10.08027
385.215485 22.35845
389.207825 148.006302
389.22522 29.994471
389.246124 16.69541
391.197845 28.364479
391.220245 12.92644
393.18103 1083.865967
393.213348 124.1483
393.237793 52.462891
393.265106 13.71448
393.292175 16.38666
394.180054 36.930698
394.197601 23.521721
394.223236 12.1131
395.187561 38.664059
399.22937 32.72784
400.233887 11.71225
403.200165 118.780701
403.21698 13.16508
403.236816 13.54506
405.212372 17.73797
407.194427 28.48653
411.191986 29.21191
413.183746 35.591019
413.213257 32.922791
413.235291 11.84654
414.215637 15.49692
415.20575 39.615719
417.241272 24.00618
421.208649 108.931702
421.222137 45.63142
421.244781 15.56731
425.203857 21.771971
427.202087 10.68312
431.17868 13.52015
431.215607 49.132721
433.174591 12.04487
433.204651 17.81077
433.219635 16.5896
434.732086 12.17268
435.164886 11.55111
435.189636 1265.328003
435.208496 171.575104
435.228119 101.574898
435.252563 26.711109
435.275391 22.29627
435.310883 12.06689
435.575592 15.1734
435.718719 17.693661
435.782166 10.14377
435.815857 11.8983
435.842102 11.50765
436.192505 49.875149
436.218018 22.041189
436.332794 13.37573
437.182465 41.465591
437.198334 17.721889
437.207794 34.851231
437.237885 26.60158
439.217468 15.39556
451.220428 75.504021
451.247375 16.27964
453.200378 570.814026
453.2229 86.665459
453.245605 63.634899
453.274078 10.57799
453.300476 10.51875
453.330231 14.03115
453.688171 13.5824
454.204346 36.84277
454.220764 14.36172
455.196381 84.797241
455.221558 16.40369
455.249481 13.54267
456.01123 13.87756
459.250122 49.14777
459.274048 21.1663
463.221039 658.166382
463.237732 120.549896
463.265717 85.467506
463.306091 22.18671
464.225494 52.002621
475.223877 28.50967
475.257294 16.245859
479.251404 12.35464
480.222748 15.96065
481.208435 14.76947
481.230927 800.447876
481.255707 174.949905
481.280457 75.160912
481.317657 13.89677
481.537079 14.84494
481.6875 13.02799
482.02359 12.05881
482.233795 29.13143
482.258514 11.57462
493.222992 11.75246
495.210205 766.373474
495.229218 129.191101
495.252502 90.952339
495.283142 23.521379
495.305878 10.2842
495.932404 10.69275
496.215332 39.024109
497.207397 614.039124
497.246307 95.475327
497.287506 27.43063
498.206635 33.577419
498.228363 11.08397
499.222443 19.293961
505.193756 38.12178
505.221863 16.034769
506.579712 10.50902
513.22052 276.036285
513.241272 47.741581
513.266846 36.373699
513.293335 13.30761
514.217712 11.58782
515.184631 16.71139
515.216736 302.520691
515.24823 81.114754
515.284485 23.241211
516.218933 28.53092
516.23584 18.25494
523.241699 2220.249023
523.262024 250.055801
523.284607 216.128693
523.313477 65.991753
523.340759 39.30479
523.372437 25.69903
523.409424 14.3172
523.450745 10.55996
523.491394 19.920509
523.53302 15.94877
523.62384 17.80361
523.706299 18.51125
523.737549 28.305321
523.776733 13.39805
523.942139 10.74366
523.970154 13.44205
523.997314 14.87523
524.243408 123.162201
524.263733 41.869808
524.294006 19.3543
524.378662 10.04111
525.240051 19.52792
527.000366 12.85069
533.221313 12.22225
541.250671 371.356995
541.272583 67.131172
541.304626 72.329391
542.249512 10.17452
557.22522 1057.362061
557.243713 152.867706
557.266724 84.180023
557.299561 29.044991
557.334656 18.208969
557.372131 17.77199
557.980347 17.073891
558.231812 62.9688
558.258789 15.17417
558.297913 12.62027
559.240417 47.70919
559.259155 14.62105
575.236328 216.308105
575.272644 45.407299
575.303711 11.82492
576.244263 12.21268
583.262939 1347.083984
583.284058 162.964294
583.311096 158.0047
583.350708 56.459068
583.400818 15.67393
583.664551 10.80116
583.872864 13.20593
583.890259 11.03969
584.267639 74.717041
584.293884 17.613779
585.25769 324.7883
585.278748 76.17115
585.305847 56.45013
585.33783 24.902571
586.260498 38.38578
589.293274 17.436041
603.264526 57.535542
603.274658 16.90694
617.246826 557.427429
617.268494 124.406998
617.292908 39.143009
617.314758 32.15448
617.363342 15.59724
617.452148 11.07762
617.941223 10.52793
618.250427 57.796921
618.28418 19.163971
645.277405 2181.962891
645.300781 447.509186
645.324585 169.556
645.344299 48.614632
645.365479 41.510929
645.393677 25.916269
645.423584 14.55625
645.510376 10.09907
645.615723 10.70581
645.678955 14.96785
645.735901 19.767929
645.786133 14.19646
645.85907 11.80485
645.91748 12.75171
645.951233 13.72789
645.999207 17.367069
646.049866 23.32468
646.150818 15.41703
646.239075 13.58628
646.282104 146.322601
646.31012 29.49704
646.339783 16.69029
646.480286 11.1819
647.370911 13.97212
END IONS
