BEGIN IONS
PEPMASS=819.3
CHARGE=1
MSLEVEL=2
SOURCE_INSTRUMENT=LC-ESI-qTof
FILENAME=f.Esposito/E-dendroides-ref/13OH-terracinolide B.mgf;
SEQ=*..*
IONMODE=Positive
ORGANISM=GNPS-LIBRARY
NAME=13OH-terracinolide B M+Na
PI=Litaudon and Paolini
DATACOLLECTOR=Esposito
SMILES=O=C1[C@]2(OC(C)=O)[C@@]([C@@H](OC(C)=O)[C@@](OC(C)=O)(C)C2)([H])[C@@H](OC3=O)[C@](CC3)(OC(C)=O)[C@H](OC(C(C)C)=O)[C@@H](OC(C)=O)[C@@H](OC(C)=O)C(C)(C)/C=C/[C@]1(O)C
INCHI=
INCHIAUX=
PUBMED=
SUBMITUSER=Esposito
TAGS=
LIBRARYQUALITY=3
SPECTRUMID=CCMSLIB00004680111
SCANS=1
71.051102 33.1506
77.038239 16.610809
83.048454 12.28087
85.026169 15.87855
107.083237 17.466921
129.986084 16.31842
137.058151 17.71559
149.092407 10.79842
154.092224 17.57016
163.073532 11.96358
189.124619 26.64493
201.055588 10.58823
209.130692 13.70479
213.111725 22.214411
215.07048 10.33211
216.92099 14.67769
217.082016 29.41119
217.120667 13.05062
233.132568 13.12788
238.126419 11.40091
239.102051 11.65415
241.120819 11.91584
243.064407 10.655
243.100754 17.18189
245.079666 12.87642
245.115204 16.19746
253.114807 15.38513
261.074493 11.4844
261.12851 14.91061
269.153992 13.17863
279.136414 40.252621
283.129089 14.75901
287.087677 10.25857
289.117737 37.573219
293.146149 16.375999
294.122528 22.65769
297.148102 19.08886
303.132721 13.01582
307.129791 48.28928
311.162628 18.07655
313.17453 11.36602
321.145721 58.776581
322.147766 13.19467
325.141113 32.188129
331.130035 13.12586
339.154419 43.120071
339.188904 14.81221
340.162476 14.15942
341.135193 24.173241
341.169342 15.96667
349.140717 111.259003
357.1651 32.811878
367.151337 116.839798
369.125061 18.50828
381.166107 37.314091
385.164032 43.34914
387.148468 22.65959
391.149109 22.45718
409.158325 22.98625
417.181915 13.51555
421.15625 11.75151
427.1763 58.18782
445.183044 22.590269
446.188171 13.46041
449.151886 16.106979
467.158539 20.051331
469.183228 31.773371
473.214111 22.92555
477.197845 11.50677
487.194153 47.67741
488.190063 10.67992
491.167328 37.153099
507.161804 12.06963
507.193756 22.684641
509.172943 61.144829
515.22406 17.762529
516.224304 17.381599
537.197144 12.4268
547.211548 19.862169
547.249023 21.235399
551.186218 232.522293
552.189392 21.32716
557.235046 27.55621
558.24115 11.53954
567.221741 26.0597
569.196289 52.360229
575.242004 29.968731
579.217224 38.34565
595.247681 97.713814
596.249268 14.87692
597.225464 72.427887
611.208069 176.082397
612.206116 25.50816
617.25647 18.085779
629.212891 13.35157
635.26062 15.41161
639.23938 605.348022
639.365845 11.27218
640.243469 60.819172
655.266296 82.831421
656.261353 21.64061
657.251404 39.498421
671.226379 55.238949
677.280151 23.61377
689.243652 32.6348
699.261169 2800.730957
699.410889 34.377319
699.526855 11.9749
699.573669 12.32762
699.614441 14.10509
699.698975 15.13279
699.769958 21.22151
699.844116 26.707279
699.899597 20.027849
700.010681 10.08985
700.053223 10.46522
700.138184 10.08959
700.263184 400.842499
700.380005 12.8044
700.449158 14.78359
700.497314 11.20998
700.603027 11.99625
700.793762 13.55976
700.968079 12.02668
715.291992 60.392529
717.257629 12.60945
737.295593 26.183571
759.282532 2091.351074
759.43042 15.90369
759.696045 15.70831
759.770447 15.58313
759.848083 20.13833
759.904602 17.137119
759.948547 14.59606
760.094971 15.29531
760.285583 371.702698
760.417175 21.047199
760.472473 12.10442
760.557434 17.012239
761.920227 12.03834
819.053101 14.78784
819.091003 25.708891
819.303955 5917.25293
819.462402 58.961769
819.53595 27.08753
819.601074 10.93553
819.65033 19.76898
819.705994 38.226471
819.809998 61.062939
819.895935 18.15303
819.95166 14.53986
819.996338 25.233669
820.06604 32.193821
820.139954 40.247849
820.218628 43.648232
820.306519 1175.395996
820.438782 31.48444
820.483887 14.666
820.583008 23.859989
820.63446 20.37146
820.656128 15.85574
820.732666 33.654709
820.785828 26.46303
820.865967 15.04358
820.914246 14.52206
821.079712 12.07512
821.161255 10.433
821.2146 13.40856
821.313293 20.53647
821.377075 12.95583
821.455017 16.259109
821.540527 11.43541
821.817444 11.95104
821.906799 11.59218
822.041199 10.42423
822.086792 11.91395
END IONS
