BEGIN IONS
PEPMASS=900.41
CHARGE=2
MSLEVEL=2
SOURCE_INSTRUMENT=LC-ESI-qTof
FILENAME=f.philipwi/0_WilliamsFreshwaterCyanosStandardsConvertedTo_mzXML_v2/PW-2_P1-A-2__Microviridin_M_1776amu_01_15524_Scan469-560.mzXML;
SEQ=*..*
IONMODE=Positive
ORGANISM=GNPS-LIBRARY
NAME=Microviridin M M+H+Na
PI=Philip Williams
DATACOLLECTOR=Williams
SMILES=O=C(CCC(NC(C(NC(C(NC(C(NC(C(NC(C1CCCN12)=O)CO3)=O)CC(OC(C(NC(C(NC(C4CCCN4C(C5N(C(C(NC(C)=O)C)=O)CCC5)=O)=O)C)=O)C(NC(C(N6)=O)CC(C)C)=O)C)=O)=O)CC7=CNC8=C7C=CC=C8)=O)CCC3=O)=O)C(NC(C(O)=O)CC9=CC=C(O)C=C9)=O)NCCCCC6C(NC(CC%10=CNC%11=C%10C=CC=C%11)C2=O)=O
INCHI=
INCHIAUX=
PUBMED=
SUBMITUSER=philipwi
TAGS=
LIBRARYQUALITY=3
SPECTRUMID=CCMSLIB00000425009
SCANS=472
78.036324 92.0
159.103149 136.0
160.1017 48.0
167.055405 76.0
196.11644 100.0
196.92067 28.0
201.174362 44.0
211.131332 160.0
220.121948 128.0
222.13562 100.0
222.363693 100.0
224.135193 64.0
225.10965 60.0
226.162918 96.0
226.383453 44.0
227.151367 128.0
229.163712 52.0
230.77803 64.0
238.153473 84.0
239.121872 120.0
243.17041 92.0
248.05545 64.0
249.9767 28.0
250.140411 100.0
251.046143 52.0
252.136658 784.0
252.472244 40.0
253.141174 72.0
254.129913 96.0
254.735962 28.0
255.122711 56.0
260.105225 104.0
264.140442 84.0
266.157776 204.0
267.122101 96.0
267.757996 28.0
268.144073 84.0
269.105255 76.0
270.078613 120.0
270.445404 76.0
274.113953 200.0
275.140961 84.0
275.648712 80.0
278.162659 80.0
280.132935 164.0
280.203064 112.0
281.093964 104.0
281.938904 28.0
282.107178 244.0
283.090027 64.0
284.173187 60.0
285.212372 88.0
287.164703 104.0
289.177429 48.0
291.175385 80.0
292.896545 44.0
294.119659 100.0
298.114594 80.0
298.20047 88.0
298.574829 44.0
299.10376 88.0
299.710419 28.0
300.113647 144.0
302.597626 64.0
303.1745 96.0
306.134033 76.0
307.130829 40.0
308.177094 96.0
311.229767 68.0
314.126617 96.0
315.144226 84.0
316.193756 96.0
317.139008 140.0
319.144531 92.0
320.177216 52.0
323.711395 100.0
327.126648 40.0
333.230774 92.0
333.591583 112.0
336.164093 68.0
336.672333 128.0
337.128632 76.0
337.218842 136.0
338.147675 80.0
339.21521 68.0
341.17868 84.0
344.921356 36.0
347.174377 72.0
347.709045 36.0
348.88681 44.0
349.187042 1340.0
349.637329 44.0
349.875763 32.0
350.183929 100.0
350.303497 148.0
351.224396 96.0
351.319977 44.0
351.941559 28.0
353.20282 96.0
353.581787 28.0
354.193359 104.0
355.237823 32.0
356.079346 60.0
356.235748 36.0
357.222992 96.0
358.151276 64.0
359.201599 80.0
359.394928 36.0
363.170349 108.0
364.163879 36.0
364.707428 64.0
365.218719 324.0
366.206329 84.0
366.596771 28.0
367.200043 108.0
368.197388 36.0
368.699066 28.0
368.956146 92.0
369.715668 88.0
370.966919 32.0
372.183411 100.0
375.041931 32.0
375.733582 52.0
376.240356 80.0
377.165344 104.0
378.122101 72.0
379.176788 148.0
380.630127 36.0
381.196381 188.0
381.862335 28.0
382.19873 172.0
383.200867 88.0
384.232727 68.0
385.808746 108.0
386.196991 148.0
387.128235 96.0
388.216492 52.0
389.149597 88.0
391.23053 96.0
392.14502 28.0
393.209412 68.0
393.471588 40.0
394.19986 112.0
394.344543 48.0
396.131409 144.0
397.172455 72.0
398.19516 120.0
398.507477 32.0
399.24588 40.0
400.201721 72.0
400.660919 48.0
401.158691 56.0
404.139038 88.0
405.151428 92.0
406.729614 180.0
407.220428 148.0
409.062012 60.0
409.210083 60.0
410.106964 60.0
412.162079 48.0
413.016632 64.0
413.172119 60.0
415.234894 132.0
415.70578 164.0
416.274689 64.0
417.152679 80.0
419.162659 84.0
419.192169 56.0
419.243347 80.0
419.689178 88.0
422.213348 84.0
423.163086 136.0
425.165588 64.0
426.21283 96.0
426.69165 120.0
427.22348 128.0
428.215881 104.0
430.249908 72.0
433.207947 76.0
433.685699 32.0
434.097321 36.0
434.274994 240.0
434.642029 28.0
435.309204 44.0
439.145538 80.0
439.319214 32.0
441.166138 44.0
442.165955 72.0
442.357361 32.0
443.202423 64.0
443.712524 120.0
444.47821 36.0
445.796234 160.0
446.213562 40.0
446.860138 32.0
448.181671 116.0
448.289642 44.0
449.261932 108.0
450.248779 132.0
451.198608 88.0
452.238373 144.0
452.259277 76.0
453.194458 104.0
454.274994 132.0
454.438049 44.0
455.229858 116.0
456.737488 112.0
458.21936 96.0
459.042725 44.0
459.214294 128.0
459.889862 28.0
460.167389 108.0
460.345276 64.0
461.211426 176.0
461.641327 56.0
461.860474 40.0
462.265228 504.0
462.40863 36.0
462.9086 32.0
463.262787 224.0
464.177368 44.0
466.130829 32.0
467.273834 32.0
468.148529 80.0
468.887421 44.0
469.237579 256.0
469.923248 48.0
470.324066 64.0
472.168823 140.0
473.703247 124.0
474.369446 36.0
476.144745 84.0
476.913574 44.0
477.171143 48.0
477.303436 88.0
477.930328 48.0
478.223022 52.0
479.290558 84.0
480.158813 160.0
480.274658 140.0
480.525879 32.0
480.763458 72.0
481.210846 100.0
481.714355 80.0
481.882263 52.0
482.190186 72.0
482.764252 36.0
483.226562 72.0
484.235992 48.0
485.766205 76.0
486.197266 184.0
486.750153 132.0
487.200287 160.0
487.608429 40.0
488.209198 84.0
489.242615 108.0
489.792664 148.0
490.215973 120.0
490.653595 40.0
492.255493 56.0
494.259705 124.0
496.218475 108.0
497.176422 116.0
497.289459 84.0
497.682129 108.0
497.81012 88.0
498.158295 84.0
499.16217 68.0
499.298828 64.0
500.170929 96.0
501.167572 80.0
501.786133 48.0
502.300323 68.0
505.233337 80.0
505.749298 80.0
508.210846 92.0
508.749878 152.0
508.908051 44.0
509.066254 36.0
510.212708 60.0
513.255493 172.0
513.751282 144.0
514.22821 76.0
514.763184 80.0
515.732666 52.0
517.036316 48.0
517.169922 112.0
517.543762 28.0
518.188416 128.0
519.256409 88.0
520.242432 88.0
520.782715 140.0
521.262878 112.0
522.211609 128.0
523.200378 52.0
523.302429 84.0
524.03772 76.0
524.281982 56.0
524.557251 32.0
524.790894 164.0
525.259583 88.0
526.193665 116.0
528.169556 80.0
528.59082 32.0
529.356873 40.0
529.807983 96.0
530.251892 56.0
531.225342 56.0
532.294189 96.0
533.295349 108.0
534.237732 76.0
534.782593 80.0
535.239685 112.0
536.207031 128.0
536.331543 112.0
536.715454 28.0
537.867981 32.0
538.208069 76.0
538.763367 104.0
539.269104 252.0
539.791565 100.0
540.739868 96.0
541.221008 92.0
541.763123 128.0
542.223206 64.0
543.277161 100.0
544.313232 96.0
545.255493 56.0
546.312866 40.0
546.759949 68.0
547.257996 108.0
547.773987 100.0
548.057495 36.0
548.311218 184.0
548.78894 64.0
549.356567 64.0
549.756775 128.0
550.282532 88.0
550.776855 104.0
551.255676 76.0
552.226562 124.0
553.29303 84.0
553.817932 108.0
554.733398 108.0
556.280884 172.0
556.777161 112.0
557.2771 228.0
557.7854 88.0
558.824707 108.0
559.301025 132.0
559.759338 32.0
560.272278 140.0
560.468445 60.0
561.223206 48.0
561.77533 116.0
562.26947 32.0
562.77478 312.0
563.157898 32.0
563.773254 140.0
564.290344 76.0
565.251343 92.0
565.762756 104.0
566.250732 112.0
567.283203 200.0
568.279907 112.0
568.616882 40.0
569.257141 120.0
570.290161 112.0
570.746399 116.0
571.272461 96.0
571.78302 216.0
572.331848 144.0
572.789917 144.0
573.176697 116.0
573.766296 100.0
574.071716 32.0
574.316101 56.0
575.282471 68.0
576.296875 80.0
576.655762 36.0
576.797913 72.0
577.26825 104.0
578.555481 44.0
578.800842 80.0
579.276367 72.0
579.775635 120.0
580.274048 48.0
580.596558 40.0
581.19574 40.0
581.796509 128.0
582.287354 96.0
584.31958 88.0
585.777649 184.0
586.309021 36.0
586.765808 92.0
587.791748 84.0
588.288208 168.0
589.044189 40.0
589.508423 32.0
589.793701 112.0
590.276367 100.0
590.778259 204.0
591.295837 108.0
591.940857 36.0
592.15802 60.0
592.815125 92.0
593.197754 48.0
593.803406 64.0
594.347229 108.0
594.533752 28.0
595.264465 108.0
595.777832 100.0
596.275818 84.0
596.789612 108.0
597.239624 108.0
597.76825 132.0
598.226562 128.0
598.800171 52.0
599.03418 64.0
599.241699 120.0
599.348999 92.0
599.819946 68.0
600.316833 48.0
601.287415 80.0
601.783203 124.0
602.797241 108.0
603.207092 36.0
603.32782 108.0
603.850403 52.0
604.299011 84.0
604.798157 172.0
606.300476 52.0
606.801086 92.0
607.237427 68.0
607.818726 200.0
608.280579 148.0
608.557617 36.0
609.249695 28.0
609.800537 52.0
610.304382 140.0
611.335876 96.0
612.32074 140.0
612.797852 136.0
613.296448 236.0
613.821228 104.0
614.247681 144.0
614.453064 36.0
615.296082 96.0
615.781128 204.0
616.018433 28.0
616.250488 156.0
616.477295 36.0
616.683105 96.0
616.825562 108.0
617.33905 76.0
618.346375 76.0
618.536621 84.0
619.220459 56.0
620.313477 96.0
620.827942 120.0
620.980469 72.0
621.307434 308.0
621.797729 192.0
621.93396 96.0
622.296936 96.0
622.806641 132.0
623.30188 72.0
623.756592 52.0
624.28894 72.0
625.834839 48.0
626.313354 128.0
626.787903 232.0
627.317017 176.0
627.797852 136.0
629.768555 80.0
630.339966 212.0
630.838196 96.0
631.230652 76.0
632.283813 96.0
632.40625 80.0
633.400513 72.0
634.305176 184.0
634.427673 132.0
634.816101 200.0
635.314087 132.0
635.803772 340.0
636.179016 104.0
636.310242 200.0
636.581055 52.0
636.823181 212.0
636.967102 52.0
637.079712 36.0
637.318726 164.0
638.222595 44.0
639.309021 100.0
639.463196 44.0
640.092041 44.0
640.310242 100.0
640.801819 48.0
641.325867 136.0
641.576599 40.0
641.834961 52.0
642.141846 64.0
642.311462 104.0
643.30542 96.0
643.766113 88.0
644.322327 232.0
644.793762 80.0
645.101318 44.0
645.48999 28.0
645.807739 104.0
645.943542 28.0
646.341492 56.0
646.822754 112.0
647.313843 148.0
647.800415 140.0
648.212158 84.0
648.846802 32.0
649.122864 36.0
649.330566 188.0
649.807373 304.0
649.935181 40.0
650.319458 332.0
650.829285 96.0
651.327576 44.0
651.821655 52.0
653.270935 40.0
654.29895 264.0
654.835938 52.0
655.248596 68.0
655.367432 124.0
655.513977 36.0
655.834412 160.0
656.345398 108.0
656.811218 76.0
656.974609 40.0
657.310669 288.0
657.823486 232.0
658.321411 312.0
658.782104 132.0
659.345886 96.0
660.295593 176.0
660.804077 108.0
661.336182 40.0
661.845032 120.0
662.321899 120.0
662.809143 128.0
663.282837 172.0
664.308594 184.0
664.818787 144.0
665.301025 52.0
665.810791 56.0
666.338806 84.0
667.259033 72.0
668.263855 72.0
668.395691 104.0
668.801086 108.0
669.326416 68.0
669.801514 280.0
670.226257 60.0
670.360046 76.0
670.828552 100.0
671.337524 176.0
671.828003 92.0
672.323792 72.0
672.456055 48.0
672.859375 164.0
673.388245 32.0
674.294678 92.0
674.739136 104.0
675.357117 64.0
675.617004 140.0
675.886719 144.0
676.312012 120.0
676.831238 96.0
677.299377 112.0
677.872314 32.0
678.054871 60.0
678.276184 80.0
679.35022 60.0
679.832153 256.0
680.321289 244.0
680.826294 92.0
681.012695 32.0
681.312195 108.0
681.661621 44.0
681.927979 120.0
683.027039 32.0
683.29364 44.0
683.79364 64.0
684.327759 216.0
684.822144 112.0
685.383118 80.0
685.828735 228.0
685.995728 152.0
686.348083 80.0
686.83075 68.0
687.318909 92.0
687.816772 36.0
688.602722 132.0
688.803467 104.0
689.38916 164.0
690.309998 88.0
690.820312 180.0
691.332947 236.0
691.847046 188.0
692.346497 200.0
692.837158 192.0
693.059448 68.0
693.349854 80.0
693.798035 120.0
693.982788 180.0
694.318665 92.0
694.815613 96.0
696.333435 276.0
696.604919 36.0
696.8573 52.0
697.367676 160.0
697.850464 84.0
698.386597 72.0
698.863647 84.0
699.338745 156.0
700.361816 152.0
700.838501 144.0
701.357483 220.0
702.352356 84.0
702.826965 220.0
703.296021 80.0
704.358154 80.0
704.823792 252.0
705.093323 52.0
705.328979 552.0
705.830261 364.0
706.348389 564.0
706.849854 272.0
707.35553 104.0
707.73822 36.0
707.855103 68.0
708.271606 72.0
709.348328 52.0
709.857788 88.0
710.367371 132.0
711.608215 44.0
712.271545 28.0
712.464111 112.0
712.827393 128.0
713.156433 124.0
713.354492 172.0
713.531006 40.0
713.867004 116.0
714.358215 544.0
714.570068 52.0
714.853455 368.0
715.35968 348.0
715.865723 196.0
716.343323 176.0
716.906494 60.0
717.162537 84.0
717.367371 48.0
718.344055 108.0
718.830872 204.0
719.109924 64.0
719.335205 160.0
719.841492 452.0
720.339661 192.0
720.83667 88.0
721.345337 144.0
722.359192 244.0
722.854431 108.0
723.366455 240.0
723.869934 208.0
724.16156 48.0
724.39624 100.0
724.866211 116.0
725.351379 132.0
725.671875 36.0
725.860779 176.0
726.266602 96.0
726.842529 144.0
727.299377 152.0
727.848694 120.0
728.359924 716.0
728.591553 56.0
728.853088 952.0
729.362793 560.0
729.841125 296.0
730.342041 172.0
731.337219 84.0
731.677246 32.0
732.360657 60.0
732.677673 36.0
732.847107 160.0
733.333984 184.0
734.335083 64.0
735.060791 36.0
735.412476 92.0
735.562073 68.0
735.851379 100.0
736.341675 112.0
736.853516 220.0
737.351196 352.0
737.859863 116.0
738.206665 24.0
738.348145 80.0
738.469421 84.0
738.856445 188.0
739.344604 268.0
739.839233 336.0
740.358032 192.0
740.839905 100.0
741.336792 200.0
741.729675 28.0
742.129028 84.0
742.35376 180.0
742.719543 140.0
742.858887 192.0
743.372925 204.0
744.373779 104.0
744.836426 108.0
745.205872 52.0
745.418884 80.0
745.797668 120.0
746.36676 216.0
747.322021 104.0
747.835876 84.0
748.348083 180.0
748.851318 256.0
749.35321 256.0
749.562622 32.0
749.876831 208.0
750.844482 160.0
751.355347 344.0
751.582275 56.0
751.863342 124.0
752.060364 40.0
752.357605 84.0
752.864746 64.0
753.109619 44.0
753.337402 220.0
753.842163 140.0
754.331604 92.0
754.842529 124.0
755.280396 72.0
755.866394 100.0
756.322876 68.0
757.366577 32.0
757.495178 72.0
759.385376 124.0
760.123352 52.0
760.299072 68.0
761.377502 104.0
761.565125 40.0
762.0578 28.0
762.340881 388.0
762.849854 140.0
763.368347 220.0
763.829102 84.0
764.223755 84.0
764.463623 100.0
764.593872 40.0
765.493103 40.0
765.898804 176.0
766.399902 60.0
767.36377 72.0
768.391846 40.0
770.368591 104.0
771.358765 84.0
772.356201 120.0
773.360657 120.0
774.358826 84.0
775.836548 108.0
776.4552 148.0
776.786743 56.0
776.935669 84.0
777.166382 88.0
777.297607 64.0
777.888672 76.0
778.422119 40.0
778.795654 40.0
779.329407 72.0
780.300659 92.0
781.390076 92.0
781.844788 104.0
781.952576 128.0
782.358276 112.0
782.856934 116.0
783.285034 72.0
784.409363 44.0
785.396362 60.0
785.927673 32.0
786.374512 96.0
787.518921 124.0
787.858887 204.0
788.359924 40.0
789.07605 104.0
789.361023 48.0
790.473328 68.0
791.387634 72.0
792.446045 60.0
792.822937 52.0
793.541016 52.0
793.846313 40.0
795.358398 660.0
795.522888 40.0
795.861023 900.0
796.343262 348.0
796.860779 108.0
798.348145 80.0
799.243591 40.0
800.333862 76.0
800.920471 56.0
802.201843 124.0
804.315674 96.0
805.377441 56.0
805.853088 96.0
806.37793 84.0
807.306458 100.0
808.007874 64.0
808.279724 120.0
809.394104 68.0
810.339417 60.0
811.406555 108.0
811.890198 120.0
812.453369 104.0
813.871277 48.0
814.392578 88.0
815.341675 68.0
815.617981 44.0
816.182434 28.0
816.332397 120.0
816.528503 112.0
817.348389 80.0
818.36261 116.0
818.890808 272.0
819.394653 124.0
819.918213 76.0
820.414124 128.0
820.613831 60.0
820.896301 136.0
821.326172 68.0
821.856018 88.0
822.363098 108.0
822.8797 108.0
823.373535 36.0
823.666199 40.0
823.87915 136.0
824.892395 188.0
825.467041 104.0
826.379028 60.0
826.852539 64.0
827.409851 72.0
827.899536 340.0
828.424805 268.0
828.888428 96.0
829.347351 56.0
829.47583 56.0
829.878174 100.0
830.393738 136.0
830.890076 172.0
831.434509 64.0
831.901001 80.0
832.384705 176.0
832.909973 204.0
833.393066 352.0
833.91217 272.0
834.587524 156.0
834.862305 104.0
835.414856 116.0
835.748108 40.0
835.891785 40.0
836.098267 84.0
836.337891 44.0
837.376221 164.0
838.450012 48.0
838.736145 52.0
839.881165 72.0
840.42157 96.0
840.601807 40.0
840.879028 56.0
841.413879 116.0
841.887939 184.0
842.060181 32.0
842.404419 200.0
842.913574 44.0
843.091858 48.0
843.262268 24.0
843.524475 44.0
843.672546 148.0
843.884216 3064.0
844.386169 1940.0
844.719604 36.0
844.895447 1404.0
845.080322 60.0
845.202087 48.0
845.389893 568.0
845.883179 272.0
846.055969 44.0
846.394836 96.0
846.519287 52.0
847.353821 60.0
847.936523 56.0
848.122131 68.0
849.143494 28.0
849.397034 128.0
850.964844 40.0
851.856506 68.0
852.397339 60.0
853.375427 52.0
853.57019 44.0
858.120483 56.0
859.428101 56.0
860.325378 52.0
860.456238 208.0
861.480469 80.0
862.308411 56.0
862.470337 68.0
863.431946 44.0
865.343567 68.0
866.440857 88.0
867.332397 72.0
868.402771 56.0
869.323486 116.0
870.41394 36.0
870.889648 88.0
872.352112 44.0
875.08429 92.0
876.310425 64.0
878.444031 116.0
880.439453 40.0
881.39386 52.0
883.419983 116.0
885.239807 176.0
886.498962 132.0
887.365295 96.0
888.409973 36.0
890.311035 56.0
891.414551 44.0
895.358582 36.0
896.446106 64.0
897.438843 212.0
898.42395 56.0
899.40686 76.0
900.42041 200.0
900.902527 132.0
901.429382 60.0
901.941406 172.0
902.247314 104.0
902.316711 48.0
902.386902 108.0
903.3302 44.0
904.384277 76.0
905.381409 128.0
905.688293 108.0
906.470215 80.0
907.337097 148.0
907.915039 40.0
908.395264 68.0
908.899231 104.0
909.391418 120.0
910.432922 80.0
910.625305 32.0
910.894653 84.0
912.4729 48.0
914.397522 100.0
915.479248 60.0
916.907104 72.0
917.563477 60.0
918.297424 84.0
919.477783 48.0
923.46228 32.0
926.3703 52.0
927.410217 68.0
927.884216 96.0
928.466858 40.0
931.455383 60.0
932.34137 60.0
932.525513 64.0
934.400574 92.0
935.414062 108.0
936.135559 128.0
936.428162 68.0
937.44281 96.0
938.047913 140.0
938.438416 80.0
939.434631 108.0
941.467712 32.0
944.384277 64.0
945.358948 92.0
946.108948 152.0
946.344238 84.0
946.481506 44.0
947.4375 76.0
950.289917 92.0
951.458435 60.0
952.472412 80.0
953.35791 52.0
955.465088 52.0
956.509705 96.0
958.482178 44.0
960.45874 40.0
961.411865 72.0
962.472839 96.0
963.461914 68.0
965.529175 100.0
967.493408 52.0
971.3927 84.0
972.498962 36.0
974.534363 80.0
974.693542 36.0
974.932373 28.0
976.146912 52.0
976.419983 56.0
977.48175 36.0
978.445312 132.0
979.467957 72.0
980.480225 48.0
981.49176 44.0
983.549805 76.0
984.420715 84.0
984.729675 56.0
985.549988 60.0
986.528625 36.0
987.441711 72.0
988.554077 112.0
990.418884 80.0
990.915283 92.0
992.526428 36.0
993.502686 96.0
994.39502 36.0
995.460632 48.0
998.512024 40.0
999.542603 32.0
1000.555542 52.0
1002.543152 44.0
1003.432678 68.0
1004.47113 52.0
1009.516724 84.0
1010.504028 104.0
1011.412781 36.0
1013.581665 60.0
1015.45105 32.0
1016.527954 40.0
1017.463074 36.0
1018.968323 88.0
1020.454285 52.0
1022.394958 96.0
1023.470276 52.0
1026.531494 56.0
1026.89917 164.0
1027.287354 64.0
1027.43042 76.0
1028.14563 120.0
1028.487183 136.0
1030.518066 52.0
1031.507812 144.0
1032.503906 68.0
1033.501953 56.0
1035.496582 92.0
1036.372314 68.0
1037.466797 48.0
1039.720825 72.0
1042.49707 144.0
1043.573853 64.0
1044.500732 28.0
1045.46167 88.0
1048.548462 56.0
1049.512939 148.0
1050.525024 72.0
1053.481689 52.0
1054.764893 28.0
1055.551758 48.0
1058.515381 60.0
1059.428101 68.0
1060.611084 104.0
1061.52478 44.0
1062.480347 68.0
1063.401123 100.0
1065.486206 64.0
1066.494263 84.0
1067.118896 108.0
1067.544556 52.0
1068.243652 60.0
1068.431274 72.0
1069.431641 64.0
1071.39209 64.0
1071.55896 60.0
1073.491943 52.0
1075.360107 40.0
1075.558716 64.0
1078.489624 116.0
1078.728271 32.0
1079.544922 48.0
1080.529541 64.0
1082.772827 64.0
1083.486084 56.0
1084.514526 168.0
1087.491211 68.0
1089.24292 144.0
1090.442505 36.0
1091.537354 60.0
1093.47583 40.0
1094.487793 48.0
1096.323364 28.0
1097.496826 68.0
1101.521729 52.0
1102.749146 36.0
1103.596069 56.0
1105.523926 40.0
1107.70813 68.0
1109.703247 28.0
1110.510376 56.0
1111.551514 64.0
1112.486816 36.0
1113.486328 44.0
1114.443726 68.0
1116.636719 72.0
1117.510254 44.0
1118.533325 40.0
1118.874512 44.0
1119.605835 68.0
1120.495605 76.0
1125.579834 84.0
1127.526733 44.0
1129.00415 88.0
1129.566895 60.0
1130.574219 44.0
1132.498169 40.0
1133.506592 72.0
1135.524902 64.0
1136.513306 36.0
1138.586426 84.0
1140.557007 64.0
1141.590576 32.0
1142.551025 56.0
1143.594482 40.0
1144.539795 76.0
1145.5354 168.0
1147.480225 76.0
1151.584351 44.0
1155.499268 112.0
1157.562622 48.0
1157.974731 40.0
1158.638794 92.0
1160.470581 76.0
1161.600098 48.0
1162.469238 56.0
1163.512695 56.0
1166.537109 40.0
1167.625977 52.0
1168.541016 56.0
1172.559326 80.0
1173.608154 56.0
1176.498779 84.0
1177.53772 52.0
1178.498657 48.0
1181.548218 60.0
1184.546265 32.0
1186.543579 44.0
1187.400024 32.0
1189.562256 72.0
1190.595947 36.0
1191.546143 68.0
1192.554199 56.0
1193.624512 60.0
1194.527588 40.0
1195.54126 28.0
1195.871948 36.0
1197.459595 80.0
1197.614014 60.0
1198.518677 72.0
1201.543945 88.0
1202.580322 36.0
1203.513428 44.0
1204.48999 148.0
1207.517334 40.0
1209.556152 40.0
1213.697266 88.0
1216.549683 32.0
1217.487671 44.0
1218.618286 48.0
1219.508667 88.0
1220.065186 100.0
1220.488281 32.0
1220.822388 44.0
1222.515625 76.0
1223.608032 52.0
1225.49939 56.0
1225.883545 92.0
1226.519043 136.0
1227.482788 84.0
1228.563232 36.0
1229.52417 36.0
1232.551758 44.0
1234.603394 64.0
1235.521851 84.0
1236.597656 52.0
1237.547974 72.0
1238.324219 116.0
1239.446167 36.0
1240.578247 100.0
1241.556519 64.0
1242.679932 72.0
1244.671631 60.0
1245.557861 52.0
1248.619385 60.0
1251.526855 48.0
1253.444336 44.0
1255.498901 52.0
1257.600464 52.0
1258.562012 36.0
1259.588257 124.0
1260.586182 100.0
1261.592285 108.0
1264.572632 64.0
1267.513794 92.0
1267.793579 48.0
1268.678955 52.0
1269.577393 64.0
1270.57373 76.0
1271.557739 64.0
1276.251099 164.0
1280.558716 60.0
1281.609497 72.0
1282.589722 32.0
1283.982666 76.0
1284.622314 44.0
1285.536377 92.0
1286.576904 116.0
1287.661743 84.0
1292.608521 64.0
1293.617065 48.0
1297.603516 108.0
1299.638672 60.0
1301.677002 36.0
1302.656494 76.0
1303.609619 28.0
1306.649536 36.0
1307.601807 76.0
1308.654907 48.0
1309.692871 200.0
1310.641724 64.0
1311.526611 96.0
1315.569458 44.0
1323.61731 36.0
1325.602661 64.0
1327.655762 36.0
1328.701172 36.0
1329.648438 88.0
1331.6073 44.0
1337.71167 32.0
1338.56897 44.0
1339.704224 36.0
1341.581787 64.0
1341.809814 52.0
1342.585938 28.0
1343.473633 40.0
1344.642212 64.0
1347.659302 80.0
1349.602295 44.0
1352.531128 32.0
1356.660278 32.0
1357.646606 52.0
1358.586304 68.0
1360.419556 28.0
1360.62915 48.0
1364.560791 44.0
1367.600098 120.0
1370.666382 64.0
1371.681396 56.0
1372.690918 80.0
1373.688965 64.0
1374.631226 32.0
1376.69104 88.0
1378.725952 56.0
1380.607544 124.0
1381.616943 88.0
1382.575562 60.0
1383.629883 56.0
1386.716797 60.0
1387.663696 64.0
1388.61377 32.0
1390.609741 40.0
1393.249634 44.0
1393.606567 36.0
1394.772827 44.0
1395.606201 52.0
1396.630371 40.0
1397.654907 36.0
1398.799072 68.0
1403.66687 36.0
1404.717896 28.0
1405.697632 48.0
1407.705933 68.0
1408.591064 56.0
1409.665039 68.0
1416.689087 72.0
1421.590698 140.0
1421.876343 72.0
1422.591553 96.0
1422.813965 28.0
1423.590942 96.0
1424.136719 28.0
1424.401367 56.0
1424.77124 64.0
1425.604492 44.0
1426.644653 104.0
1427.661377 68.0
1427.867798 44.0
1428.665283 40.0
1429.04834 32.0
1429.620972 64.0
1436.069336 140.0
1443.664551 32.0
1447.590942 36.0
1448.609741 40.0
1449.628906 32.0
1458.549805 28.0
1465.69165 32.0
1471.701294 72.0
1473.487061 104.0
1473.78064 40.0
1474.78418 60.0
1478.630005 92.0
1479.684204 76.0
1481.695679 32.0
1483.73291 40.0
1484.71521 32.0
1488.082153 28.0
1490.985229 44.0
1492.639648 220.0
1493.004272 32.0
1493.684082 176.0
1494.644409 180.0
1495.640991 52.0
1497.672241 76.0
1498.650146 68.0
1503.663818 52.0
1511.336304 32.0
1514.807739 56.0
1518.755127 36.0
1519.972656 44.0
1527.586914 64.0
1535.694824 80.0
1537.793945 56.0
1538.543945 60.0
1539.794312 36.0
1542.707642 116.0
1545.733398 100.0
1547.734009 36.0
1558.385376 32.0
1562.615845 40.0
1563.674316 36.0
1565.086304 68.0
1567.76062 56.0
1568.730469 44.0
1572.63562 60.0
1581.723999 36.0
1588.322388 48.0
1589.008423 36.0
1589.734497 484.0
1590.500244 52.0
1590.710693 148.0
1591.708374 128.0
1592.759766 136.0
1593.738281 140.0
1594.399902 36.0
1594.679932 76.0
1595.469116 48.0
1596.830933 60.0
1598.755493 32.0
1618.684082 48.0
1620.647827 32.0
1622.804077 68.0
1636.752075 64.0
1666.764526 32.0
1670.788574 32.0
1674.699219 68.0
1819.697754 100.0
1884.437622 116.0
END IONS
