BEGIN IONS
PEPMASS=1081.59
CHARGE=1
MSLEVEL=2
SOURCE_INSTRUMENT=LC-ESI-Hybrid FT
FILENAME=f.eriche/Elkeneu/EH_2014_06_18_standardsmix_140624205553.mzXML;
SEQ=*..*
IONMODE=Positive
ORGANISM=GNPS-LIBRARY
NAME=nostopeptolide A1 M+H
PI=Piel, Dittmann
DATACOLLECTOR=eriche
SMILES=CCCC(=O)N[C@@H]([C@@H](C)CC)C(=O)N[C@H]1COC(=O)[C@@H]2CCCN2C(=O)[C@@H](NC(=O)[C@@H](NC(=O)CNC(=O)[C@@H](NC(=O)CC(=O)[C@@H](NC(=O)[C@@H]3C[C@@H](CN3C1=O)C)CC(C)C)CC(C)C)CC(=O)N)CC4=CC=C(C=C4)O
INCHI=InChI=1S/C53H80N10O14/c1-9-12-43(67)61-46(31(8)10-2)50(73)60-38-27-77-53(76)39-13-11-18-62(39)51(74)37(22-32-14-16-33(64)17-15-32)59-48(71)36(23-42(54)66)57-45(69)25-55-47(70)35(20-29(5)6)56-44(68)24-41(65)34(19-28(3)4)58-49(72)40-21-30(7)26-63(40)52(38)75/h14-17,28-31,34-40,46,64H,9-13,18-27H2,1-8H3,(H2,54,66)(H,55,70)(H,56,68)(H,57,69)(H,58,72)(H,59,71)(H,60,73)(H,61,67)/t30-,31-,34-,35-,36-,37-,38-,39-,40-,46-/m0/s1
INCHIAUX=
PUBMED=
SUBMITUSER=eriche
TAGS=
LIBRARYQUALITY=3
SPECTRUMID=CCMSLIB00000223994
SCANS=2553
84.080933 545087.8125
86.096725 178212.703125
107.177635 43927.65625
116.070312 278956.09375
136.075623 80725.023438
156.101196 192781.78125
156.137375 207865.671875
158.621826 45978.804688
163.419556 45555.988281
181.096359 557991.5625
184.132431 204927.734375
186.78598 37959.140625
199.106689 47796.277344
209.0914 707410.4375
210.093613 47185.855469
234.110703 270446.21875
249.158432 783786.0625
250.117401 101590.632812
250.161514 50048.65625
253.153503 85099.835938
267.168823 2547728.0
268.171051 388780.5625
269.183655 54590.808594
278.110779 76007.976562
279.132385 505797.75
285.153778 591038.875
296.159485 661940.0
297.161835 89984.273438
335.131439 174161.453125
336.189087 618884.3125
336.226349 1158523.875
337.192078 47527.398438
337.229309 157033.921875
352.257751 61072.296875
354.199707 247183.953125
362.243073 89224.703125
364.183105 974263.125
364.221497 2042003.125
365.183929 91328.734375
365.22403 394704.21875
368.21698 575133.6875
380.253296 190355.265625
381.252136 51255.984375
382.232513 507067.125
383.23645 88014.640625
385.209076 72980.757812
403.194183 226269.34375
406.231628 80917.578125
420.221375 669528.5625
421.22644 229070.578125
431.190796 95348.929688
432.246674 59088.558594
433.180206 80587.507812
433.241882 1934679.125
434.246246 468205.71875
437.273621 93028.507812
448.217255 1378358.125
449.223907 314091.5625
449.273071 340027.46875
450.277466 83090.117188
451.252563 1054321.25
452.258392 315230.90625
454.298706 48222.316406
459.217621 167801.265625
477.269287 221706.390625
488.285919 52175.796875
495.315887 64302.640625
501.300537 61785.554688
506.293732 332332.4375
519.315186 2867120.5
519.392334 96183.609375
520.317993 629018.0625
534.289551 395778.8125
535.290161 67703.164062
546.25116 560186.9375
546.326843 253375.65625
547.257324 57661.570312
551.307129 177188.390625
563.282104 424042.03125
564.274536 70074.835938
569.278931 62231.996094
586.295166 68600.5625
587.282166 88629.734375
596.305298 102921.398438
603.319763 213114.875
614.31134 93510.492188
615.276917 79914.742188
620.335144 217887.875
621.342957 57566.015625
632.301819 85341.742188
632.393555 292580.90625
633.401123 79303.976562
634.377136 695754.9375
635.378601 235575.75
648.329346 72940.84375
651.088684 60223.191406
669.352356 84396.882812
680.329529 50602.421875
686.386597 82855.070312
689.416565 81278.992188
697.358765 97146.851562
708.324646 50759.261719
711.338684 48916.882812
714.379211 223640.109375
715.381348 72121.304688
717.382568 84508.328125
718.379578 90159.445312
726.3479 63472.011719
743.367554 227295.40625
765.37793 51026.230469
766.373962 232871.921875
767.372742 78093.820312
783.399536 226020.921875
803.456055 182935.046875
811.397034 292112.0
812.410095 346837.4375
829.437378 90888.53125
830.447388 80603.96875
852.448059 101648.109375
853.442261 223982.625
854.439026 72030.585938
862.437744 83115.476562
863.426697 1183878.625
864.425842 553937.5
871.468811 72197.140625
873.527161 58925.4375
880.45343 1234793.75
881.447693 1056236.625
882.433289 315623.375
898.464355 1214996.125
899.46698 658759.125
966.506226 61015.378906
967.504333 50367.390625
1053.58667 66679.53125
END IONS
