BEGIN IONS
PEPMASS=1209.63
CHARGE=1
MSLEVEL=2
SOURCE_INSTRUMENT=DI-ESI-qTof
FILENAME=gnps_Lecirelin_pos_MplusH.mgf
SEQ=*..*
IONMODE=Positive
ORGANISM=GNPS-LIBRARY
NAME=Lecirelin M+H
PI=Norberto Lopes
DATACOLLECTOR=Norberto Lopes
SMILES=O=C(N[C@@H](C(N[C@@H](C(N[C@H](C(N[C@@H](C(NC(C(N1CCCC1C(NCC)=O)=O)CCCNC(N)=N)=O)CC(C)C)=O)C(C)(C)C)=O)CC2=CC=C(O)C=C2)=O)CO)[C@@H](NC([C@H](CC3=CN=CN3)NC([C@H]4NC(CC4)=O)=O)=O)CC5=CNC6=CC=CC=C65
INCHI=InChI=1S/C59H84N16O12/c1-7-63-55(85)46-15-11-23-75(46)57(87)40(14-10-22-64-58(60)61)68-50(80)41(24-32(2)3)72-56(86)48(59(4,5)6)74-53(83)42(25-33-16-18-36(77)19-17-33)69-54(84)45(30-76)73-51(81)43(26-34-28-65-38-13-9-8-12-37(34)38)70-52(82)44(27-35-29-62-31-66-35)71-49(79)39-20-21-47(78)67-39/h8-9,12-13,16-19,28-29,31-32,39-46,48,65,76-77H,7,10-11,14-15,20-27,30H2,1-6H3,(H,62,66)(H,63,85)(H,67,78)(H,68,80)(H,69,84)(H,70,82)(H,71,79)(H,72,86)(H,73,81)(H,74,83)(H4,60,61,64)/t39-,40?,41?,42-,43-,44-,45+,46?,48?/m0/s1
INCHIAUX=N/A
PUBMED=N/A
SUBMITUSER=rsilva
TAGS=
LIBRARYQUALITY=3
SPECTRUMID=CCMSLIB00000081596
SCANS=1
911.430298 1439.0
942.646729 1535.0
961.542542 1360.0
1039.5271 4142.0
1040.530396 2453.0
1050.496826 2534.0
1051.495117 1798.0
1067.518921 7133.0
1068.518066 4427.0
1078.533569 1712.0
1179.622314 1970.0
1180.624023 1329.0
1191.618286 2838.0
1192.624512 2874.0
1209.634521 93580.0
END IONS
