BEGIN IONS
PEPMASS=610.36
CHARGE=1
MSLEVEL=2
SOURCE_INSTRUMENT=LC-ESI-qToF
FILENAME=P1_C5_conc_GA5_01_2411.mzXML
SEQ=*..*
IONMODE=Positive
ORGANISM=GNPS-LIBRARY
NAME=Apicidin B_120250 M+H
PI=Cichewicz
DATACOLLECTOR=Luzzatto
SMILES=O=C(N[C@@H](CCCCCC(CC)=O)C(N[C@@H](CC1=CN(OC)C2=C1C=CC=C2)C3=O)=O)[C@@H](CCC4)N4C([C@H]([C@H](CC)C)N3)=O
INCHI=N/A
INCHIAUX=N/A
PUBMED=N/A
SUBMITUSER=tal_lk
TAGS=
LIBRARYQUALITY=2
SPECTRUMID=CCMSLIB00000478090
SCANS=1455
115.052856 512.0
117.057755 1116.0
126.052025 884.0
128.049881 572.0
130.065018 5016.0
131.063782 1416.0
132.071106 752.0
135.07962 420.0
138.12709 544.0
139.109161 520.0
140.073334 388.0
141.101364 908.0
142.063919 252.0
142.10968 752.0
143.070679 644.0
144.082825 272.0
145.052689 1368.0
153.095917 256.0
156.137711 15592.0
157.075165 5632.0
157.140121 1028.0
158.058167 264.0
158.082855 8356.0
159.089828 2376.0
160.075348 5192.0
161.077591 740.0
166.124512 264.0
167.126312 344.0
169.051849 252.0
169.077698 1040.0
170.060349 7120.0
170.101685 468.0
171.064041 772.0
172.068817 256.0
180.136459 420.0
183.059418 592.0
183.14888 3184.0
184.133041 524.0
184.151337 780.0
185.07045 1292.0
185.133224 388.0
186.07756 828.0
187.066193 288.0
187.084229 368.0
189.101654 616.0
194.118103 348.0
194.150894 1424.0
195.157745 696.0
197.104172 424.0
199.120819 1756.0
200.069443 440.0
200.121704 292.0
201.063721 256.0
201.16008 816.0
207.119736 252.0
208.173172 364.0
209.124435 520.0
210.129333 344.0
211.084595 424.0
211.14357 6624.0
212.148102 776.0
213.135834 308.0
217.09906 436.0
218.083206 696.0
224.134491 312.0
225.064713 272.0
225.134933 1604.0
226.139999 360.0
227.153503 1800.0
228.159729 884.0
237.125671 640.0
237.198227 676.0
238.156525 288.0
239.145447 444.0
240.144714 340.0
242.164658 356.0
250.126404 384.0
251.170151 420.0
252.185577 352.0
253.095825 368.0
253.129974 476.0
253.190567 15216.0
254.137985 264.0
254.195435 2796.0
255.152451 628.0
255.204041 488.0
263.170532 308.0
266.146454 532.0
270.159424 5584.0
271.164001 1640.0
272.163391 544.0
276.21637 264.0
280.182648 760.0
281.127197 1268.0
281.184296 6240.0
282.132935 652.0
282.189606 888.0
283.144135 1044.0
283.196198 316.0
285.15863 408.0
296.196442 500.0
297.201019 576.0
298.156006 3328.0
298.209229 1756.0
299.155487 432.0
299.208038 624.0
307.179382 688.0
308.178467 428.0
309.190674 372.0
310.203857 600.0
319.190765 436.0
322.155884 504.0
322.197083 828.0
323.172577 1500.0
325.207397 388.0
326.202057 388.0
330.183319 332.0
333.157867 480.0
335.21936 536.0
337.197052 2356.0
338.213623 920.0
340.196686 264.0
341.214447 508.0
342.215302 416.0
350.207764 1156.0
351.171173 488.0
351.210297 664.0
352.178192 480.0
353.233093 308.0
354.195312 640.0
355.202759 388.0
360.191711 300.0
365.196106 1156.0
370.212585 356.0
372.224579 336.0
376.254028 656.0
379.18631 348.0
380.19986 332.0
393.203003 336.0
394.26825 2688.0
395.202057 1172.0
395.272125 664.0
396.196167 340.0
400.228729 568.0
406.287811 288.0
420.23642 396.0
421.271515 768.0
422.282806 312.0
427.237488 484.0
437.272369 372.0
449.273621 428.0
450.281311 3720.0
451.283386 1704.0
459.268036 316.0
463.29184 1428.0
464.2948 716.0
465.250763 560.0
466.260315 996.0
467.274567 1832.0
468.276337 912.0
469.282623 512.0
494.249329 1152.0
495.246826 580.0
496.267273 256.0
497.274384 7588.0
498.279205 1916.0
499.281128 416.0
510.278442 728.0
513.305115 692.0
514.316345 448.0
533.302551 320.0
534.325806 488.0
550.338074 2796.0
551.344177 4732.0
552.350891 1756.0
553.357788 1144.0
578.332947 7092.0
579.339661 13864.0
580.344055 4632.0
581.346741 1360.0
582.35907 2024.0
583.362854 1068.0
584.366821 564.0
592.346558 332.0
608.341003 336.0
609.338806 444.0
609.826904 364.0
610.358948 30484.0
610.530151 372.0
610.983093 288.0
611.363098 12180.0
612.36377 2840.0
613.358398 840.0
END IONS
