BEGIN IONS
PEPMASS=1111.64
CHARGE=1
MSLEVEL=2
SOURCE_INSTRUMENT=LC-ESI-Hybrid FT
FILENAME=f.novakj/Valinomycin.mzXML;
SEQ=*..*
IONMODE=Positive
ORGANISM=GNPS-LIBRARY
NAME=Valinomycin M+H
PI=Havlicek
DATACOLLECTOR=
SMILES=CC1C(=O)NC(C(=O)OC(C(=O)NC(C(=O)OC(C(=O)NC(C(=O)OC(C(=O)NC(C(=O)OC(C(=O)NC(C(=O)OC(C(=O)NC(C(=O)O1)C(C)C)C(C)C)C(C)C)C)C(C)C)C(C)C)C(C)C)C)C(C)C)C(C)C)C(C)C
INCHI=
INCHIAUX=
PUBMED=26195308
SUBMITUSER=novakj
TAGS=
LIBRARYQUALITY=3
SPECTRUMID=CCMSLIB00000531483
SCANS=1
325.212158 15607163.0
343.222748 253516784.0
344.226135 34718328.0
353.207123 22161738.0
371.217621 464590336.0
372.221008 70931832.0
443.23877 41616872.0
471.270081 52305656.0
496.301727 15099498.0
514.312195 683857600.0
514.320374 14832299.0
515.315552 160300880.0
524.333008 67794160.0
525.336182 14921872.0
542.307129 466970752.0
542.343506 485558400.0
543.310486 115089712.0
543.346863 121878840.0
552.327881 28884048.0
570.338379 311430208.0
571.341797 81192184.0
614.364685 47726756.0
615.367981 13361268.0
641.412048 12673809.0
642.359558 103761376.0
643.362976 28425908.0
695.422485 100360824.0
696.426025 32021840.0
713.4328 1133662592.0
714.436401 374022688.0
715.439636 61342440.0
723.417297 15989086.0
741.427917 364529600.0
742.431458 122753176.0
743.434509 20390760.0
759.43866 20511268.0
785.454224 31919838.0
813.449097 20662402.0
813.485718 22007178.0
841.48053 16531942.0
866.512024 25543860.0
884.499756 12539624.0
884.522644 496860896.0
885.526123 213147600.0
886.528992 46938304.0
894.543274 43726352.0
895.546814 19092476.0
912.517578 120811648.0
912.553955 303720576.0
913.52124 51724656.0
913.557373 133460344.0
914.560181 31327842.0
940.548828 62485984.0
941.552368 27379910.0
984.575195 68486976.0
985.57843 31436810.0
1012.570251 35759664.0
1013.573242 18120932.0
1065.632812 146637984.0
1066.636597 75743528.0
1067.638794 21721526.0
1083.643188 1089500800.0
1084.646484 643544768.0
1085.64978 193648480.0
1086.652344 28584940.0
1111.638428 113151288.0
1112.641602 67630528.0
1113.644287 20319818.0
END IONS
