BEGIN IONS
PEPMASS=304.16
CHARGE=1
MSLEVEL=2
SOURCE_INSTRUMENT=LC-ESI-qTof
FILENAME=f.amcaraballor/20141219/20141219_COCULTURE_mzXML/A7_BLUE_P2-A-4_01_17854.mzXML;
SEQ=*..*
IONMODE=Positive
ORGANISM=GNPS-LIBRARY
NAME=Antibiotic TAN 1169A M+H
PI=Monica T Pupo
DATACOLLECTOR=amcaraballor
SMILES=O=C(NC)OC1=CC=C(N(C)[C@]2([H])[C@@]3(C)CCN2C(C)=O)C3=C1
INCHI=InChI=1S/C16H21N3O3/c1-10(20)19-8-7-16(2)12-9-11(22-15(21)17-3)5-6-13(12)18(4)14(16)19/h5-6,9,14H,7-8H2,1-4H3,(H,17,21)/t14-,16-/m0/s1
INCHIAUX=
PUBMED=
SUBMITUSER=amcaraballor
TAGS=
LIBRARYQUALITY=3
SPECTRUMID=CCMSLIB00000427288
SCANS=283
143.085648 480.0
144.08757 4996.0
145.094727 9816.0
146.07048 7700.0
147.080093 5492.0
148.084473 684.0
154.073303 1764.0
155.0802 1924.0
156.090057 1816.0
157.073227 1508.0
158.071289 4672.0
159.082489 1252.0
160.118164 21128.0
161.09613 5896.0
162.099426 2272.0
170.103195 2692.0
171.105682 1368.0
172.082718 40464.0
172.252411 380.0
172.973953 376.0
173.091492 264600.0
173.274475 372.0
174.095261 25264.0
175.096649 2092.0
176.112778 4392.0
177.112793 444.0
186.101151 1264.0
187.107208 3292.0
188.026978 988.0
188.115875 376992.0
188.320404 496.0
189.117462 55452.0
190.119049 3700.0
206.886856 312.0
212.112015 2072.0
213.116486 352.0
218.11644 1064.0
219.112701 404.0
229.136688 472.0
230.123077 1468.0
233.131409 836.0
245.13324 44676.0
246.135651 7200.0
247.147705 7360.0
248.151367 916.0
249.152832 540.0
261.916565 572.0
304.168976 5292.0
305.170227 872.0
END IONS
