BEGIN IONS
PEPMASS=1333.61
CHARGE=1
MSLEVEL=2
SOURCE_INSTRUMENT=LC-ESI-Hybrid FT
FILENAME=f.novakj/siderophores/Desferri_pyoverdin_E.mzXML;
SEQ=*..*
IONMODE=Positive
ORGANISM=GNPS-LIBRARY
NAME=Pyoverdin E (PaO1) M+H
PI=Havlicek
DATACOLLECTOR=
SMILES=CC(O)C1NC(=O)C(NC(=O)C(CCCN(O)C=O)NC(=O)C(CCCCNC1=O)NC(=O)C(CCCN(O)C=O)NC(=O)C(CO)NC(=O)C(CCCNC(N)=N)NC(=O)C(CO)NC(=O)C1CCN=C2N1C1=C(C=C(O)C(O)=C1)C=C2NC(=O)CCC(N)=O)C(C)O
INCHI=
INCHIAUX=
PUBMED=27956353
SUBMITUSER=novakj
TAGS=
LIBRARYQUALITY=3
SPECTRUMID=CCMSLIB00001059093
SCANS=1
149.436264 568479.0
173.496429 3121779.0
210.624603 1245836.0
274.860016 611846.0
288.344208 590665.0
288.345367 6632070.0
292.038239 565875.0
311.507599 1013643.0
333.758087 667569.0
356.135162 662512.0
357.119232 1957013.0
358.122589 615553.0
374.145874 2496553.0
398.145813 1158511.0
399.129822 1749831.0
416.156342 934014.0
426.140656 593527.0
427.124847 1542778.0
444.151215 1415520.0
459.198578 769473.0
501.220215 779405.0
519.177429 795148.0
522.20929 1015422.0
539.236084 1030166.0
540.21991 4983478.0
541.203979 5538900.0
541.223389 927340.0
542.20697 1401241.0
557.24646 2406405.0
558.230469 3709540.0
558.250244 618458.0
559.233948 966711.0
565.215515 752477.0
566.198975 729291.0
580.2146 679583.0
582.24176 2518143.0
583.225647 6026421.0
584.074646 1211628.0
584.229004 1532113.0
591.230774 606508.0
592.215149 1462785.0
600.252319 5203786.0
601.236389 2493482.0
601.255737 1499155.0
602.239563 571556.0
609.241394 664138.0
618.263 1264562.0
629.170288 655420.0
652.247192 1902065.0
653.230896 1303563.0
653.250671 730738.0
669.273499 1145750.0
670.257507 1635269.0
687.284058 1090848.0
782.321228 820813.0
783.305664 836601.0
800.331909 1701555.0
801.335022 653714.0
811.299988 669413.0
827.436646 757743.0
828.326599 2999220.0
829.329468 1094808.0
845.353027 1582437.0
846.356628 655450.0
846.441528 677097.0
862.473206 703197.0
872.45813 1031225.0
873.441711 1373234.0
890.468384 7688406.0
890.479614 693312.0
891.47229 2546399.0
892.476501 735798.0
925.437195 1182646.0
959.48999 1422953.0
977.501465 973592.0
985.468994 2401729.0
986.472351 880255.0
1003.479858 1842681.0
1004.484253 731029.0
1013.499573 697612.0
1029.495239 1196143.0
1031.511108 4338236.0
1032.515015 1703546.0
1033.516357 709400.0
1101.463745 656554.0
1102.018188 664352.0
1103.338379 733878.0
1103.519531 654691.0
1192.559937 767619.0
1199.541382 711305.0
1204.569458 790858.0
1206.586426 1371688.0
1207.5896 870080.0
1216.570068 1240725.0
1217.553833 5390431.0
1218.557129 3208015.0
1219.560181 853367.0
1224.575073 709132.0
1225.557861 1336346.0
1234.580322 10253613.0
1234.602051 1064621.0
1235.544189 2011666.0
1235.584229 5619647.0
1236.525879 1573787.0
1236.588013 1505799.0
1244.565918 1187453.0
1245.56665 770692.0
1246.571533 698614.0
1252.570068 3047822.0
1253.553589 5018474.0
1254.557617 2800426.0
1255.54834 1000323.0
1255.572754 1141181.0
1256.55249 1194908.0
1258.581421 1322181.0
1260.594849 749765.0
1268.56543 907964.0
1269.596069 2060855.0
1270.044556 698510.0
1270.580444 7356169.0
1271.560913 1489430.0
1271.583984 3972571.0
1272.558472 2870495.0
1273.562012 1544978.0
1274.564575 2483134.0
1275.565796 1234679.0
1280.564697 1969235.0
1281.548706 2329642.0
1282.551147 1385270.0
1285.591919 1492077.0
1286.574829 4437672.0
1287.578247 2435154.0
1287.608032 4803731.0
1287.947266 863693.0
1288.05188 694790.0
1288.106567 917153.0
1288.174072 691096.0
1288.227051 725594.0
1288.350342 732095.0
1288.567993 1164451.0
1288.591064 13839585.0
1289.594727 8426847.0
1290.597046 2399753.0
1291.590576 1840038.0
1292.593872 1274608.0
1297.591309 3590642.0
1298.575317 15055141.0
1299.559326 10239216.0
1299.578491 9104905.0
1300.561768 5616918.0
1301.564697 2046872.0
1303.602783 1475378.0
1304.607178 1507372.0
1305.617798 3768502.0
1306.620972 2716192.0
1307.625244 1019206.0
1315.564819 1121570.0
1315.60144 22599486.0
1315.625854 1490435.0
1315.638794 795806.0
1316.521851 831187.0
1316.535156 1659261.0
1316.548218 2343817.0
1316.561401 6378939.0
1316.58606 87329696.0
1316.607544 14171711.0
1316.66272 862730.0
1317.551514 1438883.0
1317.564819 3899199.0
1317.589355 53679052.0
1317.612671 5406329.0
1317.653564 967510.0
1318.592041 17677280.0
1318.617065 1544784.0
1319.594971 3898880.0
1332.60376 691246.0
1333.574097 1044780.0
1333.587402 2143198.0
1333.612671 33558208.0
1333.636841 2480045.0
1333.651123 1187365.0
1334.615967 21932536.0
1334.640381 1703231.0
1335.61853 7904428.0
1336.619507 1752367.0
END IONS
