BEGIN IONS
PEPMASS=739.238
CHARGE=1
MSLEVEL=2
SOURCE_INSTRUMENT=LC-ESI-Orbitrap
FILENAME=f.daniel/Albis/XA_Frac_2.mzXML;
SEQ=*..*
IONMODE=Positive
ORGANISM=GNPS-LIBRARY
NAME=Propionyl-Albicidin M+H
PI=Roderich Suessmuth
DATACOLLECTOR=Daniel Petras
SMILES=O=C(NC1=CC=C(C(NC(CC#N)C(NC2=CC=C(C(NC3=CC=C(C(NC4=CC=C(C(O)=O)C(O)=C4OC)=O)C(O)=C3OC)=O)C=C2)=O)=O)C=C1)CC
INCHI=
INCHIAUX=
PUBMED=28876492
SUBMITUSER=daniel
TAGS=
LIBRARYQUALITY=3
SPECTRUMID=CCMSLIB00004681475
SCANS=696
225.833328 0.548703
226.416672 4.4e-05
233.083328 0.821712
233.666672 6.2e-05
244.333328 0.54211
244.833328 4.9e-05
255.166672 1.811815
255.75 0.000118
259.083344 0.604504
259.666656 5.5e-05
267.166656 1.473293
267.666656 0.000123
271.75 1.371453
272.25 4.303458
272.833344 0.00022
273.083344 1.436465
273.666656 9.4e-05
285.083344 133.105469
285.916656 0.000829
294.0 1.61919
294.5 0.000139
307.083344 1.90419
307.583344 0.00012
313.083344 0.61371
313.25 0.632365
313.833344 4.9e-05
318.916656 1.20129
319.083344 1.948884
319.333344 4.37257
319.833344 0.00025
329.75 4.696162
330.25 0.708395
331.166656 432.589691
332.083344 0.000339
334.916656 2.044199
335.5 0.000142
337.333344 2.171964
337.916656 0.000153
339.0 0.718054
339.416656 0.838159
340.0 4.2e-05
347.166656 3.640703
348.166656 1.325148
348.583344 0.960463
349.083344 74.459549
350.083344 0.000191
353.333344 1.402405
353.916656 9.5e-05
355.083344 1.721819
355.416656 3.537545
355.916656 0.000214
356.25 8.034942
356.916656 4.786685
357.5 0.000276
362.25 1.628432
363.0 5.029335
363.333344 0.864415
364.083344 16.129028
365.0 2.83973
365.166687 3.750579
365.75 0.000355
368.416687 1.865553
368.916687 0.000157
369.333344 0.583562
370.0 4.088046
370.583344 0.000228
371.083344 1.724671
371.666687 0.000162
374.75 1.301996
375.166687 2.520427
375.333344 1.799352
375.916687 0.000122
378.416687 18.277447
379.166687 2.686631
379.666687 0.000133
380.75 2.287312
381.333344 0.000117
383.083344 2.149766
383.25 1.944243
383.833344 0.000113
384.333344 4.419088
384.916687 0.000198
391.166687 616.904785
392.166687 0.001111
394.25 1.367605
394.833344 0.000107
396.416687 3.404236
396.916687 0.00018
408.25 1.194759
408.5 3.949653
408.833344 6.53898
409.416687 9.926795
410.083344 1.79404
410.666687 0.000115
422.166687 1.162887
422.333344 1.383119
422.916687 0.000111
423.166687 1.786283
423.416687 1.953036
423.916687 0.000129
430.166687 3.292256
430.75 0.000156
438.833344 5.929873
439.416687 0.000417
441.333344 3.761274
441.916687 0.000213
450.25 5.209186
450.833344 0.00029
454.083344 0.807823
454.583344 6.2e-05
462.333344 1.265239
462.833344 0.000102
464.083344 0.761854
464.666687 4.9e-05
467.25 2.61069
468.166687 995.337708
469.083344 0.003743
470.083344 0.727334
470.416687 1.231156
470.916687 6.1e-05
478.0 7.599113
478.583344 0.000576
480.166687 1.680365
480.666687 0.00012
496.416687 1.089903
497.0 6.6e-05
499.333344 0.655215
500.083344 6.772142
500.25 5.51899
500.833344 0.000333
506.166687 4.616453
506.75 0.000238
509.333344 1.320211
509.916687 8.6e-05
510.333344 2.856855
510.916687 0.000152
524.333313 2.410019
524.916687 0.00013
528.166687 0.981845
528.666687 6.1e-05
529.416687 1.051284
530.0 4.723167
530.666687 0.000217
535.416687 1.27677
536.0 8.1e-05
536.5 0.768633
537.166687 5.543288
537.416687 5.840107
538.0 0.636844
538.25 1.845992
538.75 9.7e-05
539.333374 1.444237
539.833374 0.00013
541.0 3.43458
541.583374 0.000249
545.416687 1.795814
546.0 1.72955
546.333374 5.510565
546.666687 3.581888
547.166687 2.841893
547.666687 0.000237
548.25 2.547944
548.75 0.000196
550.416687 1.33808
551.0 2.169149
551.25 4.10135
551.583374 0.977697
552.333374 0.369651
552.916687 2.9e-05
553.333374 1.784567
553.916687 0.000126
554.333374 0.70703
554.75 2.431305
556.25 9183.349609
557.166687 10.334599
557.75 0.000569
563.25 1.23803
563.833374 8.6e-05
566.25 1.224562
566.75 8.9e-05
568.25 3.183957
568.833374 0.000169
569.333374 4.591116
570.166687 4.079322
570.333374 3.360254
570.916687 0.000163
573.833374 11.836069
574.0 12.590437
574.333374 7.172812
574.916687 0.000428
581.666687 1.133203
582.25 7.1e-05
595.25 3.414865
595.833374 0.000177
600.416687 4.079565
600.916687 0.000207
603.083374 0.899894
603.666687 5.8e-05
607.333374 3.070288
607.916687 0.000148
610.25 0.988149
610.5 2.531121
611.083374 3.836647
611.416687 2.155742
612.0 0.000176
612.25 1.421876
612.833374 9e-05
621.333374 1.610162
621.583374 0.642057
622.166687 5.1e-05
634.083374 4.879587
634.666687 0.000244
636.416687 2.9029
636.916687 0.000231
637.333374 1.181028
637.666687 1.311643
638.416687 0.673148
639.0 4e-05
639.583374 1.146222
640.166687 2.08093
640.75 0.000149
641.75 5.690253
642.333374 0.000327
642.833374 1.890628
643.416687 0.000133
647.333374 2.403826
647.916687 0.000118
656.0 1.939136
656.5 0.000144
657.333374 0.864488
657.833374 6.6e-05
658.5 2.04429
659.083374 0.000115
661.416687 0.630555
662.0 5.4e-05
672.416687 1.95245
673.0 0.000131
676.333374 2.080656
676.916687 0.000109
679.333374 3.926919
679.916687 0.000215
680.166687 1.936475
680.833374 1.751264
681.333374 0.000163
683.5 4.54403
684.0 0.000228
691.5 0.858756
691.833374 1.828767
692.333374 0.746507
692.75 1.53638
693.25 0.000126
694.166687 3.167363
694.833374 0.000151
696.333374 2.820392
696.833374 0.00019
698.666687 6.716926
699.25 0.000422
701.166687 1.91912
701.666687 0.000113
701.916687 2.441319
702.5 0.000174
702.833374 1.875712
703.166687 0.789794
703.5 3.525119
704.083374 0.000175
706.083374 4.940721
706.333374 3.432357
706.916687 3.17841
707.25 3.899146
707.75 0.00029
709.5 1.290085
710.083374 6.8e-05
714.166687 9.962975
714.75 0.000661
719.416687 3.014237
719.916687 4.106923
720.333374 11.66959
720.583374 12.75672
721.25 176.273209
722.0 2.755877
722.333374 2.819972
722.5 1.584014
723.083374 8.9e-05
723.5 0.703472
724.083374 3.6e-05
724.583374 2.274639
725.166687 0.000163
726.333374 8.710524
726.916687 0.000435
728.5 2.478885
729.0 0.000187
729.333374 5.075248
729.916687 0.000247
730.833374 1.604421
731.333374 9e-05
737.583374 2.741281
738.083374 0.000156
738.583374 2.981145
738.916687 1.046013
739.583374 4.33785
740.083374 0.000392
END IONS
