BEGIN IONS
PEPMASS=1667.0
CHARGE=1
MSLEVEL=2
SOURCE_INSTRUMENT=DI-ESI-Ion Trap
FILENAME=Didemnin_X_IT_1667mz.mzXML
SEQ=*..*
IONMODE=Positive
ORGANISM=GNPS-LIBRARY
NAME=Didemnin X M+H
PI=Dorrestein/Moore
DATACOLLECTOR=Roland Kersten
SMILES=O=C(N)CCC(NC(=O)C(CCC(N)=O)NC(=O)C[C@H](O)CCCCCCC)C(=O)NC(CCC(N)=O)C(=O)OC(C)C(=O)N1CCCC1C(=O)N(C)[C@H](CC(C)C)C(=O)N[C@@H]3C(=O)N[C@H]([C@@H](O)CC(=O)O[C@@H](C(C)C)C(=O)[C@H](C)C(=O)N[C@@H](CC(C)C)C(=O)N4CCC[C@H]4C(=O)N(C)[C@@H](Cc2ccc(OC)cc2)C(=O)O[C@@H]3C)[C@@H](C)CC
INCHI="InChI=1S/C82H131N13O23/c1-16-18-19-20-21-24-52(96)42-66(101)86-54(31-34-63(83)98)73(105)87-55(32-35-64(84)99)74(106)88-56(33-36-65(85)100)81(113)117-50(12)77(109)94-37-22-25-58(94)79(111)92(13)60(40-45(5)6)75(107)91-69-49(11)116-82(114)61(41-51-27-29-53(115-15)30-28-51)93(14)80(112)59-26-23-38-95(59)78(110)57(39-44(3)4)89-72(104)48(10)70(103)71(46(7)8)118-67(102)43-62(97)68(47(9)17-2)90-76(69)108/h27-30,44-50,52,54-62,68-69,71,96-97H,16-26,31-43H2,1-15H3,(H2,83,98)(H2,84,99)(H2,85,100)(H,86,101)(H,87,105)(H,88,106)(H,89,104)(H,90,108)(H,91,107)/t47-,48-,49+,50?,52+,54?,55?,56?,57-,58?,59-,60+,61-,62-,68-,69-,71-/m0/s1"
INCHIAUX=N/A
PUBMED=22458477
SUBMITUSER=mcruesemann
TAGS=
LIBRARYQUALITY=3
SPECTRUMID=CCMSLIB00000075333
SCANS=36
464.517365 19.777302
465.272736 1.205468
466.203186 13.064855
468.151672 311.660858
469.341705 127.274956
470.142303 32.405689
472.182007 20.157051
473.462952 22.676706
474.244965 90.004623
475.164825 271.415802
476.213257 91.999199
476.745941 11.454865
477.352997 100.80201
478.255066 67.811768
479.253479 44.16497
480.562042 33.709053
481.124084 28.631332
481.679718 2.72019
482.345703 283.064484
483.335297 97.965492
484.133392 86.108253
485.235382 104.613373
486.229462 7.282419
487.321503 22.818546
488.074463 23.009964
489.130402 66.182289
490.220612 748.714172
491.231506 829.26947
492.214264 988.340881
493.201508 417.845276
494.18866 82.489189
495.119232 101.321289
496.424896 45.164261
497.729675 13.46752
498.609711 16.408113
499.351807 85.54454
500.10672 48.483101
501.345001 141.547577
502.185944 260.73291
503.144287 928.082153
504.106079 311.078888
505.177338 171.548813
506.329803 62.554401
507.346985 1797.912476
508.19043 5022.862793
509.175262 1749.140381
510.263885 2066.210693
511.284607 347.775299
512.246521 175.270432
513.238342 103.429436
513.987549 17.739792
514.713379 8.056742
515.430847 34.834103
516.336365 48.20145
517.186035 198.594589
518.235779 655.556885
519.215942 1820.995483
520.213806 1527.634766
521.142334 781.233643
522.132996 234.195389
523.228394 213.25148
524.12439 269.366943
525.242249 1428.144165
526.302979 693.173096
527.280151 88.085716
528.24585 221.811356
529.161438 151.480789
530.265747 61.510796
531.432617 27.460129
532.389893 20.077606
533.297302 41.526161
534.17749 178.442352
535.345337 4553.385254
536.211304 25122.796875
537.226379 7496.344727
538.2323 3219.839111
539.286499 828.261841
540.369629 478.138123
541.289429 227.325562
542.30011 235.466965
543.190369 143.175598
544.151489 107.382469
544.915283 15.45888
545.448364 65.367958
546.239441 108.774666
547.152771 174.371063
547.803345 61.566418
548.325012 36.615654
548.855042 21.597155
549.533752 48.831474
550.467285 197.126099
551.220825 121.259789
552.26239 138.945633
553.278137 12314.310547
554.24231 6711.677246
555.264343 2434.454346
556.228271 991.452026
557.162231 249.437302
558.292114 1097.668091
559.281616 445.264343
560.380859 232.242386
561.296631 280.884918
562.299072 262.354218
563.234619 189.510162
564.349792 68.714066
564.892334 18.81642
565.396851 106.043716
566.483948 12.351122
567.40155 86.891182
568.278381 96.172195
569.231445 41.288792
570.152588 60.476685
571.240723 13934.789062
572.220459 4326.491699
573.223389 1326.018799
574.163757 358.461884
575.18457 356.75174
576.246521 249.043991
577.27948 297.608185
578.354675 797.927734
579.209595 1668.337402
580.294983 498.091858
581.409851 103.99147
582.32605 28.879467
583.425354 39.44492
584.422058 64.215668
585.382568 56.746246
586.368652 78.179321
587.278748 844.96283
588.293213 366.279877
589.333313 85.496445
590.301086 106.375183
591.449524 311.675232
592.205078 487.881805
593.151733 547.105469
594.175049 326.562836
595.169617 3507.876709
596.243347 2700.440918
597.259338 625.986877
598.179688 56.367027
599.312744 2.901859
600.455383 99.651131
601.302063 407.844696
602.286865 212.24353
603.364502 405.762482
604.319946 732.625854
605.23761 240.471298
606.146423 143.083939
607.258301 115.948776
608.375366 520.829407
609.374451 1230.437134
610.299683 1104.32251
611.176819 380.86377
612.299622 134.788498
613.304138 462.934448
614.406677 134.235229
615.271118 56.267277
616.34491 108.53727
617.349915 72.862198
618.328918 2503.725342
619.274963 2461.4729
620.255676 635.728943
621.292053 612.564697
622.319702 172.557907
623.307739 60.74358
624.062866 44.11517
624.609802 27.527849
625.3349 168.397537
626.247803 167.932693
627.214966 1579.662598
628.199402 464.566223
629.24292 268.74231
630.218933 774.435913
631.247437 220.032745
632.379578 177.856888
633.331055 137.036087
634.301025 30.614103
635.359497 622.84375
636.318054 3016.614014
637.316406 2243.82251
638.268433 1032.400635
639.345825 321.410217
640.401367 32.504028
641.434204 17.120796
642.40741 84.983467
643.318359 127.78537
644.157715 1369.207642
645.237 379.216614
646.230103 295.284729
647.322632 1280.342407
648.315918 2845.083008
649.31073 1091.901978
650.351074 289.873596
651.363464 97.965752
652.38147 250.008835
653.323059 173.171463
654.199158 528.88501
655.242981 560.748657
656.486938 317.114075
657.425049 61.549286
658.35553 40.254936
658.905823 12.748037
659.466736 109.526123
660.553955 513.338501
661.266968 851.397278
662.290527 782.279724
663.294983 677.696533
664.278442 1208.696533
665.364563 2466.064209
666.332581 2954.039551
667.35498 1301.459229
668.321716 237.07991
669.175354 129.002655
670.276917 157.098312
671.390076 393.078888
672.364319 539.493835
673.250977 409.417236
674.351807 261.583984
675.219055 75.496109
676.274353 271.022675
677.342346 366.36554
678.263611 754.549561
679.258972 821.236572
680.204468 487.225403
681.292053 280.367401
682.351929 2020.578125
683.336792 5698.317383
684.327942 2107.465332
685.447632 501.471436
686.349365 211.345047
687.368713 303.036865
688.400879 1037.986816
689.311646 2170.364502
690.23584 2874.744629
691.208679 1126.778809
691.949036 60.542782
692.469238 342.223297
693.389954 339.358673
694.304321 192.456619
694.889099 84.395203
695.515076 325.499817
696.181458 933.425842
697.3302 854.868652
698.332336 785.500427
699.276062 165.8517
700.371216 18715.751953
701.381287 5816.646973
702.349182 1056.887817
703.28125 112.707634
704.359253 314.614227
705.372253 1593.400635
706.379333 8134.074219
707.321899 9484.858398
708.289551 3099.727295
709.296692 400.17688
710.368774 266.120087
711.54895 161.676376
712.283691 113.304611
712.818176 2.604045
713.365234 71.786011
714.229675 65.510986
715.30957 1632.540039
716.341064 1086.015015
717.395203 189.105499
718.37561 51.550152
719.398132 192.967957
720.059753 133.721512
720.585632 40.383579
721.322021 230.639572
722.416321 1556.7771
723.334351 5799.902832
724.302856 14801.816406
725.299805 4411.224609
726.355042 704.21875
727.446777 73.603645
728.345703 121.440041
728.909119 4.265393
729.510376 94.589745
730.35675 93.228348
731.373413 507.095856
732.35321 346.702118
733.313354 2737.891357
734.39325 1389.008423
735.398682 468.027618
736.421875 153.330765
737.44281 73.371407
738.279663 220.217331
739.011963 18.586704
739.531982 70.20517
740.333374 1271.432007
741.344177 562.289307
742.333252 359.557617
743.288452 238.814957
744.3479 110.805931
745.427185 144.895142
746.367737 240.312759
747.309631 227.96788
748.461975 190.328903
749.383179 427.708893
750.266602 292.21344
751.214355 187.429169
752.374451 375.310974
753.279663 85.340073
754.203796 69.236938
755.421448 167.67543
756.309265 62.190536
757.438843 705.284607
758.347778 2138.981689
759.344971 1014.497437
760.329224 1160.314453
761.330017 314.309143
762.466431 312.195374
763.420776 154.627762
764.253845 196.260284
764.76416 48.874851
765.414246 267.941956
766.357605 239.674881
767.34259 307.006134
768.336792 87.128761
769.296021 107.194344
770.419617 634.594299
771.453674 404.059784
772.418335 243.623947
773.325012 118.785522
774.342957 114.611588
775.375671 2111.723633
776.390869 5365.273438
777.382996 2075.088623
778.420227 2135.026123
779.465942 982.733154
780.346436 1383.805542
781.430054 483.090149
782.275757 550.041443
783.298523 485.38681
784.394775 589.421143
785.348022 365.890503
786.42218 236.709351
787.354553 379.733521
788.411682 2357.023926
789.367493 1115.24353
790.40271 483.219818
791.580017 250.291641
792.437622 206.510254
793.433533 3092.439209
794.344971 4791.544434
795.411377 1940.15271
796.399658 492.105682
797.610657 536.509399
798.389893 19049.482422
799.40332 9226.586914
800.324951 2251.773682
801.30127 458.013824
802.345337 280.150482
803.350586 749.359253
804.416748 622.857666
805.435852 1182.073364
806.409302 7619.538086
807.434204 3208.682129
808.43689 728.713989
809.301819 123.174774
810.335327 110.430046
811.399597 1627.533325
812.339172 931.445068
813.256348 282.945221
814.315125 240.466751
815.358826 871.185608
816.352234 29880.179688
817.354309 16894.240234
818.369202 2206.278809
819.311951 209.144119
820.43103 209.870087
821.393433 1266.649048
822.433167 1006.741943
823.324585 1965.740967
824.361267 1325.628296
825.438721 484.516235
826.325623 541.690247
827.291016 447.746674
828.462524 188.33992
829.440796 623.205505
830.381042 237.478928
831.44397 165.703293
832.330688 309.48703
833.424316 21955.689453
834.356018 33394.195312
835.337891 10251.120117
836.326477 1263.042236
837.55481 280.413513
838.345032 833.8479
838.998535 663.10083
839.554749 981.028992
840.517578 49.853676
841.235474 128.184021
842.072266 66.611031
843.348267 1141.961426
844.385559 1043.809326
845.30603 343.827576
845.924194 386.851685
846.559143 516.614014
847.485229 77.354523
848.452026 78.61676
849.331604 824.146851
850.557617 1451.081787
851.376709 105443.820312
852.390198 35660.460938
853.370483 4422.258789
854.09613 21.895954
854.704773 44.075634
855.500244 84.684189
856.577881 173.641434
857.457703 164.738708
858.30249 37.573902
859.33667 105.540329
860.356934 75.858162
861.403503 1708.318604
862.53186 705.562317
863.39325 858.813782
864.415344 266.180115
865.32428 287.678131
866.215271 160.871277
866.818176 1.417113
867.377197 65.477844
868.592773 35.236965
869.350708 45.938675
870.442993 280.062225
871.430786 786.755859
872.418884 621.250366
873.45636 225.616348
874.341675 225.902069
875.421692 335.140167
876.361694 183.522034
877.207703 109.521606
877.720215 63.126808
878.48114 42.525627
879.406738 12.778401
880.451233 64.887825
881.481873 120.163803
882.316284 202.021484
883.57196 118.085442
884.331177 96.575043
885.429016 265.479187
886.418701 161.897675
887.334656 460.718536
888.434814 1770.106445
889.453491 4483.520508
890.466858 2016.208618
891.454224 608.363159
892.450134 188.422195
893.340027 209.80658
894.286194 101.995132
895.005615 46.833755
895.574219 52.938732
896.471985 73.50576
897.522888 307.343475
898.484253 557.075989
899.45636 1946.092773
900.361694 1176.833374
901.528198 359.36145
902.466614 178.220978
903.388916 426.311523
904.424622 366.220459
905.304077 208.154053
906.385925 2285.134277
907.420837 1597.166748
908.39209 405.305328
909.377014 120.197578
910.379944 281.309845
911.490784 310.957703
912.473816 247.197647
913.317627 398.865631
914.410034 343.756897
915.406128 419.01004
916.492065 9653.414062
917.455261 17872.591797
918.454895 7110.307617
919.421082 1654.659302
920.440796 216.433655
921.474976 517.145813
922.499207 259.189178
923.33313 229.618698
924.421814 659.757935
925.443787 571.639343
926.469055 256.085876
927.414551 166.68924
928.373108 150.601715
929.451843 395.17395
930.432007 274.160797
931.470154 1097.032471
932.44104 769.147339
933.418701 615.736511
934.430725 20529.820312
935.440125 11393.02832
936.470947 2755.348633
937.374817 179.806671
938.090942 1.865014
938.734863 38.305698
939.695862 39.450256
940.538757 118.43586
941.265808 92.300438
942.480469 235.756531
943.462402 3591.413818
944.510803 1978.01416
945.448792 294.528137
946.467651 317.380463
947.428772 121.370438
948.338013 244.055786
949.423523 1841.046997
950.4646 1217.332031
951.371277 514.789673
952.409668 5553.275391
953.466553 2589.793945
954.453491 763.55249
955.466492 442.740112
956.446533 235.59964
957.598938 53.654743
958.432251 124.017174
959.540894 24.01148
960.268616 67.526108
960.945679 23.838055
961.508423 147.373718
962.456177 107.920357
963.391235 300.124695
963.909119 3.135595
964.465515 393.705048
965.406067 302.393951
966.455872 544.284973
967.353943 661.178711
968.42395 242.248032
969.483032 83.005157
970.205872 63.859756
970.720764 38.146168
971.439697 450.257935
972.424316 604.336914
973.38147 354.17923
974.425232 200.278488
975.450928 118.564796
976.494629 24.663946
977.092957 4.40121
977.776794 47.197823
978.43927 34.507965
978.965393 12.074678
979.497803 113.14933
980.241333 190.076187
981.372009 156.612732
982.236938 143.410828
983.33252 303.811584
983.909119 6.118737
984.521851 288.990204
985.490784 314.2883
986.336304 197.382812
987.409119 157.070374
988.360535 203.192581
989.383118 202.669342
990.574524 164.095428
991.416199 154.735703
992.57782 72.674072
993.452698 41.589714
994.473267 95.561119
995.44812 164.342392
996.477112 200.05661
997.344177 171.225586
998.538086 429.032074
999.559387 1743.834717
1000.470276 1157.391846
1001.491882 748.729492
1002.551941 418.784485
1003.388977 367.932251
1004.398621 168.163971
1005.373047 118.883797
1006.4198 317.693573
1007.487915 252.566498
1008.487183 55.881874
1009.43457 307.407745
1010.437012 196.641495
1011.437073 181.816879
1012.459534 268.511536
1013.506714 761.883057
1014.525513 952.05603
1015.49646 781.673279
1016.56134 4128.196289
1017.495178 9811.599609
1018.482544 5001.677734
1019.519226 1264.260498
1020.418701 93.876633
1021.343933 155.042496
1022.346436 263.954681
1023.090942 3.118387
1023.779297 74.671219
1024.419312 148.879379
1025.250732 149.875931
1026.488647 758.614258
1027.455811 4403.748047
1028.469849 3938.97876
1029.539551 1132.29187
1030.543091 418.48761
1031.541138 1759.159546
1032.504517 1393.187622
1033.509155 511.930237
1034.424072 3977.226074
1035.462402 2587.144287
1036.421631 901.729004
1037.362549 83.270561
1038.434448 324.748291
1039.396606 319.642212
1040.477661 3614.907715
1041.50293 2074.115723
1042.514282 329.545715
1043.536621 328.428864
1044.535034 17566.041016
1045.502441 39356.453125
1046.515259 19079.109375
1047.523071 4009.762451
1048.421387 456.734131
1049.487549 1091.784912
1050.525513 600.191345
1051.434448 80.581223
1052.449097 736.361267
1053.489868 460.936432
1054.370483 238.505432
1055.52417 827.254944
1056.427368 1582.875122
1057.516357 1343.577148
1058.502563 327.638336
1059.403931 185.538528
1060.373901 236.529358
1061.357666 350.262512
1062.45459 29707.886719
1063.459717 20017.75
1064.498535 5392.633789
1065.481689 659.196167
1066.494507 806.911316
1067.490967 320.356293
1068.481323 299.1651
1069.524902 99.732452
1070.549683 64.481842
1071.56604 63.00935
1072.519531 221.190781
1073.501099 7203.714355
1074.512817 6865.649414
1075.477295 2728.803467
1076.499146 942.240479
1077.577393 270.676697
1078.392212 96.930939
1079.350464 99.180458
1080.460205 5441.952148
1081.461548 3505.996582
1082.437378 1861.647949
1083.476074 762.534485
1084.520508 2822.528809
1085.513306 1555.951172
1086.510864 416.873901
1087.270264 94.383873
1087.780029 101.660919
1088.528809 192.273193
1089.536499 649.515198
1090.705566 830.331848
1091.503052 35156.371094
1092.505371 19589.742188
1093.558838 4929.780762
1094.504761 4538.802734
1095.524048 2699.589111
1096.466431 505.243225
1097.449463 210.264603
1098.404907 346.314178
1099.44165 557.667847
1100.483521 1054.209717
1101.495483 402.627228
1102.564697 225.44014
1103.58252 244.575531
1104.369263 192.721909
1105.281982 173.232559
1105.890747 78.233772
1106.398315 115.132057
1107.37207 213.288635
1108.398071 151.837326
1109.430908 10961.679688
1110.454834 7207.466797
1111.484619 2067.838623
1112.486816 29882.941406
1113.518799 16048.849609
1114.537598 2519.02002
1115.546265 134.793701
1116.641602 111.667709
1117.55542 334.544006
1118.634155 98.855331
1119.611816 246.312332
1120.44519 125.786827
1121.298218 208.660355
1122.488892 246.735916
1123.554688 210.507523
1124.559326 302.823853
1125.515259 533.195068
1126.627319 587.406616
1127.482788 601.395691
1128.571777 535.87616
1129.479492 123.187462
1130.491455 103.958076
1131.602661 159.605469
1132.466797 152.668594
1133.41626 125.26123
1134.307007 50.081841
1134.816284 33.087959
1135.530396 66.215965
1136.473755 38.639526
1137.017578 8.402606
1137.593384 33.950626
1138.477051 57.361702
1139.542969 545.213074
1140.362183 273.895142
1141.44519 854.181824
1142.514893 1859.59314
1143.528687 1479.230469
1144.516846 740.249329
1145.561401 558.422119
1146.471313 190.650864
1147.379395 69.764717
1148.060181 18.314022
1148.690063 80.919724
1149.478882 67.883644
1150.370239 52.936604
1151.583374 80.503532
1152.377563 38.355713
1152.965942 22.556162
1153.605347 38.44598
1154.611938 147.315491
1155.597778 537.929443
1156.57959 623.077148
1157.427002 125.470879
1158.33313 294.72049
1159.487305 2368.326416
1160.544556 2313.111572
1161.46167 1274.484619
1162.501709 341.571045
1163.535278 105.883301
1164.210449 96.633797
1164.909058 2.77038
1165.552979 56.64959
1166.618896 78.597397
1167.635986 88.516174
1168.439941 76.411674
1169.027466 4.976914
1169.565674 191.239899
1170.488403 126.112221
1171.479736 245.886581
1172.534302 1038.03894
1173.510864 1109.630127
1174.528076 598.967468
1175.522583 318.531403
1176.567871 162.18158
1177.522583 966.813721
1178.444702 775.891479
1179.568726 400.991821
1180.550171 118.582741
1181.394531 51.122746
1182.255615 90.266403
1183.368042 107.37043
1184.475098 100.098457
1185.419067 95.383247
1186.587646 457.412872
1187.49585 588.566528
1188.459473 558.402649
1189.333862 114.79229
1190.379028 597.909546
1191.484497 711.139709
1192.552124 304.71933
1193.481445 311.330658
1194.506958 833.811646
1195.531982 1538.37085
1196.541382 1483.120728
1197.616699 529.433167
1198.625977 213.543091
1199.707764 162.706055
1200.557739 37.107338
1201.498169 99.882393
1202.356567 48.530888
1202.889038 118.762352
1203.69397 325.715881
1204.626221 1371.390381
1205.533325 3369.451904
1206.549683 2495.028076
1207.529297 784.222778
1208.509399 218.676193
1209.554932 422.710846
1210.534546 153.021606
1211.524292 411.416748
1212.523438 2048.229492
1213.589966 1581.348633
1214.600708 825.121338
1215.509033 325.586578
1216.446777 273.070984
1217.702515 126.443016
1218.564453 82.638443
1219.597168 212.823181
1220.454956 152.045609
1221.386719 407.202301
1222.572876 15449.134766
1223.572998 29464.994141
1224.560547 13161.268555
1225.560181 2953.202637
1226.503418 514.25647
1227.604004 192.795578
1228.634277 337.085205
1229.546509 4219.43457
1230.565674 3474.183594
1231.535278 1505.408813
1232.499756 1005.47467
1233.539917 381.418213
1234.599365 159.571533
1235.67395 91.130875
1236.317993 47.816734
1236.837891 64.195518
1237.579346 380.671265
1238.587402 709.061279
1239.739258 2437.881836
1240.560791 121717.59375
1241.576904 64637.058594
1242.57312 8764.47168
1243.646484 296.177307
1244.514282 203.579941
1245.327637 110.788162
1245.923584 81.699524
1246.577515 961.255188
1247.517944 4847.13916
1248.58252 2499.191895
1249.596802 1034.940552
1250.65918 196.643204
1251.479858 82.607147
1252.431885 168.163528
1253.013184 188.780014
1253.60437 154.831177
1254.49353 643.281189
1255.498413 724.818237
1256.577271 517.630127
1257.469482 665.104431
1258.568115 4523.895996
1259.610962 2680.811523
1260.56543 1311.883057
1261.677979 218.143112
1262.588867 54.934097
1263.316162 28.492119
1263.965332 67.015205
1264.57019 1449.237915
1265.61853 1206.34729
1266.616333 342.928101
1267.181885 5.366794
1267.721313 83.044548
1268.726929 57.339142
1269.566528 166.499954
1270.65918 197.996628
1271.557007 514.782715
1272.483765 306.703552
1273.326172 226.468887
1274.084106 15.247242
1274.819336 50.338493
1275.437378 25.322123
1276.495483 61.064945
1277.094604 7.889124
1277.64563 75.626823
1278.438477 58.180676
1279.628052 179.65477
1280.497803 100.981194
1281.490479 301.53595
1282.666992 328.873047
1283.565796 351.002075
1284.550171 170.698029
1285.425781 81.0467
1286.315918 45.144024
1287.517334 276.716553
1288.238892 103.093933
1288.78894 178.293625
1289.604858 269.529968
1290.543945 107.797432
1291.586548 126.525032
1292.639893 118.889641
1293.272705 1.036782
1293.778198 63.587669
1294.630981 41.147255
1295.224121 48.771935
1296.547729 394.268799
1297.593262 881.416504
1298.623901 1723.161743
1299.658936 741.661255
1300.6521 1033.902588
1301.604614 930.857483
1302.557617 315.817993
1303.544678 78.58342
1304.528564 105.218231
1305.548096 167.346863
1306.52002 454.692474
1307.567749 692.773254
1308.599976 803.324585
1309.595215 547.026489
1310.589966 336.768555
1311.591309 45.504044
1312.555908 79.370613
1313.344238 79.629494
1313.981567 184.832291
1314.607178 4526.347168
1315.628418 7644.549316
1316.572266 4856.962891
1317.632812 2780.502686
1318.587769 4635.886719
1319.618774 2206.264648
1320.695679 723.28241
1321.549194 44.950356
1322.666504 453.77887
1323.590088 1970.407837
1324.604858 3413.48999
1325.605347 5504.5625
1326.620117 4557.294922
1327.630127 2066.381836
1328.55896 438.510162
1329.571167 192.316467
1330.609253 375.429901
1331.710815 606.255371
1332.609375 32565.140625
1333.623291 28952.378906
1334.635864 12752.998047
1335.623779 2627.612305
1336.593872 748.931519
1337.60083 563.601807
1338.49292 231.672058
1339.613037 147.863647
1340.589844 2375.650146
1341.602051 2559.132568
1342.550049 44844.179688
1343.611694 55990.171875
1344.640381 22895.625
1345.611816 4401.793945
1346.584961 478.864624
1347.498047 421.695831
1348.554688 216.731232
1349.556152 377.173584
1350.638428 30814.699219
1351.602417 81272.820312
1352.594482 43712.417969
1353.613037 10935.416016
1354.681396 1857.816528
1355.675293 1050.087891
1356.725342 480.70163
1357.64978 325.870758
1358.618164 2120.90918
1360.586182 163110.703125
1361.629028 100864.085938
1362.62439 29930.203125
1363.61731 662.703979
1364.64917 201.716034
1365.572388 148.403198
1366.500732 1399.123291
1367.650391 1799.366943
1368.557373 215502.34375
1369.561157 149696.125
1370.597046 19601.126953
1371.676758 497.890442
1372.593994 200.584076
1373.162231 119.102875
1373.842407 214.620682
1374.728516 167.692322
1375.618164 176.273315
1376.49939 97.251671
1377.454956 67.195839
1378.482056 1800.205322
1379.589355 3528.610596
1380.610596 4037.906982
1381.66333 1895.514038
1382.625854 520.455627
1383.537598 59.621204
1384.539551 131.41713
1385.181885 2.517221
1385.692871 100.148773
1386.544434 763.696655
1387.435547 491.772766
1387.942261 152.827118
1388.579834 260.52713
1389.662109 41.890553
1390.571655 107.320618
1391.449951 197.179123
1392.01709 72.410263
1392.679443 107.351929
1393.804688 81.294159
1394.482422 100.228798
1395.658081 257.690948
1397.110596 2785.370605
1397.683472 16565.494141
1398.660156 14194.214844
1399.666748 4197.210938
1400.652588 432.102844
1401.589966 90.958992
1402.4646 53.014362
1403.000122 44.784363
1403.81897 16.608616
1404.821045 25.752869
1405.351685 8.476035
1405.987061 108.196136
1406.740601 98.169724
1407.618408 65.578133
1408.295532 54.02354
1408.82019 33.659069
1409.49646 256.32254
1410.454956 378.168945
1411.437012 188.206192
1412.487915 274.66568
1413.623901 814.760132
1414.552612 278.002594
1415.577148 17836.173828
1416.564331 14890.577148
1417.639282 5367.432129
1418.796021 83.899063
1419.652344 65.654167
1420.626099 93.509018
1421.357422 123.980354
1422.509155 444.360046
1423.154419 70.638519
1423.830688 360.65451
1424.653564 247.230988
1425.598511 56.645584
1426.106201 44.941505
1426.851074 114.301918
1427.804565 23.594025
1428.575195 123.752174
1429.483154 246.790878
1430.643066 209.751938
1431.571289 247.222672
1432.193237 78.075531
1432.762207 5.138414
1433.471069 89.329926
1434.580811 47.199345
1435.514648 53.885567
1436.585815 186.025284
1437.708862 219.331406
1438.564575 317.87854
1439.611084 4881.767578
1440.647827 6078.128906
1441.610229 2011.40271
1442.680298 448.783295
1443.592285 116.891533
1444.441162 30.596458
1445.302246 67.384628
1446.1698 24.717289
1446.808716 84.249901
1447.787354 122.490509
1448.633301 262.383575
1449.677124 262.712891
1450.568115 104.622292
1451.330444 98.266808
1451.845459 16.692692
1452.397217 24.899551
1453.137817 14.773033
1453.825073 86.79232
1454.642334 131.352295
1455.663452 306.455139
1456.537354 568.42926
1457.602173 8206.805664
1458.633911 5981.225586
1459.650513 2173.260254
1460.562378 587.479187
1461.533936 795.511536
1462.623169 746.853333
1463.756714 238.494049
1464.675171 168.797012
1465.574341 313.529236
1466.229858 87.627357
1466.815918 366.898285
1467.772461 197.202972
1468.682739 83.297012
1469.490479 156.78717
1470.197388 44.921825
1470.71106 340.534882
1471.775024 967.066772
1472.735962 2230.079834
1473.649414 1197.892944
1474.698975 936.706421
1475.686035 2610.546387
1476.68811 1912.792847
1477.709717 550.702637
1478.638306 1632.773926
1479.653687 2133.642578
1480.71814 953.445679
1481.623779 512.134949
1482.61145 204.182068
1483.602661 447.556885
1484.716919 343.017731
1485.609985 151.509537
1486.16394 92.818741
1486.795166 54.011101
1487.592651 196.936981
1488.573486 130.401611
1489.16626 40.464336
1489.750732 46.443058
1490.560181 55.960533
1491.545166 476.53302
1492.614868 1367.924927
1493.645996 1372.03125
1494.601807 683.274231
1495.571045 112.42347
1496.612061 689.722229
1497.634644 1162.99353
1498.749756 462.806915
1499.776855 365.746246
1500.740967 84.670792
1501.610352 127.560425
1502.595337 100.046814
1503.324707 181.16333
1503.86377 237.591415
1504.765015 387.972107
1505.675049 131.137146
1506.53772 73.893707
1507.575562 123.605225
1508.533081 170.915588
1509.706177 2594.5354
1510.711792 5238.549805
1511.674683 3132.169678
1512.628296 633.106689
1513.562988 77.819618
1514.399536 33.691143
1515.602051 454.364868
1516.598267 362.083405
1517.766357 248.698013
1518.652222 229.402176
1519.634399 323.664398
1520.686646 1927.749146
1521.683594 1463.395142
1522.677612 697.239197
1523.651733 283.914093
1524.873657 184.391159
1525.625 239.100082
1526.571167 160.983292
1527.540039 132.523041
1528.651733 205.708908
1529.473755 267.580627
1530.019409 114.947243
1530.742798 288.456757
1531.658691 408.376556
1532.554688 155.159668
1533.433716 450.098267
1534.711182 756.208252
1535.75769 1392.316528
1536.763916 1014.24646
1537.73584 1158.991699
1538.688965 2008.699585
1539.71228 1505.767334
1540.671753 579.179504
1541.65686 1006.212341
1542.661255 1105.4375
1543.614502 363.193054
1544.56897 22.2735
1545.200073 30.677397
1545.843384 46.010536
1546.821533 100.307045
1547.687012 56.70269
1548.744263 132.222626
1549.634277 102.164581
1550.181641 65.647682
1550.788696 103.608795
1551.549805 1154.25293
1552.689209 4907.48584
1553.706421 10004.095703
1554.734619 7279.157227
1555.693604 2202.141357
1556.705933 124.140594
1557.860718 55.509129
1558.856445 36.610077
1559.848877 35.124954
1560.775757 125.781418
1561.572876 90.997787
1562.344849 50.935184
1562.999268 32.642868
1563.666626 38.14444
1564.181885 1.158747
1565.043213 76.648758
1565.666992 18.772093
1566.667847 159.304153
1567.638306 143.245331
1568.493896 79.717957
1569.581177 7487.171387
1570.577759 7248.042969
1571.604614 3000.674316
1572.656738 69.766144
1573.796143 37.744637
1574.93811 69.775459
1575.777344 3.498754
1576.383667 16.193666
1577.054321 69.222977
1577.856812 99.551384
1578.764038 114.618828
1579.666626 65.359131
1580.488403 191.509598
1581.560181 114.784325
1582.334473 25.05628
1582.853638 28.859451
1583.750488 213.87648
1584.723633 37.601631
1585.496216 91.480972
1586.095825 54.70023
1586.710449 92.582062
1587.348633 205.849533
1587.906738 182.89505
1588.600464 156.078903
1589.59082 77.152222
1590.269409 19.123886
1590.901489 121.821335
1591.598022 100.694572
1592.616089 140.365417
1593.550415 199.465378
1594.463501 96.781654
1595.052002 26.712883
1595.668457 193.896103
1596.545898 409.260162
1597.636353 451.201569
1598.535767 121.329041
1599.478027 322.108307
1600.557007 280.288513
1601.110596 161.544174
1601.677612 256.081757
1602.638062 871.110229
1603.654907 1036.055786
1604.817261 1544.804077
1605.804321 1118.120605
1606.750122 795.525574
1607.84668 399.588562
1608.719727 81.254593
1609.395508 111.520576
1609.991455 98.872414
1610.771851 156.079773
1611.744019 124.32843
1612.634766 320.950653
1613.696045 2773.415283
1614.718384 2945.226074
1615.725586 1519.594849
1616.761963 175.468094
1617.585693 131.87468
1618.455566 142.536652
1619.59082 445.595764
1620.662598 1601.364624
1621.737793 7626.454102
1622.802002 13078.597656
1623.805664 8380.710938
1624.820679 3025.641602
1625.786011 128.634399
1626.444458 101.906898
1627.637085 140.386093
1628.667847 472.713531
1630.148071 3031.293457
1630.827148 18078.462891
1631.750977 32015.310547
1632.73645 26834.408203
1633.764404 10322.963867
1634.797607 1533.232178
1635.755005 745.504883
1636.762573 2217.649902
1638.299683 26959.800781
1638.855591 131790.3125
1639.815918 128337.796875
1640.774902 60363.578125
1641.748779 250.025497
1642.679199 70.009277
1643.707764 110.69014
1644.23999 56.866932
1644.894653 148.515793
1645.794678 532.370728
1646.717407 2054.469238
1648.258545 16559.005859
1648.821777 54144.21875
1649.75293 65431.769531
1650.766968 19532.791016
1651.795532 1834.884644
1652.917847 25.070381
1653.90918 1.208651
1655.622437 8.596209
1682.857178 9.554987
1687.425659 71.013824
1688.318237 2.336572
1689.818237 1.281229
1690.545532 1.622366
1694.137207 7.41245
1697.415649 33.051834
1700.806152 15.846273
1703.903564 5.907743
1705.618652 7.416448
1706.131958 35.081551
1707.312866 4.201092
1708.73291 7.339774
1710.272705 1.131432
1711.181885 1.170991
1715.272461 49.207264
1716.81897 4.800305
1718.080811 33.734478
1719.389526 58.814533
1720.363647 1.121062
1723.1521 10.888938
1723.984375 25.821142
1724.772827 4.990215
1725.372925 7.1138
1726.855103 39.434761
1727.82312 52.96714
1728.956421 20.122898
1729.727295 1.118554
1730.402954 3.357102
1736.998535 13.047111
1737.950928 2.434815
1739.602295 7.496206
1742.771606 2.750464
1744.510254 40.941475
1745.545532 1.309408
1746.362305 35.454105
1747.245605 51.084091
1748.627563 4.975844
1749.96167 20.860962
1751.039062 2.7435
1752.039551 21.91037
1753.615723 24.552807
1755.192017 49.081097
1757.641968 6.322493
1759.045044 8.123835
1760.923218 6.11798
1763.808838 9.468314
1765.351196 12.996608
1768.855713 3.980626
1771.92041 32.344521
1773.594238 50.866318
1775.464111 61.448692
1776.495972 14.429935
1777.415161 34.994457
1777.930298 25.868692
1778.900635 28.744284
1779.865234 18.238264
1780.804688 5.551978
1781.978638 12.990496
1782.956543 15.375339
1784.664062 53.381145
1785.80127 5.466729
1789.145874 22.983015
1790.378174 18.331327
1791.786987 47.731846
1792.782471 3.820643
1794.720947 1277.871338
1795.7677 1270.623779
1796.888672 658.571533
1797.800415 325.523315
1798.907349 91.341278
1799.857422 21.025347
1802.367676 12.342237
1803.371216 20.306292
1804.233154 41.965588
1804.787476 21.435661
1805.36145 18.368664
1806.616211 9.270803
1807.148193 3.330642
1808.796875 334.246887
1809.776978 267.306885
1810.726562 85.695595
1811.720703 146.082428
1812.850952 23.656727
1813.999268 4.653302
1817.039917 15.158709
1817.97168 18.069885
1819.009155 25.699923
1819.510986 6.183332
1820.935425 35.031216
1821.989014 20.087931
1822.865601 23.586401
1825.385254 10.919193
1825.90918 1.250202
1828.003174 13.61735
1828.784668 16.064081
1829.867554 2.408391
1832.453979 6.051501
1834.047607 2.39378
1835.163452 11.442401
1835.956909 16.853821
1837.685059 2.177823
1839.505737 2.476276
1840.723389 6.102684
1841.907715 46.668961
1848.15625 52.563469
1851.129272 9.62542
1851.693359 18.84663
1852.489136 36.083275
1852.994507 117.774193
1854.363647 1.035226
1856.841431 66.118546
1857.435303 22.306637
1858.893188 6.194878
1860.90918 1.138121
1863.043213 3.305243
1864.052124 12.255578
1865.344238 8.93431
1867.60022 15.629467
1870.715088 6.300698
1872.408569 4.09692
1872.921997 43.704807
1874.178711 6.659686
1875.067749 51.667862
1877.402222 3.49226
1887.359741 12.048595
1888.765137 4.446835
1890.771362 3.00936
1891.743896 31.277018
1893.163574 11.07544
1895.727295 1.203996
1896.942505 21.877291
1900.436035 8.326791
1903.208984 28.185322
1903.727295 1.077278
1904.78064 2.522573
1906.477783 43.100811
1909.147705 11.491778
1909.901367 19.50285
1910.866699 10.384569
1911.398071 123.77076
1912.818848 7.738586
1916.482178 17.979771
1918.963867 17.122108
1919.494873 4.531884
1920.698242 24.751484
1922.034302 16.443199
1922.545532 1.020295
1923.195068 38.226231
1924.546997 13.635778
1925.169556 44.767216
1926.115601 8.398498
1927.272827 1.264278
1928.91272 9.569916
1930.410522 11.414078
1931.361816 7.99545
1932.0 1.080252
1933.545532 1.335353
1937.177246 14.444158
1938.380981 7.917645
1938.901123 6.92394
1939.873657 3.754114
1944.631714 16.885565
1945.957031 3.918365
1947.495361 18.634901
1952.589722 5.211484
1953.229004 3.190096
1954.459717 8.682781
1957.181885 1.20161
1962.802368 6.457641
1963.862427 16.922264
1965.275269 8.355666
1966.699829 18.798777
1967.32251 5.008315
1969.95166 3.755306
1971.175293 4.450159
1972.404907 5.710443
1973.172119 14.930949
1974.681274 2.996675
1975.312134 35.191395
1976.083008 61.353107
1977.234375 23.300034
1978.38501 83.583382
1980.545532 1.570268
1981.173584 6.658841
1982.272705 9.991243
1985.228638 5.080945
1985.818237 1.218092
1986.95752 2.344875
1988.214844 12.298587
1994.589844 3.098905
1997.504028 17.048998
1998.090942 1.237361
END IONS
