BEGIN IONS
PEPMASS=697.299
CHARGE=1
MSLEVEL=2
SOURCE_INSTRUMENT=LC-ESI-qTof
FILENAME=f.Esposito/Diterpene-ref/ME-3-17-53-6 (1).mgf;
SEQ=*..*
IONMODE=Positive
ORGANISM=GNPS-LIBRARY
NAME=7-O-acetyl-5,14-O-dibenzoyl-3-propanoyl-13,17-oxypremyrsinol M+Na
PI=Litaudon/Paolini
DATACOLLECTOR=Esposito
SMILES=CC1(C)[C@@]2([H])[C@]1([H])C[C@@H](OC(C)=O)[C@@]3(CO4)[C@H](OC(C5=CC=CC=C5)=O)[C@@]6([H])[C@@H](OC(CC)=O)[C@@H](C)C[C@]6(O)[C@@H](OC(C7=CC=CC=C7)=O)[C@@]4(C)[C@@]32[H]
INCHI=
INCHIAUX=
PUBMED=
SUBMITUSER=Esposito
TAGS=
LIBRARYQUALITY=3
SPECTRUMID=CCMSLIB00004684196
SCANS=1
51.023087 333.005188
51.226635 15.0
57.033123 325.094299
57.053585 20.55682
59.049511 37.058819
59.171741 21.471149
67.054176 129.538803
69.032402 83.682693
71.241173 20.02083
77.039268 618.336121
81.07103 216.298096
83.010056 299.757599
83.084122 152.529495
83.542198 26.265631
85.165833 27.84211
91.052544 198.288101
92.354652 20.17308
93.07032 391.375
95.049133 19.595591
95.085548 165.140793
95.396614 31.48077
95.555832 24.08333
97.026825 182.453598
97.064186 307.33139
99.043724 95.033333
105.034096 9361.807617
105.076454 213.041107
105.111801 27.08333
105.133194 42.013161
105.165436 67.15625
105.193886 25.390631
105.22216 74.181824
105.276093 41.041672
105.368858 28.0
105.379631 40.453701
105.404106 18.694441
105.529678 16.05921
105.561859 16.245001
105.606712 17.625
105.708511 20.0
106.035522 260.208313
106.396637 27.011909
107.047623 68.532898
107.08567 877.778687
107.296051 27.032141
107.46225 28.164471
107.659233 53.444771
108.088867 200.610001
109.064087 527.54187
109.102242 44.200001
109.237793 19.160721
109.287735 19.009609
109.360222 28.225
109.721397 20.94231
111.079056 299.422485
111.108452 25.44643
117.070259 82.186859
119.047401 150.397995
119.086143 481.253998
120.731857 18.225
121.064346 286.760498
121.101524 87.779411
123.080116 234.595596
123.111588 15.875
125.058952 141.631607
129.069931 134.0625
129.971939 36.0947
130.077835 125.711998
131.083527 155.119202
131.34848 33.333328
132.053055 48.640961
133.062408 282.490204
133.102661 275.555603
135.07962 308.0242
135.116699 31.480261
135.275314 35.841221
137.096054 288.254913
137.128174 63.297619
138.151489 30.680559
139.07399 97.671303
139.623474 23.347219
141.069626 191.106796
143.086258 379.513397
143.545517 15.04167
145.021729 75.439194
145.10199 732.221497
145.363556 25.9
147.078033 104.470596
147.116684 578.411621
148.825943 31.191179
149.057755 86.793114
149.094055 116.559998
154.076553 161.429794
155.067673 73.454536
155.086105 128.483002
155.535553 41.18182
156.09465 222.621399
157.09967 494.244598
157.389999 45.798908
157.79631 27.09091
159.08107 286.082306
159.115829 244.290298
159.273178 15.20833
161.096939 460.534698
161.132126 85.008331
161.260056 35.351749
163.036957 70.063766
163.074524 475.483185
163.107269 98.401657
165.069473 54.44643
168.096802 23.322371
169.096771 109.220703
169.283051 18.480261
169.598602 19.44643
171.080597 237.440094
171.116425 1078.412964
173.096161 442.721008
173.186325 35.640148
173.305954 26.16346
173.362991 22.04891
175.111145 1241.687988
175.191483 20.055559
177.09343 154.412796
177.123154 129.878403
179.083466 193.240005
181.063202 241.112
181.100418 428.959015
181.574905 84.678757
181.84903 36.208328
181.982132 21.33333
182.10347 32.190479
182.198212 27.778219
183.116821 594.772217
183.175827 15.045
184.129547 100.278397
185.094681 136.938797
185.132553 166.004196
187.115891 397.8479
187.487198 20.089279
189.089813 122.689796
189.12767 1609.633057
189.197052 17.00658
189.351624 35.841221
189.930176 31.036289
190.127167 36.63636
191.084946 164.454498
191.10495 63.612499
192.09404 188.003601
193.100647 235.075806
194.109039 354.320099
194.854218 30.0
195.077103 87.155769
195.118164 1080.188965
195.418137 57.207142
195.58812 38.346149
196.031876 17.408331
196.117966 87.5
196.131973 52.111488
196.417084 14.88971
197.090088 39.862068
197.132233 968.989075
197.277924 21.360291
197.983429 15.375
198.284454 54.043098
199.111862 424.900513
201.053253 93.347221
201.091263 36.96983
201.128159 197.254501
201.269882 23.765631
203.105682 50.004028
203.709381 32.242649
205.101715 109.813797
205.122223 533.592773
206.109726 102.511398
207.116653 1168.932983
207.343674 32.0
207.49321 35.2663
208.081955 27.778219
208.427841 61.78125
209.063751 163.530899
209.094223 110.340302
209.132965 2574.045898
209.216934 28.030411
209.333221 21.02083
209.423126 36.529411
209.841705 30.045
210.043182 33.020828
210.106094 32.53125
210.13501 76.4375
211.111877 156.420197
211.149887 429.746307
211.388474 32.23214
212.715149 23.68145
213.093384 181.951599
213.127167 424.000397
215.142944 35.27174
215.848038 25.3125
217.117096 46.1875
219.115738 418.179993
221.133102 248.2845
222.099304 115.723198
222.138428 127.720001
222.437256 18.125
223.111725 149.403397
223.147797 652.000916
223.341141 28.40909
224.118454 70.917168
225.126663 894.130371
225.16571 291.115601
225.222672 23.26667
225.358551 15.025
225.555084 29.778851
226.0755 80.845001
226.170227 33.347221
226.234619 30.520161
227.143051 406.502502
227.1745 73.796051
228.109741 42.028851
228.967255 18.02083
229.155869 60.48214
229.200607 16.008329
231.115585 43.0
233.110168 76.222221
233.131622 135.9879
234.295624 22.45833
235.149979 462.074585
235.656052 21.728451
236.116623 70.635567
236.157227 361.076904
236.200867 15.57143
237.127777 1868.510986
237.163589 1573.347046
237.514938 22.34914
237.695892 18.245001
237.737732 104.315201
238.129395 98.223213
238.157944 69.715912
239.142853 263.369385
239.177994 653.673889
239.631409 39.240379
239.828094 38.0
240.177704 93.449074
241.121643 262.032715
241.158905 560.455078
241.194717 130.802597
241.251617 33.337959
241.418259 49.84808
241.68306 26.08333
241.791183 49.002659
242.159348 22.04891
246.141586 243.699295
247.133026 115.642097
248.159775 27.976351
249.164856 2569.610107
249.23407 19.625
249.338867 59.347832
249.577301 31.69397
249.806183 17.17308
249.921707 26.028851
250.126694 89.837502
250.178406 52.44643
251.138916 36.30682
251.180222 2736.302002
251.24942 32.297619
251.304642 22.235291
251.752655 31.65761
251.820084 17.654409
252.127289 28.387819
252.199982 104.127701
252.722458 50.26667
253.16153 147.716293
253.428375 21.17308
254.168472 99.125
255.139236 278.125
255.174362 1161.161011
255.332932 16.242649
255.464951 24.00379
255.749298 26.455641
255.893448 38.047619
256.139679 57.439999
257.152985 42.125
261.163666 879.752625
264.149323 87.156563
264.759491 38.89286
267.137939 25.69231
267.174683 2611.778076
267.369263 24.816669
267.478912 37.149391
267.552917 26.030411
267.578552 19.125
267.735107 15.2663
267.820557 34.530659
268.179199 134.219604
268.222992 26.480261
269.190582 735.671326
269.292145 38.235291
269.44632 27.976351
270.193176 158.667404
270.813599 37.529411
271.141113 109.976303
271.443634 37.625
271.483887 34.100609
277.124603 114.281898
279.174683 4006.620117
279.274384 40.007351
279.384888 18.00403
279.408875 45.367649
279.46048 46.010872
279.524628 28.285721
279.716827 24.066669
279.892853 33.55769
280.176361 215.920197
280.207703 60.445
280.462616 27.36742
280.648621 45.155769
287.193207 42.814819
289.155609 310.225708
289.35553 15.025
290.160156 179.651001
292.317139 40.0
293.193542 37.183819
295.169373 82.070213
295.742523 22.13587
296.959747 99.045357
297.184265 2763.38208
297.282715 53.00893
297.417847 53.515629
297.546753 26.174999
297.58316 53.74094
297.654816 22.18561
297.702881 19.1875
297.89505 16.00658
297.951447 17.654409
298.188934 140.222504
298.398438 16.44643
300.073456 18.48077
301.156616 263.332611
301.818237 32.76862
309.183685 351.84549
315.194183 427.892914
315.581512 26.3689
316.138794 61.111111
316.324493 52.031719
316.732513 17.52083
317.187378 52.96323
317.41095 56.668652
319.167175 1057.485962
319.469269 15.40833
320.173706 233.675705
320.448151 21.33333
323.201202 254.006897
325.218323 23.4879
328.143341 49.25
328.176331 95.816673
329.152374 41.01923
329.184204 31.03409
331.1604 121.337997
333.144562 74.013893
334.148346 29.13306
335.198914 210.0121
337.177277 89.265633
339.194366 202.1577
339.961121 32.049419
339.993774 16.796049
341.207977 75.132347
342.191345 49.0
343.226715 45.92046
345.140717 88.810707
345.17981 72.909477
353.203522 23.273649
353.432251 21.03125
355.211212 96.447807
357.179932 147.227295
357.206268 228.431595
359.164825 122.647102
359.204865 135.481506
361.176819 76.920464
363.499115 62.654411
371.21579 1251.301025
371.331909 27.004311
372.137115 28.336109
372.729736 27.445
373.215118 55.79348
374.214508 30.24695
375.193054 97.195122
376.184753 64.681664
378.197113 25.5
379.187134 591.11792
380.841858 59.097832
381.011078 36.07267
383.204346 328.480988
383.913055 14.8
384.209442 79.80278
389.135193 42.041672
389.209564 153.207794
393.203522 2040.781982
393.349884 64.175003
393.564941 24.64286
393.648407 46.240379
393.674561 19.625
394.227783 18.03879
397.197754 215.545502
399.160645 90.756104
401.213196 601.166016
401.502411 22.36364
401.671478 27.625
401.848907 38.6875
401.870728 19.57143
402.207611 27.191179
403.106781 17.78125
407.388702 29.11574
407.592468 17.03125
411.196808 312.867188
411.402222 32.008339
412.193512 53.01844
419.225739 195.156494
423.192017 213.785202
431.222595 198.641006
431.325745 39.859699
432.316711 16.01786
437.225647 116.296402
441.204254 4063.39502
441.313477 36.0
441.576172 27.20455
441.626923 41.032139
441.693726 15.06618
441.731323 60.551472
441.817902 42.025002
441.869537 25.111111
441.89856 21.11574
441.999054 23.339279
442.053131 32.470589
442.21048 415.204102
442.359161 17.53289
442.437592 21.89286
442.674377 21.02083
442.76239 30.157049
446.379822 18.375
447.049591 33.083328
451.89386 33.799999
453.226044 536.533325
453.646454 79.546707
454.332764 20.9
459.213593 483.911987
467.21582 60.208328
471.214264 87.489868
475.245697 96.46875
475.964355 25.26667
476.245331 22.17308
479.242401 37.003792
483.21228 23.03409
485.233154 243.641006
493.257782 198.574295
494.265076 35.008339
497.231934 166.008301
498.230988 110.851601
501.157227 88.951218
501.225647 4975.022949
501.37146 56.5
501.396637 65.142609
501.548004 39.142239
501.622437 39.003792
501.693024 29.049999
501.736267 42.125
501.809265 100.3218
501.919098 25.165319
501.965973 54.047619
502.121429 47.408329
502.154907 73.979729
502.22702 404.287201
502.293152 51.06377
502.449127 46.656818
502.738037 26.816669
502.987396 25.3125
504.166656 26.54167
505.277405 70.03125
515.241089 8119.454102
515.368164 43.041672
515.4505 26.80357
515.489624 48.130322
515.528381 66.760132
515.564087 37.89286
515.612915 41.555851
515.671814 39.125
515.743225 46.200001
515.76178 47.361111
515.806396 89.049423
515.87146 34.720242
515.932983 43.80278
515.963928 32.211208
516.117249 39.211208
516.146057 15.00961
516.201355 38.5984
516.244812 935.932312
516.470703 18.91848
516.525757 38.08696
516.57251 37.048908
516.701538 30.25
516.802673 21.164471
516.847046 15.375
517.016052 26.012501
517.237671 27.18561
517.33252 24.1875
517.435547 58.013889
517.885254 17.375
519.170715 39.3913
519.23999 541.163574
521.380432 29.69397
521.513733 62.828571
533.255005 313.680511
533.767395 18.05921
534.217834 34.68597
534.251343 44.669121
553.279907 75.088768
557.248474 78.160263
563.239685 1154.384033
563.683594 16.01923
563.801575 82.190483
564.01416 35.51524
564.244995 227.166306
564.361633 28.6
566.6297 29.575001
568.438293 36.695511
572.360779 16.0
573.067383 18.004629
573.402283 36.450001
573.784119 22.68145
575.111816 53.038792
575.26239 14697.919922
575.386292 122.431099
575.431763 48.291672
575.514038 52.09
575.549438 32.099998
575.585938 48.014709
575.619995 105.113602
575.710571 66.164467
575.794922 43.007141
575.863831 79.508926
575.891785 100.3601
576.009155 23.55682
576.105957 126.827202
576.170776 31.222219
576.267151 714.104492
576.366516 75.666656
576.429749 40.04348
576.463318 69.013161
576.513306 41.862068
576.553528 21.408331
576.631226 55.336109
576.683105 40.841221
576.806396 45.939659
576.900391 20.6
577.082092 31.41346
577.140198 39.18182
578.177429 42.08036
578.410278 15.2
580.374451 42.98349
587.756531 24.07692
588.189331 18.480261
597.330444 14.88971
623.264038 720.522888
623.501953 28.470591
623.944397 26.3689
624.00824 22.89286
624.269714 116.011398
634.516357 45.10714
634.885315 34.905491
637.201538 32.88044
637.277649 6858.929199
637.379456 53.625
637.424561 19.44643
637.509033 57.026321
637.598999 94.948112
637.658447 25.0625
637.786194 90.737244
637.860535 25.11574
637.93335 26.907261
637.992493 35.51524
638.160583 44.375
638.280945 685.590088
638.440918 24.521549
638.511169 19.21121
638.537476 37.034088
638.571777 27.44022
638.625122 38.07143
638.740112 18.4
638.836548 21.160721
638.934326 19.049999
639.181519 53.63269
639.339539 110.191498
639.547363 54.5625
641.50531 20.02083
660.157776 43.084011
678.672791 112.211197
693.869934 60.457142
694.656555 61.114281
697.298157 9141.561523
697.458313 145.130905
697.554138 41.242649
697.617188 58.089291
697.660645 114.803299
697.739685 76.215424
697.804871 24.10227
697.88092 58.125
697.936462 105.431099
697.964233 60.44643
698.038879 42.69231
698.109741 36.125
698.195007 112.602303
698.299805 929.232971
698.433228 54.174999
698.524597 41.34375
698.587769 20.13587
698.799316 20.014709
699.076233 41.84211
699.176147 22.225
699.278137 30.644739
699.402039 32.4879
699.482178 58.44643
699.931824 73.375
699.9646 31.23077
700.327271 28.21121
700.385437 23.225
700.852966 36.736111
700.999817 31.80278
703.187744 16.242649
705.108154 86.530884
709.104004 16.03879
747.571655 23.225
772.159607 26.66667
END IONS
