BEGIN IONS
PEPMASS=489.209
CHARGE=1
MSLEVEL=2
SOURCE_INSTRUMENT=LC-ESI-Orbitrap
FILENAME=f.rmenezes/MS2_spectra/140717_RM_Fusarium_T-2_toxin_1ul_ms2.mzXML;
SEQ=*..*
IONMODE=Positive
ORGANISM=GNPS-LIBRARY
NAME=T-2 Toxin M+Na
PI=Ales Svatos
DATACOLLECTOR=Riya Menezes
SMILES=CC1=CC2C(CC1OC(=O)CC(C)C)(C3(C(C(C(C34CO4)O2)O)OC(=O)C)C)COC(=O)C
INCHI=
INCHIAUX=
PUBMED=
SUBMITUSER=rmenezes
TAGS=
LIBRARYQUALITY=3
SPECTRUMID=CCMSLIB00004681488
SCANS=630
133.30603 6165.550781
135.934799 6756.661133
165.070282 7379.993164
168.774887 6856.581055
171.115906 10784.728516
181.266953 6464.345703
185.094086 10968.8125
187.229614 6678.282227
199.112045 17615.451172
200.623795 6726.394043
203.106659 8260.850586
203.589401 7437.962402
215.108826 10882.65918
222.026535 6102.856934
224.729416 5722.325684
225.801773 5910.231934
227.105759 18823.423828
232.725311 7587.973145
241.119659 29547.242188
245.117096 657976.6875
247.425812 7135.506348
267.099274 474760.15625
291.39209 15885.421875
298.832611 91535.421875
299.125885 13911.193359
326.983765 11130.460938
327.002289 10860.271484
327.037964 26194.542969
327.119629 2609482.75
327.19455 11929.512695
327.215485 23766.013672
327.248291 8152.73877
345.130157 79535.234375
369.167328 13509.230469
386.785034 10781.495117
386.825989 12471.301758
386.873322 9909.709961
386.894958 9115.106445
386.94342 18567.095703
386.965363 16378.255859
386.986725 15170.448242
387.011475 18629.212891
387.034393 27495.255859
387.055878 23079.134766
387.1409 3778840.75
387.221252 22393.539062
387.236206 17437.066406
387.265625 32482.226562
387.309357 15157.614258
387.333771 17289.626953
387.356598 14477.461914
387.373444 9351.458984
387.403625 12663.736328
387.422089 8141.885254
403.298492 9029.883789
409.977356 7656.572754
429.187683 75968.9375
489.208282 656207.1875
END IONS
