BEGIN IONS
PEPMASS=910.527
CHARGE=1
MSLEVEL=2
SOURCE_INSTRUMENT=LC-ESI-qToF
FILENAME=P2_C2_conc_GE2_01_2420.mzXML
SEQ=*..*
IONMODE=Positive
ORGANISM=GNPS-LIBRARY
NAME=_130100 M+Na
PI=Cichewicz
DATACOLLECTOR=Luzzatto
SMILES=OC1=CC=C(CC(C(NC(CC(C)C)C(OC(C(CCCCCCCCCC)C)CC(NC(C(NC(C(NC(C(NC2CCC(N)=O)=O)C)=O)C)=O)C(O)C)=O)=O)=O)NC2=O)C=C1
INCHI=N/A
INCHIAUX=N/A
PUBMED=
SUBMITUSER=tal_lk
TAGS=
LIBRARYQUALITY=2
SPECTRUMID=CCMSLIB00000478520
SCANS=2436
101.070976 448.0
136.07457 568.0
143.085373 392.0
223.20549 332.0
246.122482 404.0
271.136353 756.0
272.144196 332.0
280.228333 424.0
280.660828 480.0
281.157593 956.0
294.165009 372.0
294.654205 712.0
295.163086 380.0
295.670929 288.0
297.262817 368.0
302.141022 252.0
302.666565 996.0
303.164246 564.0
303.666107 596.0
304.171051 288.0
306.244843 392.0
307.241791 404.0
307.641693 544.0
308.156891 456.0
311.135803 280.0
316.169189 328.0
316.666931 1244.0
317.166107 532.0
317.663116 480.0
322.125458 416.0
324.254639 992.0
325.252106 388.0
325.672882 836.0
326.172974 324.0
330.632874 1048.0
331.139038 644.0
332.11795 252.0
352.647034 504.0
353.151581 436.0
362.191132 1424.0
362.693237 620.0
366.142761 452.0
375.196167 776.0
376.184784 340.0
376.674957 536.0
377.182007 592.0
377.275848 1296.0
377.696869 252.0
378.285858 452.0
384.205048 2416.0
384.707245 1532.0
385.193787 7152.0
385.695343 2900.0
386.189575 1356.0
386.701202 464.0
387.189972 252.0
389.171112 372.0
391.150055 400.0
391.250122 252.0
392.175659 284.0
395.283264 756.0
398.200348 1504.0
398.701172 1680.0
399.202148 604.0
406.201904 640.0
406.708832 512.0
407.206238 26964.0
407.708252 13188.0
408.209717 3892.0
408.711151 760.0
409.195496 656.0
409.709747 504.0
413.298676 444.0
418.728607 388.0
425.141937 460.0
425.236053 308.0
432.726837 1032.0
433.235413 600.0
438.231842 284.0
441.241089 304.0
441.736572 13528.0
442.236389 10812.0
442.733643 1976.0
443.242493 908.0
443.735291 368.0
445.20517 480.0
448.310547 368.0
454.744537 3500.0
455.240082 1476.0
455.740143 1364.0
456.246796 620.0
457.234833 472.0
460.310333 256.0
461.313965 400.0
461.929596 256.0
462.173096 444.0
462.753143 280.0
463.748779 64440.0
463.823181 776.0
464.127014 284.0
464.249969 32420.0
464.752136 11364.0
465.250671 4416.0
465.746552 1900.0
466.249878 1284.0
466.319702 324.0
479.268768 336.0
516.238464 764.0
517.247314 344.0
527.205078 256.0
543.190308 792.0
544.165771 276.0
544.345886 304.0
560.296692 408.0
563.351074 312.0
565.2948 284.0
566.294312 280.0
571.302429 388.0
572.346436 388.0
587.285217 752.0
588.297913 980.0
588.368286 704.0
589.306641 364.0
590.349426 316.0
597.262695 328.0
601.221191 640.0
603.251221 288.0
606.313721 956.0
609.308044 388.0
616.359802 548.0
617.368958 336.0
618.375671 284.0
631.270081 388.0
634.377014 3020.0
635.382996 268.0
636.385559 340.0
642.27832 416.0
660.260437 876.0
661.279114 728.0
668.302673 316.0
672.251892 476.0
704.276978 312.0
707.39917 296.0
714.306885 1124.0
715.293213 300.0
735.411133 280.0
751.432068 1332.0
752.355713 360.0
752.435059 564.0
753.419434 2012.0
754.416016 524.0
769.378784 5984.0
770.380249 1796.0
771.383423 1108.0
772.38092 280.0
773.364197 312.0
774.391968 340.0
779.429138 692.0
780.433655 604.0
791.427734 472.0
795.38269 492.0
796.380249 328.0
796.443176 344.0
797.441589 7312.0
798.442688 4384.0
799.446777 812.0
800.462341 336.0
848.480774 528.0
864.439453 340.0
864.530151 328.0
866.132812 328.0
866.501038 4260.0
867.501343 2332.0
868.493225 920.0
869.467285 364.0
869.515869 344.0
871.53717 256.0
872.528687 268.0
874.48175 300.0
882.463135 2224.0
883.476685 1252.0
883.526794 724.0
884.473572 544.0
886.277344 276.0
888.539246 792.0
889.546448 1420.0
890.547913 500.0
891.553955 276.0
892.51416 2268.0
893.519226 1456.0
894.511536 892.0
896.604492 416.0
897.385681 284.0
897.61554 324.0
900.52887 256.0
906.545288 312.0
906.776062 312.0
906.9328 252.0
907.341553 320.0
907.401123 388.0
907.517822 40684.0
907.888245 288.0
908.02063 37676.0
908.16333 380.0
908.307434 448.0
908.43158 548.0
908.52124 27388.0
908.686096 268.0
909.022949 10476.0
909.148376 352.0
909.373047 360.0
909.517578 3088.0
909.925049 352.0
910.022278 2956.0
910.151428 392.0
910.267639 592.0
910.357849 708.0
910.526794 253032.0
910.821106 476.0
911.02478 520.0
911.1073 408.0
911.190063 420.0
911.263367 512.0
911.335022 372.0
911.52887 133340.0
911.718323 780.0
911.871216 272.0
911.930237 536.0
912.013672 700.0
912.196228 700.0
912.308716 368.0
912.376038 376.0
912.53125 31472.0
912.929688 452.0
912.981689 264.0
913.223999 264.0
913.37384 256.0
913.416626 532.0
913.531555 5196.0
913.669495 424.0
914.034912 268.0
914.531006 796.0
914.867432 272.0
915.189392 324.0
915.495605 356.0
915.599243 336.0
915.851501 288.0
916.008606 324.0
916.871826 376.0
917.099304 276.0
932.503601 412.0
END IONS
