BEGIN IONS
PEPMASS=403.714
CHARGE=2
MSLEVEL=2
SOURCE_INSTRUMENT=LC-ESI-qTof
FILENAME=f.philipwi/GNPS_Marine_Invertebrate_Secondary_Metabolites_UHManoa/GNPS_SpongeSpectraAlreadyConvertedTo_mzXML/PW-115_P2-B-6_Stylopeptide_1_768amu_Scan802-833_01_15582.mzXML;
SEQ=*..*
IONMODE=Positive
ORGANISM=GNPS-LIBRARY
NAME=Stylopeptide 1 M+H
PI=Philip Williams
DATACOLLECTOR=Williams
SMILES=CC[C@H](C)[C@H]1C(=O)N[C@H](C(=O)N[C@H](C(=O)N2CCC[C@H]2C(=O)N[C@H](C(=O)N3CCC[C@H]3C(=O)N[C@H](C(=O)N1)CC(C)C)[C@H](C)CC)CO)Cc4ccccc4
INCHI=
INCHIAUX=
PUBMED=
SUBMITUSER=philipwi
TAGS=
LIBRARYQUALITY=3
SPECTRUMID=CCMSLIB00000424978
SCANS=813
128.827042 32.0
129.449982 36.0
129.820099 28.0
138.029175 116.0
144.651886 48.0
146.435944 32.0
152.364685 32.0
161.304321 104.0
165.139893 96.0
167.152847 84.0
169.576218 44.0
170.049683 128.0
172.033737 92.0
172.560852 92.0
175.065125 140.0
176.60347 196.0
178.054962 80.0
179.051514 36.0
179.572174 136.0
182.075043 56.0
184.101913 132.0
186.575104 128.0
187.927094 32.0
188.591782 132.0
189.051437 92.0
190.10173 108.0
190.390564 36.0
190.619308 156.0
194.093658 104.0
194.620743 128.0
194.831436 32.0
195.338913 60.0
196.123688 128.0
197.026337 152.0
197.455215 44.0
197.590424 180.0
198.104996 136.0
198.245056 20.0
198.505417 32.0
198.591492 180.0
199.053619 40.0
199.14357 84.0
200.050644 116.0
200.60347 124.0
201.552551 92.0
202.095886 52.0
203.966919 28.0
204.586441 116.0
204.933044 40.0
205.106461 84.0
205.261673 20.0
206.056976 156.0
206.139328 48.0
206.615509 164.0
206.899643 24.0
207.160812 92.0
207.597061 156.0
209.078354 140.0
209.613281 100.0
210.101776 160.0
212.093887 112.0
212.446793 32.0
213.11145 112.0
213.339661 32.0
214.085144 88.0
214.15976 52.0
214.253052 36.0
214.598419 116.0
214.981445 36.0
215.607071 232.0
216.607437 136.0
217.935562 28.0
218.091217 164.0
219.236115 28.0
219.41806 44.0
220.103149 88.0
220.285004 32.0
220.582977 124.0
221.033035 100.0
221.118347 120.0
222.105225 400.0
222.6185 40.0
222.780212 48.0
223.151428 36.0
223.612747 152.0
224.123047 256.0
224.391022 28.0
224.610687 152.0
225.127487 152.0
225.374802 48.0
225.595749 36.0
225.854324 44.0
226.099045 136.0
226.957336 144.0
227.052917 84.0
227.615616 152.0
228.101532 88.0
229.123154 36.0
229.538239 32.0
229.634827 172.0
230.892273 20.0
231.086029 84.0
231.15387 24.0
231.270172 24.0
232.127945 112.0
232.25029 28.0
232.48349 48.0
233.076752 48.0
233.164337 40.0
234.134247 232.0
234.802429 60.0
235.631454 100.0
236.103317 192.0
236.289444 28.0
236.622711 108.0
237.090912 96.0
237.70253 40.0
238.130997 104.0
238.637085 136.0
239.10997 84.0
240.139252 168.0
240.491913 116.0
240.619049 108.0
241.610245 268.0
241.86792 48.0
243.049072 64.0
243.635742 36.0
243.954239 72.0
244.135895 132.0
244.452301 28.0
244.633011 324.0
245.125366 164.0
245.330124 160.0
245.410004 44.0
245.609756 164.0
246.622208 100.0
246.920166 92.0
247.096481 160.0
247.611786 112.0
247.942902 120.0
248.103531 24.0
248.565613 28.0
248.696274 52.0
248.91748 56.0
249.141052 124.0
249.657394 100.0
250.626633 152.0
250.842056 52.0
251.023804 72.0
251.141876 180.0
251.630142 32.0
252.110443 140.0
252.611908 144.0
253.106384 92.0
253.636215 324.0
253.910385 24.0
254.022125 44.0
254.132446 140.0
254.316833 32.0
254.607071 140.0
254.648117 76.0
254.665604 108.0
255.130722 172.0
255.648895 180.0
256.609192 32.0
256.905396 44.0
257.140442 84.0
258.132904 116.0
258.624725 156.0
259.640594 160.0
259.722778 40.0
259.815247 24.0
259.887177 44.0
260.127319 284.0
260.648163 248.0
261.128052 276.0
261.204163 36.0
261.619232 132.0
261.729858 92.0
261.967102 32.0
262.129822 80.0
262.196594 164.0
262.638123 88.0
262.844788 32.0
263.155945 120.0
263.620453 156.0
263.775696 40.0
264.135986 132.0
264.780884 48.0
265.153961 88.0
265.632111 180.0
266.132812 252.0
266.645447 108.0
267.101593 140.0
267.463745 48.0
267.74527 20.0
268.146179 148.0
268.622162 140.0
269.123871 100.0
269.640503 188.0
269.968933 32.0
270.147552 224.0
270.638092 100.0
270.946503 104.0
271.082916 120.0
272.071289 92.0
272.473206 40.0
272.585785 36.0
272.670197 288.0
272.83844 40.0
273.170532 168.0
273.470551 20.0
273.641388 152.0
273.860718 20.0
274.325073 28.0
274.451782 32.0
274.626587 232.0
275.135284 140.0
275.641937 96.0
276.154602 32.0
276.63147 160.0
276.766144 40.0
276.992065 96.0
277.639587 212.0
278.116821 136.0
278.644836 284.0
279.139221 232.0
280.170868 144.0
280.665405 240.0
281.142059 188.0
281.678253 268.0
281.947205 64.0
282.654083 100.0
283.040009 128.0
283.147247 220.0
283.65271 400.0
284.141357 116.0
284.403625 32.0
284.63974 600.0
284.790741 32.0
285.135071 144.0
285.511932 24.0
285.630432 128.0
285.953705 28.0
286.118225 108.0
286.153168 136.0
286.946259 64.0
287.119049 84.0
287.237885 52.0
287.335114 40.0
287.637756 116.0
287.951355 24.0
288.158905 288.0
288.666656 136.0
289.185791 156.0
289.315887 32.0
290.021057 24.0
290.149048 132.0
290.477173 48.0
290.651031 128.0
290.998901 80.0
291.140289 92.0
292.021942 32.0
292.13623 96.0
292.392426 44.0
292.643158 136.0
293.057709 88.0
293.165283 224.0
294.073425 56.0
294.669342 204.0
295.178497 240.0
295.386627 48.0
295.698456 192.0
296.143036 80.0
296.647858 144.0
297.14212 80.0
297.668671 348.0
298.165802 444.0
299.652679 228.0
300.177917 104.0
300.646606 96.0
300.856659 36.0
301.173187 636.0
301.564667 32.0
301.653229 124.0
302.167053 72.0
302.439819 28.0
302.655579 156.0
302.96106 36.0
303.166138 200.0
303.438324 20.0
303.67157 156.0
303.771545 52.0
304.152588 28.0
304.678436 84.0
304.883575 36.0
305.685486 88.0
306.198364 100.0
306.555389 28.0
306.695496 196.0
306.912659 100.0
307.174316 296.0
307.672485 80.0
308.052765 36.0
308.164673 144.0
309.026886 28.0
309.156128 268.0
309.654724 132.0
310.058685 32.0
310.148468 80.0
310.698792 28.0
311.074341 108.0
311.159637 104.0
311.675354 596.0
311.913483 48.0
312.141968 68.0
312.163879 152.0
312.307617 40.0
312.679474 24.0
313.141785 136.0
314.146515 92.0
314.689056 16.0
314.994446 76.0
315.096283 132.0
315.65097 148.0
316.205078 168.0
316.330841 32.0
317.000092 124.0
317.164337 140.0
317.499664 120.0
317.647339 140.0
318.16217 232.0
318.670258 200.0
318.977966 72.0
319.177094 160.0
319.650024 112.0
320.516754 24.0
320.981964 28.0
321.167572 116.0
321.681854 140.0
322.093567 80.0
322.402527 40.0
322.677277 104.0
322.791779 116.0
322.986511 28.0
323.175873 220.0
323.525177 68.0
323.697174 100.0
324.174072 136.0
324.454559 24.0
324.638275 52.0
324.799103 44.0
325.178589 396.0
325.661285 116.0
326.176666 244.0
326.282745 36.0
326.570679 28.0
326.685303 180.0
326.881775 28.0
327.193024 112.0
327.481354 116.0
327.585175 36.0
327.985809 80.0
328.093018 36.0
328.173828 144.0
329.144562 72.0
329.630463 28.0
330.128296 28.0
331.589233 24.0
331.693726 116.0
332.17569 368.0
332.672119 148.0
332.94873 64.0
333.173248 148.0
333.674438 184.0
335.185272 128.0
335.454163 32.0
335.692444 108.0
336.155029 144.0
336.681152 40.0
337.17099 88.0
337.211395 76.0
337.512115 16.0
337.726227 128.0
338.132599 100.0
338.484802 32.0
338.677002 108.0
340.116913 144.0
340.199219 100.0
340.281525 140.0
340.410889 24.0
340.681427 116.0
340.846161 44.0
341.181488 124.0
341.375977 28.0
341.670471 48.0
343.203949 152.0
343.683289 148.0
344.161133 116.0
344.397705 36.0
344.598846 40.0
344.681671 92.0
345.131256 80.0
345.173309 76.0
345.960999 32.0
346.18927 256.0
346.678253 216.0
347.183685 352.0
347.765503 28.0
348.110321 52.0
350.206696 144.0
352.124146 108.0
352.938629 140.0
353.171356 124.0
354.166321 148.0
354.694366 112.0
355.186005 328.0
355.703522 180.0
356.18457 32.0
356.304901 48.0
356.846558 36.0
357.187378 228.0
358.136719 88.0
358.280945 36.0
359.005249 44.0
359.19342 88.0
359.512695 80.0
360.18988 276.0
360.335052 36.0
360.688446 100.0
361.070679 116.0
361.206818 164.0
361.533966 28.0
362.07959 48.0
362.39505 32.0
362.807739 20.0
363.189697 108.0
363.512299 88.0
364.156738 40.0
365.69696 124.0
365.800751 36.0
366.20166 216.0
366.706543 276.0
366.911041 36.0
367.069794 152.0
367.199677 240.0
368.035248 28.0
368.163086 72.0
368.243164 80.0
369.063202 36.0
369.194031 88.0
371.721466 76.0
372.211395 92.0
372.684601 120.0
373.189301 112.0
373.953186 60.0
374.199768 140.0
374.372406 36.0
374.707825 1564.0
375.210175 448.0
375.74469 176.0
376.207428 168.0
376.707123 120.0
377.173492 164.0
377.474579 36.0
377.833832 32.0
378.726471 24.0
378.924988 36.0
379.229706 80.0
379.69281 188.0
380.104736 28.0
380.206665 488.0
380.589569 32.0
380.712097 596.0
380.98761 20.0
381.206207 180.0
381.69986 128.0
382.200531 148.0
382.806335 40.0
383.979614 44.0
384.416901 76.0
384.616913 28.0
385.701447 224.0
385.930664 36.0
386.571503 52.0
386.682404 52.0
387.008362 92.0
387.133789 68.0
387.572876 28.0
388.15036 32.0
388.37088 72.0
388.706573 4068.0
388.98642 32.0
389.209015 2576.0
389.520477 24.0
389.713684 1616.0
389.921783 36.0
390.216522 384.0
390.527588 28.0
390.710968 304.0
391.019043 32.0
391.132477 80.0
391.220734 132.0
391.476105 32.0
391.586456 60.0
392.811005 28.0
394.706329 1840.0
394.842621 36.0
395.025024 32.0
395.209381 1136.0
395.606659 36.0
395.709961 488.0
396.140717 20.0
396.508728 48.0
396.716766 124.0
397.194458 176.0
398.19873 76.0
399.191528 36.0
399.420807 24.0
400.21106 24.0
401.334045 20.0
401.42981 40.0
401.556854 40.0
401.678925 20.0
401.815216 36.0
401.853546 24.0
401.903015 52.0
402.08783 48.0
402.191711 32.0
402.394653 48.0
402.727203 40.0
403.094025 24.0
403.21344 64.0
403.323853 32.0
403.410583 40.0
403.577789 64.0
403.712158 8872.0
404.051605 72.0
404.213684 4364.0
404.408997 84.0
404.490906 48.0
404.713837 1708.0
404.955627 76.0
405.219543 304.0
405.347473 56.0
405.495087 64.0
405.708405 456.0
405.931641 28.0
406.060059 44.0
406.211517 172.0
406.471222 20.0
406.625458 28.0
407.204102 28.0
407.299072 84.0
407.796021 20.0
407.989136 32.0
408.182281 88.0
408.280304 44.0
408.678253 40.0
409.006927 36.0
409.161652 60.0
409.406677 36.0
409.858246 88.0
410.209778 96.0
410.568329 32.0
410.68457 28.0
410.787933 32.0
411.16803 116.0
411.757477 44.0
411.938599 20.0
412.469208 52.0
412.71521 128.0
412.883575 32.0
415.191345 52.0
416.037079 60.0
417.025818 36.0
418.198212 100.0
419.163422 116.0
421.162567 64.0
421.829987 32.0
422.157349 40.0
423.189148 120.0
425.194122 296.0
428.467468 124.0
429.193481 52.0
433.403259 44.0
434.279572 48.0
435.156769 36.0
435.835205 44.0
437.160126 72.0
439.021545 92.0
439.221924 36.0
440.184326 32.0
441.603119 68.0
448.197723 76.0
449.244568 92.0
450.244934 112.0
450.447845 28.0
454.243958 140.0
456.188812 48.0
457.982819 56.0
458.97052 48.0
459.224091 100.0
470.223267 60.0
475.26825 76.0
476.658936 36.0
478.316528 68.0
479.907166 100.0
481.178772 112.0
488.280151 76.0
489.337158 76.0
497.578339 132.0
499.257629 72.0
500.240875 48.0
501.996063 36.0
502.267456 116.0
504.269501 112.0
508.256805 40.0
509.248871 84.0
514.223816 100.0
516.235046 44.0
520.00531 116.0
523.954346 84.0
526.262329 60.0
531.481079 148.0
531.67218 96.0
537.99646 48.0
539.268738 116.0
539.999084 76.0
541.995911 96.0
542.277954 80.0
546.263489 68.0
547.2323 76.0
550.487976 144.0
556.6521 20.0
559.28717 52.0
561.35437 140.0
562.008484 108.0
564.27301 104.0
567.275208 72.0
569.052917 80.0
573.24231 76.0
576.604919 28.0
580.238342 24.0
602.005493 196.0
605.850708 68.0
611.007996 72.0
611.528076 68.0
614.131836 68.0
623.583008 68.0
640.8125 80.0
647.364502 36.0
656.413635 36.0
666.677185 36.0
694.363098 116.0
711.738159 68.0
716.132507 100.0
732.29187 128.0
780.105957 36.0
790.458069 100.0
903.954834 88.0
913.023621 104.0
1171.103638 92.0
1300.608276 92.0
1948.012695 100.0
END IONS
