BEGIN IONS
PEPMASS=891.286
CHARGE=1
MSLEVEL=2
SOURCE_INSTRUMENT=LC-ESI-Orbitrap
FILENAME=f.daniel/Albis/XA_Frac_2.mzXML;
SEQ=*..*
IONMODE=Positive
ORGANISM=GNPS-LIBRARY
NAME=Beta-Methoxy-Asn-Albicidin M+H
PI=Roderich Suessmuth
DATACOLLECTOR=Daniel Petras
SMILES=OC1=CC=C(/C=C(C)/C(NC2=CC=C(C(NC(C(OC)C(N)=O)C(NC3=CC=C(C(NC4=CC=C(C(NC5=CC=C(C(O)=O)C(O)=C5OC)=O)C(O)=C4OC)=O)C=C3)=O)=O)C=C2)=O)C=C1
INCHI=
INCHIAUX=
PUBMED=28876492
SUBMITUSER=daniel
TAGS=
LIBRARYQUALITY=3
SPECTRUMID=CCMSLIB00004681485
SCANS=704
249.916672 0.51057
250.5 2.7e-05
264.083344 37.315838
264.833344 0.000822
266.916656 0.752671
267.5 5.8e-05
280.166656 372.315948
281.0 0.001241
285.083344 45.980061
285.916656 0.000125
297.083344 3.351885
297.833344 0.000141
303.166656 0.4677
303.75 3e-05
313.0 1.553644
313.5 9.7e-05
316.916656 0.544103
317.25 0.880998
317.833344 5.3e-05
321.083344 3.605932
321.666656 0.0002
331.0 31.240887
331.916656 0.000174
334.083344 1.786179
334.666656 0.000115
346.916656 2.010159
347.25 1.715632
347.833344 9.7e-05
348.25 1.12675
348.833344 11.118028
349.166656 24.539392
349.916656 0.000658
352.75 0.838691
353.166656 16.332085
354.083344 9.9e-05
361.25 1.421709
361.833344 0.000103
364.833344 1.670163
365.25 2.449599
365.833344 7e-05
375.166656 27.554323
376.0 0.000148
378.583344 1.514703
379.25 45.236343
380.083344 0.000373
382.583344 2.357454
382.916656 2.897547
383.25 0.763294
383.75 5.4e-05
391.5 6.671881
392.083344 90.432953
393.083344 0.000306
395.75 6.195129
396.166656 36.960728
397.0 0.001183
397.5 1.479655
398.083344 0.000121
398.833344 7.050585
399.25 19.201288
400.0 0.000532
403.0 1.194373
403.666656 7.3e-05
406.333344 3.221611
406.916687 0.000194
410.166687 1.988112
410.666687 0.000113
415.5 0.48452
416.083344 2.6e-05
416.75 0.618996
417.166687 4.282006
417.75 0.00024
424.166687 1682.330444
425.166687 0.004273
429.333344 2.647456
429.916687 0.000195
432.083344 0.230307
432.583344 2.4e-05
444.583344 1.723617
445.166687 9.897934
446.083344 0.000121
450.166687 0.628146
450.75 3.3e-05
466.583344 0.469054
467.166687 1.20493
468.166687 260.822845
469.25 0.000128
474.416687 1.390505
475.083344 6.5e-05
480.25 0.424248
480.833344 4.2e-05
481.083344 0.526684
481.416687 0.521326
481.916687 4.7e-05
491.166687 2.503047
491.75 0.00013
493.083344 0.577407
493.333344 3.699956
494.083344 5.511671
494.333344 8.699903
495.0 0.00034
498.0 1.938909
498.25 2.418157
498.833344 0.000134
507.416687 1.549696
508.0 0.986315
508.583344 8.1e-05
511.0 3.316281
511.333344 3.559844
512.0 5.7e-05
514.416687 0.874622
515.333313 2.521767
515.833313 0.000208
530.0 1.842958
530.583313 0.000146
531.0 2.582935
531.666687 4.7e-05
533.0 0.629627
533.583313 4.7e-05
539.333313 3.006492
539.833313 0.000166
540.333313 0.864349
540.916687 7e-05
543.166687 226.485321
544.083313 0.003004
548.083313 5.019424
548.666687 0.000261
555.416687 1.004534
556.0 7.5e-05
557.25 3.482928
557.833313 0.000194
560.666687 2.280714
561.083313 1.97334
561.333313 4.306932
561.916687 0.000275
563.916687 1.392217
564.25 4.390131
564.583313 1.594802
565.166687 0.000108
566.333313 3.949114
567.0 0.957281
567.416687 2.202816
567.916687 2.1e-05
568.166687 2.020541
568.666687 0.000161
569.333313 0.841665
569.916687 6.3e-05
571.083313 2.31149
571.25 3.607681
571.833313 0.000258
577.416687 0.88664
578.0 6.2e-05
581.25 1.189707
581.75 0.000104
582.25 2.250153
582.416687 2.389042
583.166687 5.660276
583.75 0.000301
585.083374 2.051809
585.666687 0.000134
586.25 0.560939
586.75 3.3e-05
587.25 4.56137
587.916687 0.000179
589.25 10.691663
590.083374 0.508132
590.333374 1.724708
590.5 4.018987
591.083374 0.000345
591.5 2.362393
591.833374 1.508927
592.083374 1.69927
592.416687 2.581805
592.583374 1.746286
592.833374 3.409956
593.25 11.280909
593.833374 1.893687
594.333374 10.251154
595.0 0.000144
596.333374 2.173974
597.0 0.000116
597.583374 2.131854
598.083374 0.000201
601.25 1.398606
601.75 0.000132
602.25 1.629583
602.833374 0.000124
604.0 1.047576
604.583374 5.5e-05
609.083374 1.490733
609.416687 1.378844
610.083374 0.684229
610.25 1.288935
610.833374 8e-05
615.333374 1.309579
616.0 1.063402
616.583374 9.2e-05
621.083374 1.522384
621.666687 9.1e-05
625.416687 3.068708
626.083374 0.000117
627.583374 1.485776
627.916687 1.887737
628.666687 4.1e-05
629.0 1.961814
629.583374 9.8e-05
633.083374 2.347872
633.666687 0.00014
636.333374 0.517351
636.75 2.11488
637.333374 0.000181
645.166687 0.815425
645.833374 0.612184
646.0 0.790174
646.333374 2.534639
646.666687 2.998875
647.25 24.94726
648.25 0.000105
655.333374 0.475016
655.833374 4.2e-05
658.333374 0.385093
659.083374 2.876294
659.333374 1.568502
659.916687 6.6e-05
663.833374 1.574415
664.25 5.579814
664.75 2.146694
665.083374 1.342052
665.583374 7.210845
666.166687 0.00034
667.083374 1.128763
667.583374 6.3e-05
671.416687 1.606928
671.916687 0.000132
675.083374 1.145486
675.5 2.214998
675.916687 14.362254
676.25 21.92437
676.666687 1.630538
677.166687 0.000102
680.25 1.951224
681.083374 11.74361
681.416687 4.456637
682.0 0.000302
684.416687 2.317696
684.916687 0.000156
686.583374 2.787941
687.166687 0.000163
690.083374 3.388517
690.833374 5.3e-05
691.25 6.825015
691.916687 0.000139
695.166687 1.885046
695.75 0.000129
696.25 3.467494
696.833374 0.000215
703.583374 0.462708
704.083374 0.634218
704.666687 3.6e-05
707.166687 5.660589
708.166687 665.082153
709.0 0.676196
709.583374 5.5e-05
710.25 2.180737
710.833374 0.000175
712.166687 0.99029
712.416687 1.382279
713.166687 33.047886
714.166687 1.488375
714.75 0.000105
716.25 0.968
716.833374 4.7e-05
718.166687 0.793637
718.666687 6.9e-05
719.583374 1.237189
720.083374 0.000102
720.75 5.545037
721.416687 0.712375
722.0 3.562572
722.333374 2.305214
723.0 0.0001
725.583374 2.124363
726.083374 0.684723
726.666687 4.2e-05
728.5 0.702237
729.083374 3.3e-05
730.75 4.147347
731.0 26.907635
731.5 6.80578
732.083374 0.000437
736.333374 0.919754
736.916687 7e-05
737.833374 0.825899
738.416687 6.1e-05
739.0 0.75835
739.583374 3.8e-05
740.166687 1.784573
740.75 0.000141
747.0 1.721035
747.583374 0.000117
753.416687 0.532734
753.833374 15.864913
754.333374 6.094141
754.916687 0.000385
759.333374 3.41785
760.083374 0.000113
761.166687 2.940047
761.75 0.000192
767.666687 2.835891
768.25 0.00015
768.75 1.35096
769.583374 1.510472
770.083374 0.000117
772.666687 1.30215
773.25 0.000102
782.333374 1.084277
782.916687 6.1e-05
785.25 1.528264
785.833374 7.8e-05
789.583374 0.927078
790.083374 5.5e-05
792.75 1.85529
793.333374 0.888302
793.833374 7.1e-05
800.333374 0.485361
800.833374 4.1e-05
801.333374 1.092496
801.916687 8.7e-05
803.583374 2.22841
803.833374 2.261528
804.333374 0.000136
805.333374 2.416413
805.916687 0.000153
811.166687 0.531138
811.75 2.8e-05
813.666687 1.886856
814.25 0.000106
815.5 1.143624
816.0 9e-05
819.583374 0.914186
820.166687 4.7e-05
824.0 0.915783
824.583374 7e-05
826.416687 4.11626
827.0 0.000287
828.166687 1.024318
828.75 7.3e-05
829.166687 1.474636
829.666687 0.000111
830.166687 1.092592
830.5 0.57671
830.833374 0.703176
831.5 0.867615
832.333374 1.331003
833.0 5.5e-05
833.25 2.78557
833.416687 2.78889
834.083374 8.9e-05
838.083374 3.397768
838.666687 0.000161
840.916687 1.723347
841.25 0.452448
841.75 4.667493
841.916687 9.097965
842.166687 9.543677
843.083374 0.000251
845.166687 3.236012
845.583374 1.527071
846.166687 1.466127
846.333374 1.254929
846.666687 3.672982
847.083374 0.471266
847.333374 1.471819
847.5 4.060944
848.083374 0.000285
848.333374 0.791017
848.916687 5.9e-05
850.25 0.690497
850.833374 4.7e-05
852.083374 1.717416
852.583374 9.2e-05
853.0 0.436017
853.75 1.75398
854.333374 3.390489
854.75 3.21642
855.333374 1.42309
855.916687 8.4e-05
857.083374 1.052921
857.5 4.43946
858.25 4.239135
858.666687 3.787472
859.166687 4.265908
859.666687 0.00025
861.416687 2.823539
862.083374 1.547516
862.666687 9.9e-05
863.833374 2.106634
864.333374 0.898922
864.833374 6.8e-05
869.333374 0.556418
869.583374 1.989634
870.166687 0.000114
871.083374 6.183357
871.416687 3.887335
872.166687 7.413163
872.416687 4.86731
873.25 72.618019
874.0 7.808487
874.333374 10.71572
874.666687 8.880332
875.25 0.000294
878.083374 3.115426
878.666687 0.000188
880.416687 0.867899
880.916687 5.9e-05
882.416687 4.554356
882.916687 0.000286
888.5 1.543787
889.083374 8e-05
891.0 1.434429
891.583374 0.000132
892.0 0.670302
892.833374 4.532865
893.583374 0.000145
END IONS
