BEGIN IONS
PEPMASS=613.357
CHARGE=2
MSLEVEL=2
SOURCE_INSTRUMENT=LC-ESI-qTof
FILENAME=f.philipwi/0_WilliamsFreshwaterCyanosStandardsConvertedTo_mzXML_v2/PW-13_v5_P1-B-4_Puwainaphycin_D_1224amu_01_15619_Scan626-648.mzXML;
SEQ=*..*
IONMODE=Positive
ORGANISM=GNPS-LIBRARY
NAME=Puwainaphycin D M+H
PI=Philip Williams
DATACOLLECTOR=Williams
SMILES=NC(C[C@H]1C(N2[C@H](C(N[C@@H]([C@@H](O)C(N[C@@H](C(C)C)C(N/C(C(N[C@H](C(N[C@H](C(N[C@@H](CCC(N)=O)C(NCC(N[C@H](C(N1C)=O)[C@@H](OC)C)=O)=O)=O)C(C)C)=O)[C@@H](O)C)=O)=C/C)=O)=O)[C@@H](C)CCCCCCCCCC(Cl)CC)=O)CCC2)=O)=O
INCHI=
INCHIAUX=
PUBMED=
SUBMITUSER=philipwi
TAGS=
LIBRARYQUALITY=3
SPECTRUMID=CCMSLIB00000424836
SCANS=639
63.930878 48.0
106.690567 80.0
114.36216 28.0
128.112579 28.0
145.635742 32.0
153.311249 36.0
164.036911 24.0
166.092468 84.0
166.914978 40.0
168.069901 36.0
168.177338 84.0
169.055267 60.0
171.550217 36.0
174.97345 40.0
176.088196 88.0
177.070755 120.0
179.163513 104.0
180.079391 136.0
182.876953 76.0
183.119873 196.0
184.769623 40.0
187.05542 56.0
190.347763 24.0
194.100769 132.0
195.078171 120.0
195.571823 28.0
197.905365 128.0
198.084747 64.0
202.233078 80.0
204.077438 132.0
204.879547 68.0
205.105713 128.0
206.097321 168.0
207.093506 76.0
207.90152 32.0
208.112976 116.0
209.098068 56.0
210.122467 64.0
210.224106 88.0
211.149353 208.0
212.104462 108.0
212.819901 32.0
216.115143 128.0
219.221848 232.0
220.172836 100.0
221.85965 52.0
222.231583 64.0
222.98143 28.0
223.048065 28.0
223.124237 244.0
223.276596 128.0
223.371857 36.0
223.714966 48.0
223.972458 36.0
224.112595 248.0
224.240616 4656.0
224.432495 40.0
224.53392 44.0
224.723892 76.0
224.888748 84.0
225.051743 52.0
225.134705 136.0
225.244095 656.0
225.338715 32.0
225.498062 52.0
225.62587 36.0
225.740768 24.0
226.085693 116.0
226.156967 52.0
228.141434 96.0
229.182907 80.0
230.119461 100.0
231.106827 88.0
231.290985 48.0
232.125443 64.0
233.097641 104.0
234.0905 424.0
235.089264 188.0
236.240982 448.0
237.124512 100.0
237.24231 136.0
238.077591 108.0
238.15596 328.0
238.256622 132.0
238.402283 24.0
239.145096 308.0
239.308624 32.0
239.693344 28.0
240.149429 136.0
241.121109 564.0
241.433411 60.0
241.760376 36.0
242.123184 176.0
243.117798 68.0
243.657135 44.0
246.181015 140.0
246.541199 40.0
247.051926 36.0
247.199371 220.0
248.145218 36.0
249.130249 184.0
249.734283 40.0
250.129822 192.0
250.238205 44.0
251.117035 516.0
251.636002 28.0
252.104446 1168.0
252.22641 164.0
252.406448 64.0
252.42775 36.0
253.100006 296.0
253.17099 60.0
253.242004 36.0
253.932251 72.0
254.076752 36.0
254.165939 24.0
254.252045 2112.0
254.521744 28.0
254.887985 24.0
255.140686 68.0
255.257385 212.0
255.407272 32.0
255.835312 44.0
256.12088 96.0
256.25351 204.0
257.135223 72.0
258.144745 60.0
258.308624 84.0
258.462341 44.0
259.016022 48.0
260.135437 28.0
260.220581 692.0
260.557129 116.0
260.660034 36.0
260.958588 44.0
261.216095 88.0
261.648956 44.0
262.082214 124.0
262.212402 104.0
262.412537 36.0
262.743073 44.0
263.132263 76.0
264.150177 116.0
264.23761 288.0
264.332123 100.0
264.419586 28.0
265.114532 96.0
265.758423 44.0
265.987091 28.0
266.15094 316.0
266.252014 88.0
266.330261 92.0
267.161591 92.0
267.24649 32.0
268.136597 352.0
268.770081 36.0
269.010498 56.0
269.124847 744.0
269.816132 56.0
270.036072 116.0
270.12973 192.0
270.245605 40.0
271.042603 24.0
271.756683 48.0
272.2164 208.0
273.082336 32.0
274.041748 40.0
274.136749 80.0
274.210632 120.0
276.135101 76.0
276.855865 40.0
278.130096 84.0
279.14093 84.0
279.30072 56.0
280.127472 156.0
281.125366 24.0
281.221558 36.0
282.023865 32.0
282.156219 132.0
282.241608 236.0
283.191895 148.0
283.728516 36.0
283.975525 36.0
284.155212 456.0
284.502106 32.0
285.156281 800.0
285.880035 28.0
286.154755 124.0
288.180328 88.0
288.288544 168.0
288.905792 76.0
289.718964 124.0
290.067871 164.0
290.295929 216.0
291.152954 100.0
291.283478 188.0
292.228607 108.0
293.14679 84.0
293.273102 84.0
294.151733 248.0
295.149261 108.0
296.147614 112.0
297.136261 80.0
297.293671 32.0
298.151367 76.0
298.629211 124.0
299.16922 48.0
299.689972 132.0
299.93045 24.0
300.265839 80.0
301.146027 116.0
301.477997 48.0
301.604858 52.0
301.876556 48.0
302.031647 40.0
302.208923 96.0
303.173767 116.0
303.284149 240.0
303.705505 188.0
304.284698 84.0
304.618378 120.0
305.208313 92.0
305.286255 64.0
305.966034 32.0
306.144897 104.0
306.244843 60.0
306.334106 24.0
306.456848 36.0
306.769379 40.0
306.881042 36.0
307.146881 80.0
307.166595 92.0
307.32785 92.0
308.110596 44.0
308.300842 140.0
308.737518 88.0
309.107239 120.0
309.235291 216.0
309.432343 32.0
309.80249 44.0
309.982025 24.0
310.116699 92.0
310.240204 64.0
310.99292 32.0
311.177155 156.0
312.050507 32.0
312.161652 136.0
312.275757 112.0
312.90686 52.0
313.1521 92.0
313.74411 40.0
314.15329 84.0
314.905884 28.0
315.188751 88.0
316.258118 164.0
316.788696 60.0
317.130096 164.0
317.305359 100.0
317.603851 40.0
318.271393 296.0
318.513336 24.0
318.923004 24.0
319.284271 244.0
319.435486 44.0
319.765961 60.0
320.90686 40.0
321.297577 464.0
322.141296 188.0
322.289307 108.0
322.473175 40.0
322.717987 296.0
322.900391 156.0
323.092285 68.0
323.206696 172.0
323.718567 116.0
323.871216 60.0
324.16095 344.0
324.422089 28.0
325.165619 216.0
325.605774 56.0
326.156769 208.0
326.434479 84.0
327.195038 88.0
327.564117 88.0
328.233612 68.0
328.788177 44.0
329.190552 156.0
330.182007 220.0
331.231934 128.0
331.556458 144.0
331.725403 100.0
332.090607 100.0
332.202179 112.0
332.729797 88.0
332.811188 32.0
333.174377 72.0
333.295563 192.0
334.146545 100.0
334.293488 112.0
335.137543 288.0
335.303772 540.0
336.118408 116.0
336.295532 612.0
336.706604 80.0
336.940582 28.0
337.294769 152.0
338.182526 108.0
338.299988 132.0
339.308319 72.0
340.195984 84.0
341.267822 156.0
341.707916 96.0
342.164032 156.0
342.344513 144.0
342.533264 56.0
342.639435 84.0
343.194244 68.0
343.282806 40.0
345.192871 56.0
345.29715 100.0
345.583801 36.0
346.264679 84.0
346.793579 52.0
347.19519 136.0
347.274231 92.0
348.124359 108.0
348.231415 76.0
348.445557 40.0
349.21814 108.0
349.285095 320.0
349.453247 64.0
349.693695 40.0
349.815308 52.0
349.982239 24.0
350.205444 112.0
350.25 80.0
350.281403 92.0
350.39975 24.0
350.495209 44.0
350.662292 24.0
350.769745 128.0
350.902069 48.0
351.161346 496.0
351.301544 19144.0
351.663055 52.0
351.7388 80.0
351.875763 56.0
352.049072 64.0
352.163086 184.0
352.306152 3364.0
352.555328 32.0
352.66687 32.0
352.788971 36.0
352.881287 64.0
353.135223 124.0
353.314423 1600.0
353.663116 28.0
354.146729 404.0
354.322174 432.0
354.443176 36.0
354.489471 32.0
354.804596 40.0
354.924683 52.0
355.237 36.0
355.324554 276.0
355.622864 36.0
355.753784 28.0
356.054443 44.0
356.196991 176.0
356.740387 68.0
357.00531 32.0
357.266083 68.0
357.590057 68.0
357.921265 24.0
358.162506 112.0
358.259918 396.0
358.669342 40.0
358.753876 220.0
359.16449 68.0
359.268555 216.0
359.829224 28.0
360.043884 32.0
360.152344 84.0
360.918335 64.0
361.288635 272.0
361.875641 28.0
362.203125 44.0
363.135223 96.0
363.304962 2712.0
363.50238 52.0
363.709015 108.0
363.822113 40.0
363.999573 76.0
364.306183 812.0
364.475311 56.0
364.71875 28.0
364.816132 28.0
364.921051 52.0
365.209991 164.0
365.299805 144.0
365.534851 120.0
365.998108 24.0
366.205444 92.0
366.298187 80.0
366.571503 44.0
367.186188 212.0
367.274261 272.0
368.207397 176.0
369.263397 392.0
370.174042 324.0
370.258026 200.0
371.169708 184.0
371.268738 148.0
371.457306 40.0
371.666199 40.0
371.961182 24.0
372.133331 36.0
372.270477 376.0
372.736115 128.0
373.179291 96.0
373.279144 224.0
373.992462 32.0
374.267426 160.0
374.979309 48.0
375.266174 136.0
375.423828 40.0
375.707947 36.0
376.511505 40.0
376.94455 28.0
377.343506 88.0
377.526459 44.0
378.071625 32.0
378.183167 168.0
378.312622 100.0
378.852875 36.0
379.177612 72.0
379.296478 1464.0
379.678986 44.0
379.883392 32.0
380.160156 112.0
380.305939 308.0
380.686859 44.0
381.119598 160.0
381.201019 172.0
381.537598 36.0
381.796356 36.0
382.221039 44.0
382.372314 36.0
383.246643 76.0
384.188568 140.0
384.275848 84.0
384.694275 104.0
384.831818 28.0
385.10257 44.0
385.266144 116.0
385.507385 40.0
386.204041 300.0
386.319336 252.0
386.842743 36.0
387.102325 56.0
387.277283 5664.0
387.542419 52.0
387.639496 40.0
387.746277 32.0
388.010223 80.0
388.276581 576.0
388.692963 92.0
388.843811 24.0
388.944366 24.0
389.141357 64.0
389.279236 2032.0
389.497711 28.0
389.598358 44.0
389.686432 40.0
389.900391 48.0
390.064026 28.0
390.295349 240.0
390.630768 24.0
390.945801 28.0
391.295685 804.0
391.588867 44.0
392.13147 24.0
392.305206 228.0
392.636536 24.0
392.750244 144.0
393.331573 52.0
393.619232 32.0
394.039856 56.0
394.211792 232.0
394.596802 28.0
394.774109 24.0
395.06546 24.0
395.193512 452.0
395.315094 80.0
395.547058 24.0
395.774902 136.0
395.90213 32.0
396.198944 196.0
396.317383 104.0
396.701599 32.0
397.195862 736.0
398.17572 152.0
398.296722 76.0
398.582855 44.0
398.779266 84.0
398.939301 32.0
399.274323 856.0
399.509644 128.0
400.27594 276.0
401.144989 32.0
401.283295 260.0
401.949707 28.0
402.312714 208.0
402.435486 44.0
402.62735 28.0
403.30014 88.0
404.150879 96.0
404.253418 68.0
404.458496 36.0
404.735931 132.0
405.21521 96.0
405.332611 60.0
405.561768 152.0
406.211395 152.0
406.345215 76.0
406.743652 92.0
406.859344 24.0
407.065125 104.0
407.192566 44.0
407.215027 116.0
407.319092 252.0
407.6698 24.0
408.159027 84.0
408.333954 84.0
409.192688 84.0
409.31842 60.0
410.054352 28.0
410.19635 68.0
411.247711 100.0
411.423767 76.0
411.527191 32.0
412.205627 140.0
412.329346 100.0
412.950897 44.0
413.086212 36.0
413.257172 100.0
414.214844 80.0
414.343536 100.0
414.779388 36.0
414.998688 36.0
415.104004 36.0
415.270935 1308.0
415.753632 40.0
416.078644 48.0
416.267303 244.0
416.38913 32.0
417.028381 36.0
417.284607 412.0
418.005249 68.0
418.308746 352.0
418.774536 24.0
419.322601 120.0
420.171509 132.0
420.30014 76.0
421.308044 100.0
422.293396 136.0
422.73642 32.0
422.946167 88.0
423.232269 120.0
424.209351 164.0
424.350037 108.0
424.809784 40.0
425.280579 484.0
425.795715 64.0
426.045685 40.0
426.28595 256.0
426.440491 28.0
426.572144 32.0
426.822327 44.0
427.015106 44.0
427.103302 36.0
427.281158 640.0
427.481049 40.0
428.299255 80.0
428.720856 64.0
429.275513 236.0
430.335022 296.0
431.29541 112.0
431.801666 24.0
432.06662 36.0
432.299896 328.0
432.583527 44.0
432.875275 52.0
433.286499 236.0
433.372253 80.0
434.193512 144.0
434.317902 88.0
434.621063 40.0
435.186554 428.0
435.305725 28.0
435.864502 28.0
436.077454 64.0
436.197266 196.0
436.329376 164.0
436.783234 116.0
437.156342 48.0
437.298035 116.0
437.822998 68.0
437.95639 24.0
438.292725 148.0
439.304779 100.0
439.665588 44.0
440.200409 72.0
440.979797 32.0
441.247406 116.0
442.22226 24.0
442.329498 24.0
443.315277 196.0
444.307983 184.0
445.30545 188.0
446.3302 404.0
447.320801 264.0
447.452148 28.0
447.789337 40.0
448.331055 176.0
449.188385 88.0
449.544617 32.0
450.160431 44.0
450.372314 1296.0
450.775391 44.0
451.008881 32.0
451.233551 268.0
451.370911 624.0
451.941742 32.0
452.095276 44.0
452.219177 468.0
452.346527 252.0
452.522949 32.0
453.290344 1044.0
453.526978 28.0
453.852844 48.0
454.065643 48.0
454.299438 272.0
454.823364 84.0
455.286499 244.0
456.082703 36.0
456.311493 76.0
456.653442 44.0
457.104279 32.0
457.307953 140.0
457.690521 28.0
458.315002 36.0
459.280182 112.0
459.834076 80.0
460.037445 32.0
460.359222 228.0
461.051453 28.0
461.147278 32.0
461.243103 92.0
461.53064 28.0
461.758942 132.0
462.327942 244.0
463.207703 68.0
463.333221 136.0
463.779297 112.0
463.957764 24.0
464.105743 36.0
464.349487 2096.0
464.836945 44.0
465.015625 24.0
465.355042 884.0
465.648163 36.0
465.799469 36.0
466.226044 120.0
466.357056 132.0
467.291595 160.0
468.08606 32.0
468.352264 80.0
468.886292 32.0
469.093353 128.0
469.242981 444.0
469.902771 80.0
470.3172 108.0
470.682434 32.0
471.208099 24.0
471.32254 64.0
471.629639 96.0
472.307129 112.0
472.49585 24.0
472.675995 120.0
472.967102 24.0
473.235565 132.0
473.799255 120.0
474.337494 244.0
474.804047 116.0
475.215576 96.0
475.332397 108.0
475.702087 124.0
476.261841 112.0
476.362915 132.0
476.973053 56.0
477.352875 120.0
477.460938 92.0
478.207947 48.0
478.359558 360.0
479.214539 164.0
479.358551 124.0
479.700653 24.0
480.225891 160.0
480.323547 80.0
481.249115 124.0
481.391479 40.0
482.299805 116.0
483.312378 440.0
483.786072 32.0
484.269531 76.0
485.304321 60.0
485.493134 72.0
485.610504 124.0
485.779083 36.0
485.912109 36.0
486.178864 44.0
486.34491 2284.0
486.523987 36.0
487.347473 896.0
487.59317 48.0
487.916992 40.0
488.029633 24.0
488.343445 740.0
488.917206 40.0
489.058167 28.0
489.347382 204.0
489.749176 32.0
489.946686 32.0
490.116028 28.0
490.25824 52.0
490.370941 172.0
490.79364 44.0
490.892487 48.0
491.231506 80.0
491.357635 156.0
491.528259 36.0
491.683716 48.0
491.805328 100.0
492.342224 344.0
492.815155 88.0
493.344696 160.0
493.795776 168.0
494.231293 112.0
494.798309 48.0
494.968475 52.0
495.25708 196.0
495.389313 252.0
495.748779 32.0
496.03717 52.0
496.332916 552.0
496.785431 80.0
497.268127 180.0
497.538727 44.0
497.780487 32.0
498.324921 196.0
499.332245 176.0
499.631073 28.0
499.802094 28.0
499.901855 48.0
500.328125 1108.0
501.08551 48.0
501.332672 480.0
501.613586 64.0
501.77066 24.0
501.89917 32.0
502.333435 404.0
502.913635 76.0
503.212097 64.0
503.312683 144.0
503.72879 28.0
504.360046 132.0
504.630524 48.0
505.424652 120.0
506.26297 84.0
506.665985 28.0
506.881226 116.0
507.369293 104.0
508.256165 280.0
508.389282 64.0
508.806183 120.0
509.259216 72.0
509.404572 68.0
510.31662 192.0
511.265503 100.0
512.31073 128.0
512.681396 56.0
513.114502 36.0
513.315186 76.0
513.63446 108.0
514.067993 36.0
514.33551 576.0
514.618896 36.0
515.059387 64.0
515.359314 344.0
515.687988 40.0
515.847229 32.0
516.338684 412.0
516.542419 36.0
517.238037 52.0
517.349487 160.0
518.223328 104.0
518.374268 108.0
519.248901 96.0
519.357361 112.0
519.810303 108.0
520.330627 80.0
521.312561 24.0
521.712891 28.0
521.873108 36.0
522.280884 128.0
522.688904 92.0
523.304626 136.0
523.908936 84.0
524.32605 784.0
525.336487 260.0
526.311096 248.0
526.996948 24.0
527.338257 588.0
527.816772 112.0
528.32135 256.0
528.563904 184.0
529.304138 104.0
529.810364 24.0
530.373413 228.0
530.970154 24.0
531.237976 104.0
531.368103 260.0
531.646057 28.0
531.763611 32.0
531.866516 68.0
532.371338 176.0
532.851929 40.0
533.403809 356.0
534.317444 84.0
534.387207 140.0
534.899231 56.0
535.257019 88.0
535.415405 64.0
536.27124 104.0
536.374573 68.0
537.31189 104.0
537.659729 32.0
538.26593 96.0
538.386353 172.0
539.359131 68.0
540.348572 140.0
541.287903 80.0
542.385193 64.0
543.389343 228.0
544.073669 80.0
544.376587 144.0
545.239319 48.0
545.372742 248.0
546.058289 28.0
546.356262 56.0
546.743713 28.0
547.39386 192.0
547.892029 32.0
548.04126 24.0
548.352295 96.0
548.727905 36.0
549.354553 52.0
550.304138 72.0
551.377563 104.0
552.319458 92.0
552.871948 140.0
553.346924 228.0
553.501648 80.0
554.353149 208.0
554.627014 24.0
555.345215 312.0
556.354736 160.0
556.846741 84.0
557.361694 136.0
558.384766 72.0
559.335815 92.0
559.908813 124.0
560.195496 36.0
560.356323 132.0
560.512329 48.0
560.844421 32.0
561.021057 40.0
561.203003 32.0
561.400452 4232.0
561.761108 40.0
561.960876 48.0
562.157471 56.0
562.402832 1676.0
562.536499 40.0
562.908997 44.0
563.415527 276.0
563.625549 40.0
563.882874 48.0
564.261353 72.0
565.367249 72.0
565.609802 36.0
566.342163 248.0
566.580505 28.0
566.914368 32.0
567.020569 36.0
567.313293 100.0
567.992493 36.0
568.159607 32.0
568.334595 156.0
569.373352 332.0
569.893066 24.0
570.030029 52.0
570.373108 224.0
570.806519 148.0
571.388916 272.0
571.568237 32.0
571.796875 52.0
572.010315 36.0
572.391785 116.0
573.399231 432.0
574.26886 80.0
574.383484 36.0
574.941223 44.0
576.501343 32.0
577.245422 80.0
579.364502 236.0
579.535828 28.0
579.70459 24.0
580.273438 80.0
580.387512 144.0
580.742432 40.0
581.148254 32.0
581.374207 156.0
582.37207 136.0
583.36322 280.0
583.809753 32.0
584.369812 232.0
585.196777 36.0
585.356018 160.0
585.536072 24.0
586.029785 64.0
587.383423 116.0
588.385071 116.0
589.38324 52.0
590.453857 116.0
590.962769 40.0
591.117737 32.0
591.286255 92.0
591.76886 104.0
592.358276 64.0
593.345093 260.0
593.802002 24.0
594.279419 88.0
594.370361 152.0
594.998718 24.0
595.309692 148.0
595.449707 108.0
595.605286 88.0
596.18103 128.0
596.383362 148.0
596.492371 32.0
596.834167 52.0
596.986511 100.0
597.218445 64.0
597.379944 6772.0
597.771912 60.0
598.014954 76.0
598.076965 56.0
598.13623 116.0
598.381653 2828.0
598.940125 128.0
599.378418 3080.0
599.989502 40.0
600.386475 860.0
601.388123 184.0
601.687988 36.0
601.953796 24.0
602.417908 76.0
602.861267 44.0
603.377869 184.0
603.847717 28.0
604.362488 56.0
604.416931 84.0
605.321045 36.0
605.462219 32.0
605.666138 48.0
605.77594 36.0
606.320862 116.0
606.953247 32.0
607.373779 276.0
608.384399 256.0
608.571899 128.0
608.902161 36.0
609.216797 36.0
609.394165 276.0
610.382629 64.0
611.384338 172.0
612.379639 84.0
613.410889 84.0
614.394287 216.0
615.44165 252.0
615.906189 36.0
616.175171 48.0
616.487427 104.0
617.410034 172.0
617.631775 24.0
617.790222 28.0
618.170532 28.0
618.434753 180.0
619.448914 100.0
620.357666 64.0
620.440979 64.0
621.401917 116.0
622.218628 32.0
622.369873 164.0
623.586853 36.0
624.391846 36.0
625.865234 128.0
626.407776 244.0
626.774597 36.0
627.36377 136.0
628.429321 52.0
629.36261 80.0
630.40625 120.0
630.802673 40.0
632.320862 52.0
632.78949 36.0
633.382935 40.0
633.768066 24.0
634.329834 84.0
634.469116 84.0
635.365173 256.0
636.377014 212.0
637.377625 184.0
637.770203 32.0
638.392395 124.0
639.36322 84.0
640.284058 36.0
641.386414 168.0
641.542786 24.0
642.110474 52.0
642.38031 144.0
643.396851 48.0
644.445496 1064.0
645.180725 32.0
645.440369 280.0
646.071594 28.0
646.433044 80.0
647.400879 120.0
649.384827 108.0
651.071655 44.0
651.409973 196.0
651.934021 40.0
652.427612 320.0
652.666687 44.0
652.78064 36.0
653.418091 300.0
653.55542 108.0
653.676758 36.0
653.872314 44.0
653.984619 36.0
654.133179 32.0
654.417847 756.0
654.867004 32.0
655.408386 644.0
656.414001 424.0
657.064941 32.0
657.427551 68.0
658.444336 80.0
658.558899 56.0
658.80426 44.0
659.016968 24.0
661.45752 36.0
661.736267 32.0
662.448792 520.0
662.72052 40.0
663.432373 208.0
663.639771 72.0
663.771179 28.0
664.438477 148.0
665.4198 68.0
666.400208 176.0
666.598999 56.0
666.747131 28.0
667.191589 132.0
667.306885 48.0
667.422119 68.0
667.570374 36.0
668.395081 208.0
669.400452 104.0
670.092651 40.0
670.25769 28.0
670.434692 704.0
670.967529 32.0
671.420959 160.0
671.578613 96.0
672.433167 228.0
673.115784 64.0
673.430054 112.0
673.942932 24.0
674.472595 44.0
675.433167 64.0
675.681702 100.0
676.212036 112.0
676.676208 28.0
677.057678 44.0
677.173767 56.0
677.383301 168.0
678.418457 144.0
679.032959 44.0
679.368469 140.0
680.41748 2248.0
680.920532 72.0
681.410645 972.0
681.926331 48.0
682.419495 960.0
682.636169 40.0
682.896912 28.0
683.417175 500.0
684.412659 276.0
684.55896 64.0
684.709106 32.0
685.467346 72.0
685.793701 52.0
685.960693 32.0
688.366943 100.0
688.651245 36.0
689.486572 152.0
690.419739 80.0
691.380676 124.0
692.443726 156.0
693.141724 64.0
693.410278 232.0
694.031494 24.0
694.317017 84.0
694.434082 220.0
695.382935 64.0
696.418213 100.0
697.175415 24.0
697.453125 96.0
697.613098 28.0
698.000366 28.0
698.424194 2412.0
699.112366 44.0
699.430542 1108.0
700.073425 28.0
700.428406 808.0
701.12915 32.0
701.43988 396.0
701.710388 32.0
701.875916 80.0
702.098816 24.0
702.432678 240.0
702.656311 32.0
702.859131 144.0
703.446228 120.0
707.449036 72.0
708.4104 100.0
709.455261 100.0
710.11084 28.0
710.246765 40.0
710.433655 28.0
710.603577 32.0
711.45343 204.0
711.6745 48.0
712.442932 92.0
713.427124 80.0
714.438171 100.0
715.505859 56.0
716.102783 32.0
716.510132 96.0
717.45813 96.0
718.43219 108.0
719.45636 44.0
720.425049 76.0
720.904236 120.0
721.400635 56.0
722.411133 32.0
723.610962 24.0
724.399963 108.0
725.206604 68.0
725.454285 348.0
725.738831 40.0
726.236938 24.0
726.455627 132.0
727.460022 88.0
728.481934 96.0
729.48053 68.0
730.89978 24.0
732.399902 80.0
732.865723 148.0
733.526062 312.0
734.536194 356.0
735.529175 64.0
736.42804 92.0
737.38855 76.0
738.516296 84.0
739.411987 96.0
741.484863 92.0
743.489929 248.0
743.795288 24.0
744.513794 128.0
744.873535 88.0
748.437378 96.0
748.75824 36.0
750.433716 76.0
751.480408 440.0
752.484558 172.0
753.486938 424.0
754.500305 220.0
755.493103 240.0
756.467712 272.0
757.031494 40.0
757.154236 24.0
757.462891 76.0
757.601624 64.0
758.628357 36.0
758.856628 48.0
760.420288 168.0
761.507629 292.0
762.52179 180.0
762.848022 28.0
763.481995 96.0
764.489075 104.0
765.44043 148.0
766.497986 64.0
767.29126 36.0
768.262756 28.0
768.439453 92.0
768.704529 36.0
768.934326 44.0
769.495361 1144.0
770.514771 572.0
771.092346 28.0
771.494385 460.0
771.906799 40.0
772.49054 268.0
773.486633 52.0
774.565674 44.0
777.477905 80.0
777.620117 60.0
778.41272 76.0
778.550842 136.0
778.918335 24.0
779.042847 32.0
779.291931 44.0
779.466736 344.0
780.235352 28.0
780.481873 508.0
780.644958 44.0
781.491882 428.0
782.266541 28.0
782.48877 404.0
783.471191 96.0
784.514648 60.0
786.497742 40.0
786.944702 32.0
788.554932 72.0
790.480164 56.0
791.098877 60.0
791.47821 96.0
792.501343 108.0
793.269775 32.0
795.46167 104.0
796.019104 44.0
796.504822 104.0
797.278564 32.0
797.493591 1168.0
797.854675 32.0
798.494385 492.0
798.805603 40.0
799.295776 32.0
799.490662 528.0
800.287292 32.0
800.504089 300.0
801.153137 32.0
801.559814 148.0
802.506897 64.0
803.048706 36.0
803.500427 56.0
804.820007 28.0
806.12262 40.0
806.448425 32.0
806.919128 24.0
807.498718 36.0
808.450256 132.0
809.499451 52.0
810.461548 64.0
811.485474 68.0
812.505981 60.0
813.479492 64.0
814.524841 628.0
815.531433 344.0
816.522156 308.0
816.781616 44.0
817.364685 40.0
817.524414 100.0
818.440247 84.0
818.91449 36.0
820.082397 24.0
821.452087 96.0
821.596252 36.0
822.420654 48.0
822.585205 56.0
822.768066 40.0
823.810608 52.0
825.201721 32.0
826.503174 116.0
827.502136 156.0
828.472717 44.0
829.492188 44.0
836.581787 60.0
837.516174 92.0
838.506409 180.0
839.491211 80.0
840.525818 64.0
841.154297 32.0
842.559998 52.0
847.563293 68.0
848.900024 148.0
849.494446 84.0
850.628174 72.0
853.512268 108.0
854.51825 68.0
855.539673 100.0
856.998413 32.0
857.502319 60.0
860.4729 56.0
862.41864 40.0
863.53595 156.0
866.504456 60.0
868.525452 92.0
869.509399 44.0
869.791382 32.0
870.374268 28.0
871.553589 96.0
872.105286 108.0
872.557129 44.0
874.516541 32.0
875.440491 40.0
876.78009 52.0
877.459778 100.0
880.502502 60.0
880.824097 36.0
881.531494 52.0
882.550232 92.0
883.5354 64.0
884.467773 40.0
888.369873 136.0
888.616882 60.0
889.565918 120.0
890.571777 176.0
892.916565 92.0
893.583374 56.0
896.577576 36.0
897.582947 92.0
898.536438 148.0
899.538574 44.0
900.552124 64.0
901.571533 116.0
902.572144 52.0
903.596313 64.0
905.30249 44.0
905.503601 124.0
906.895142 32.0
907.542358 88.0
908.527588 104.0
909.560913 120.0
910.526184 56.0
911.534973 68.0
913.587891 44.0
919.551208 52.0
920.595337 52.0
922.898376 128.0
924.603333 112.0
925.551086 328.0
926.096436 32.0
926.576782 136.0
927.564819 228.0
928.095642 32.0
928.584656 80.0
929.635742 44.0
930.590637 68.0
931.925293 40.0
935.821289 28.0
936.250366 128.0
936.386902 32.0
936.58197 56.0
938.006653 84.0
938.571045 148.0
939.553284 260.0
939.842712 68.0
940.585449 48.0
940.917847 36.0
942.521912 44.0
943.069946 60.0
943.716064 56.0
946.592285 84.0
947.542542 88.0
947.774048 32.0
948.4552 120.0
948.932251 56.0
949.52832 124.0
950.641357 100.0
954.572449 208.0
955.580994 76.0
955.718933 40.0
956.566528 48.0
957.552551 48.0
964.59082 96.0
965.559814 136.0
966.57782 108.0
967.20282 96.0
967.567139 100.0
968.576843 172.0
969.563416 160.0
970.556152 76.0
973.537292 44.0
975.586975 48.0
977.519226 76.0
980.570923 96.0
981.529358 36.0
982.188477 88.0
982.581665 220.0
983.571045 292.0
984.590881 144.0
985.590942 64.0
992.644531 56.0
996.74585 36.0
998.578125 36.0
1001.138 36.0
1002.005493 28.0
1003.640564 40.0
1006.55072 80.0
1008.230042 84.0
1012.627075 152.0
1013.588928 76.0
1014.656555 44.0
1015.367371 32.0
1021.572083 60.0
1022.560181 108.0
1023.610535 68.0
1024.610107 72.0
1027.65271 44.0
1029.627319 308.0
1030.188232 28.0
1030.648071 128.0
1031.630493 60.0
1033.689819 40.0
1035.59668 88.0
1037.635498 72.0
1038.63501 64.0
1039.587891 80.0
1040.602051 60.0
1041.594116 124.0
1042.686035 24.0
1044.683594 60.0
1047.116211 100.0
1047.605225 68.0
1048.595459 128.0
1049.572388 84.0
1050.625854 52.0
1051.61792 108.0
1052.589722 40.0
1054.244873 64.0
1055.631958 52.0
1057.609131 96.0
1059.840576 44.0
1060.632568 52.0
1060.708008 56.0
1061.148438 24.0
1064.411011 104.0
1065.625854 724.0
1066.061646 72.0
1066.621704 616.0
1067.290894 52.0
1067.622437 408.0
1067.949463 52.0
1068.324463 32.0
1068.626587 376.0
1069.64563 120.0
1070.65625 64.0
1071.631348 64.0
1072.672607 88.0
1073.602295 84.0
1073.769409 148.0
1075.566528 64.0
1076.633057 60.0
1077.637207 96.0
1079.605225 64.0
1080.715576 24.0
1081.616821 36.0
1089.240356 56.0
1089.934692 32.0
1097.663696 164.0
1098.622559 48.0
1099.624878 32.0
1100.228882 24.0
1100.633667 56.0
1101.667114 68.0
1106.856934 100.0
1109.785522 76.0
1110.635132 64.0
1118.615967 96.0
1122.606323 76.0
1128.958618 112.0
1129.687012 80.0
1132.624146 92.0
1133.782959 52.0
1149.657227 40.0
1150.716553 56.0
1151.689819 44.0
1157.646606 76.0
1167.671631 140.0
1168.625366 92.0
1169.668701 120.0
1170.674683 32.0
1171.656372 44.0
1172.662231 44.0
1176.177368 68.0
1180.707031 108.0
1246.657471 48.0
1269.198242 144.0
1326.166504 32.0
1330.650513 24.0
1595.414429 128.0
1861.31543 40.0
END IONS
