BEGIN IONS
PEPMASS=972.59
CHARGE=2
MSLEVEL=2
SOURCE_INSTRUMENT=LC-ESI-qTof
FILENAME=f.t3hdon/Network_20140411_round-2/mzXMLs_for_round_2/P1-H-07_P1-H-7_01_3312.mzXML;
SEQ=*..*
IONMODE=Positive
ORGANISM=GNPS-LIBRARY
NAME=Spectra matches to compound Tolaasin E M+2H
PI=Pieter Dorrestein
DATACOLLECTOR=Don Nguyen, Alexey Melnik
SMILES=CCCCCC(O)CC(N/C(C(N1CCC[C@@H]1C(N[C@H](C(N[C@H](C(N[C@@H](C(N[C@@H](C(N[C@@H](C(N[C@@H](C(N[C@H](C(N[C@@H](C(N[C@H](C(N[C@@H](C(N/C(C(N[C@@H]2[C@@H](C)OC([C@H](CCCCN)NC([C@@H](CCN)NC(CNC([C@H](CC(C)C)NC2=O)=O)=O)=O)=O)=O)=C\C)=O)C(C)C)=O)CC(C)C)=O)CCC(N)=O)=O)C(C)C)=O)C(C)C)=O)CC(C)C)=O)CO)=O)C(C)C)=O)CC(C)C)=O)CO)=O)=O)=C\C)=O
INCHI=
INCHIAUX=
PUBMED=44559562
SUBMITUSER=t3hdon
TAGS=
LIBRARYQUALITY=3
SPECTRUMID=CCMSLIB00000081206
SCANS=340
167.076157 356.0
185.086945 712.0
226.140854 1476.0
227.146332 516.0
252.169373 1012.0
270.178009 536.0
271.171967 548.0
280.16391 5596.0
281.165924 484.0
282.171844 352.0
296.201141 468.0
298.174438 2944.0
299.176483 676.0
300.19046 656.0
304.188263 340.0
323.193542 924.0
327.203583 484.0
336.188873 544.0
337.187469 796.0
341.219116 704.0
349.176422 412.0
367.188599 396.0
369.24588 1032.0
370.245087 352.0
371.259003 680.0
379.221161 532.0
381.24353 396.0
392.213348 1592.0
395.260895 420.0
397.240723 1368.0
399.262512 936.0
407.225189 348.0
410.227264 604.0
413.270477 464.0
417.275085 332.0
437.24353 1800.0
438.237213 592.0
440.279785 596.0
462.273651 568.0
466.262238 1324.0
480.28125 536.0
482.306 472.0
483.289978 344.0
484.27359 1436.0
500.306305 904.0
501.320068 416.0
505.297455 2680.0
506.300446 1092.0
507.29541 336.0
523.313232 1052.0
524.32373 396.0
566.323303 1288.0
579.349976 424.0
581.371948 372.0
583.354797 1992.0
584.359985 432.0
597.355957 372.0
598.350952 460.0
622.375183 1152.0
623.38031 660.0
682.408081 920.0
691.394104 532.0
696.430908 540.0
709.410522 716.0
777.489075 380.0
795.496948 864.0
796.498413 520.0
804.480774 780.0
805.476868 356.0
851.016357 788.0
859.532837 4648.0
860.030823 3608.0
860.536072 2276.0
861.023621 1152.0
905.552002 496.0
906.541687 1124.0
907.542542 560.0
921.56543 632.0
922.572327 436.0
923.562866 1744.0
924.563049 1292.0
963.589661 408.0
964.081116 580.0
964.603027 404.0
972.099854 17096.0
972.603088 19020.0
973.107483 10744.0
973.602478 4316.0
974.108887 1376.0
974.613831 336.0
1020.622742 620.0
1022.643738 716.0
1023.648071 360.0
1121.713745 612.0
1122.70166 484.0
1321.82312 392.0
1322.813843 376.0
END IONS
