BEGIN IONS
PEPMASS=535.271
CHARGE=1
MSLEVEL=2
SOURCE_INSTRUMENT=LC-ESI-qTof
FILENAME=f.chenliangyu/A1B2 light EtOAc ACN/A1B2-LEA-H3.mzXML;
SEQ=*..*
IONMODE=Positive
ORGANISM=GNPS-LIBRARY
NAME=Antimycin A2 M+H
PI=Dorrestein
DATACOLLECTOR=Liangyu Chen
SMILES=CCCCCCC1C(C(OC(=O)C(C(OC1=O)C)NC(=O)C2=C(C(=CC=C2)NC=O)O)C)OC(=O)CCC
INCHI=InChI=1S/C27H38N2O9/c1-5-7-8-9-12-19-24(38-21(31)11-6-2)17(4)37-27(35)22(16(3)36-26(19)34)29-25(33)18-13-10-14-20(23(18)32)28-15-30/h10,13-17,19,22,24,32H,5-9,11-12H2,1-4H3,(H,28,30)(H,29,33)
INCHIAUX=
PUBMED=3084471
SUBMITUSER=chenliangyu
TAGS=
LIBRARYQUALITY=3
SPECTRUMID=CCMSLIB00000531508
SCANS=1084
136.045013 5816.0
137.048004 628.0
146.028137 1284.0
154.056702 848.0
163.091309 652.0
164.039352 18364.0
165.045013 1972.0
169.12915 376.0
182.048706 776.0
191.087646 8608.0
192.087509 792.0
193.070572 720.0
201.069656 1200.0
209.098831 2668.0
219.082458 2548.0
221.06279 700.0
237.093872 122948.0
238.095932 13864.0
239.09613 2728.0
247.076843 5440.0
248.079758 848.0
265.089264 65056.0
266.091461 7380.0
267.094055 1464.0
END IONS
