BEGIN IONS
PEPMASS=648.728
CHARGE=3
MSLEVEL=2
SOURCE_INSTRUMENT=LC-ESI-qTof
FILENAME=f.t3hdon/Network_20140411_round-2/mzXMLs_for_round_2/P1-H-07_P1-H-7_01_3312.mzXML;
SEQ=*..*
IONMODE=Positive
ORGANISM=GNPS-LIBRARY
NAME=Spectra matches to compound Tolaasin E M+H
PI=Pieter Dorrestein
DATACOLLECTOR=Don Nguyen, Alexey Melnik
SMILES=CCCCCC(CC(=O)N/C(=C\C)/C(=O)N1CCC[C@@H]1C(=O)N[C@@H](CO)C(=O)N[C@@H](CC(C)C)C(=O)N[C@H](C(C)C)C(=O)N[C@H](CO)C(=O)N[C@H](CC(C)C)C(=O)N[C@H](C(C)C)C(=O)N[C@@H](C(C)C)C(=O)N[C@H](CCC(=O)N)C(=O)N[C@@H](CC(C)C)C(=O)N[C@H](C(C)C)C(=O)N/C(=C\C)/C(=O)N[C@@H]2[C@H](OC(=O)[C@@H](NC(=O)[C@H](NC(=O)CNC(=O)[C@@H](NC2=O)CC(C)C)CCN)CCCCN)C)O
INCHI=
INCHIAUX=
PUBMED=44559562
SUBMITUSER=t3hdon
TAGS=
LIBRARYQUALITY=3
SPECTRUMID=CCMSLIB00000081207
SCANS=373
167.077621 748.0
180.138901 420.0
185.089767 524.0
208.131744 416.0
214.155533 604.0
226.141541 2220.0
228.133392 380.0
242.150757 408.0
252.169937 1328.0
253.164749 420.0
266.147095 636.0
270.177551 512.0
271.175507 344.0
280.161774 2416.0
282.175964 904.0
298.173065 2148.0
299.182831 340.0
300.186127 1328.0
319.227112 416.0
337.189117 568.0
348.707825 608.0
352.278625 1600.0
353.279999 420.0
369.233551 992.0
379.229675 420.0
387.223602 596.0
397.241974 1232.0
398.248352 988.0
398.753235 572.0
399.264343 556.0
437.245117 1016.0
438.24588 476.0
462.269165 1272.0
463.274414 376.0
466.261993 528.0
480.281097 448.0
482.305298 404.0
484.275085 756.0
485.285522 340.0
490.251617 400.0
497.311249 364.0
500.31601 844.0
551.350952 352.0
561.329163 368.0
566.335876 1056.0
567.323792 476.0
569.35553 424.0
579.34668 1984.0
580.356445 640.0
583.355042 2852.0
584.35321 800.0
597.358215 1680.0
598.359314 872.0
665.418518 412.0
678.424072 352.0
682.422607 772.0
683.427124 416.0
696.42511 1592.0
697.434631 484.0
777.494873 392.0
778.475708 420.0
795.509277 980.0
796.507141 916.0
860.042786 356.0
889.509766 344.0
905.556274 460.0
906.542114 1644.0
907.543274 948.0
923.566284 1244.0
924.567383 964.0
1022.62793 732.0
1321.798706 356.0
END IONS
