BEGIN IONS
PEPMASS=439.16
CHARGE=1
MSLEVEL=2
SOURCE_INSTRUMENT=DI-ESI-qTof
FILENAME=f.rsilva/glaucolide_B_pos_MSMS_439.mgf;
SEQ=*..*
IONMODE=Positive
ORGANISM=GNPS-LIBRARY
NAME=Glaucolide B M+H
PI=Norberto Lopes
DATACOLLECTOR=Denise Silva
SMILES=C[C@@]([C@@H]1[C@@H](O2)C(C(OC(C)=O)C[C@]3(OC(C)=O)C)=C(COC(C)=O)C2=O)(O1)CCC3=O
INCHI=InChI=1S/C21H26O10/c1-10(22)27-9-13-16-14(28-11(2)23)8-21(5,30-12(3)24)15(25)6-7-20(4)18(31-20)17(16)29-19(13)26/h14,17-18H,6-9H2,1-5H3/t14?,17-,18-,20+,21+/m0/s1
INCHIAUX=
PUBMED=
SUBMITUSER=rsilva
TAGS=
LIBRARYQUALITY=3
SPECTRUMID=CCMSLIB00000078859
SCANS=1
127.076027 8856.0
133.06604 3011.0
137.058823 5622.0
145.064575 3368.0
149.060303 3003.0
155.070114 7199.0
157.101257 3081.0
161.058578 10882.0
165.054077 3785.0
169.101639 2610.0
171.079773 4923.0
173.059845 17970.0
175.109985 2793.0
179.070786 2443.0
185.095566 12009.0
187.10878 2763.0
189.053818 35930.0
190.058334 2531.0
191.069473 3477.0
199.077438 10474.0
203.10817 13248.0
207.068512 3708.0
213.090729 28752.0
214.094177 2958.0
215.106644 4204.0
217.088089 16727.0
231.101517 61322.0
232.106323 5923.0
241.086288 24753.0
242.091614 2767.0
249.111206 35114.0
259.099609 243931.0
277.110199 138063.0
291.122559 4160.0
295.117889 29933.0
301.109375 2820.0
309.132721 115343.0
319.117249 68420.0
337.128998 137833.0
355.141632 9512.0
379.141632 120514.0
397.152557 153496.0
439.160034 25813.0
END IONS
