BEGIN IONS
PEPMASS=642.33
CHARGE=1
MSLEVEL=2
SOURCE_INSTRUMENT=LC-ESI-qToF
FILENAME=P1_C7_conc_GA7_01_2413.mzXML
SEQ=*..*
IONMODE=Positive
ORGANISM=GNPS-LIBRARY
NAME=Cycloaspeptide A_120252 M+H
PI=Cichewicz
DATACOLLECTOR=Luzzatto
SMILES=CN(C([C@H](CC(C)C)N1)=O)[C@@H](CC2=CC=C(O)C=C2)C(NC3=CC=CC=C3C(N[C@@H](C)C(N(C)[C@@H](CC4=CC=CC=C4)C1=O)=O)=O)=O
INCHI=N/A
INCHIAUX=N/A
PUBMED=
SUBMITUSER=tal_lk
TAGS=
LIBRARYQUALITY=2
SPECTRUMID=CCMSLIB00000478446
SCANS=1687
79.281601 392.0
91.056763 1004.0
93.064919 284.0
103.051735 600.0
105.070076 1200.0
106.072571 508.0
107.051529 552.0
109.067047 416.0
114.092461 360.0
117.061073 348.0
118.064415 2184.0
119.049385 2552.0
119.072578 2740.0
120.043793 13136.0
120.076103 560.0
121.050735 1516.0
121.064362 1272.0
123.041946 596.0
132.077744 424.0
134.061081 984.0
134.097137 128216.0
134.475815 820.0
135.067871 3844.0
135.099548 13804.0
136.070908 364.0
136.102661 564.0
144.080673 712.0
145.073196 384.0
146.023239 748.0
147.043304 268.0
148.039413 1904.0
149.042831 384.0
150.04184 348.0
150.091797 136928.0
150.493118 576.0
151.094116 12388.0
152.09642 644.0
160.076187 384.0
162.091202 19728.0
163.086792 16344.0
164.089188 1120.0
173.070404 560.0
174.087067 420.0
178.085129 4624.0
179.086548 996.0
180.10144 484.0
188.107193 260.0
190.086456 9880.0
191.081711 24000.0
192.08342 2440.0
193.086472 1020.0
201.06572 1736.0
202.069504 560.0
205.132675 3204.0
206.080185 788.0
206.133286 472.0
207.081696 332.0
214.114212 276.0
215.109482 348.0
216.101532 992.0
217.101974 340.0
218.148636 372.0
229.083115 876.0
230.152374 700.0
231.088928 412.0
231.184036 356.0
233.127762 28456.0
234.130844 5084.0
235.131134 444.0
238.086716 520.0
247.179886 9600.0
248.18045 2388.0
249.186234 384.0
257.167114 472.0
259.144104 440.0
259.181641 264.0
263.176056 904.0
264.181152 280.0
265.134064 324.0
266.079071 2488.0
267.082062 300.0
273.164459 284.0
274.143066 6344.0
275.173431 5592.0
276.175964 404.0
279.113403 272.0
281.127777 608.0
285.147522 824.0
286.154297 2120.0
287.157684 476.0
291.169739 576.0
292.173218 472.0
293.129517 700.0
296.140472 484.0
297.123199 15072.0
297.871124 308.0
298.126099 2908.0
299.133667 1052.0
303.164978 252.0
304.161896 700.0
309.124695 684.0
310.121613 312.0
322.152344 376.0
328.204895 384.0
340.643616 264.0
346.209442 3072.0
347.212738 556.0
352.164948 40056.0
353.16629 9716.0
354.173798 960.0
362.146027 432.0
368.159271 7344.0
369.16394 1404.0
370.163513 368.0
376.198547 324.0
380.158417 1196.0
390.234924 344.0
392.198608 1160.0
394.210815 1304.0
395.213959 536.0
399.205048 456.0
410.205414 1616.0
411.212769 616.0
421.209198 1456.0
422.210236 632.0
423.211517 580.0
424.25415 264.0
452.253998 34908.0
452.394623 268.0
453.256653 8328.0
454.263 2696.0
465.247162 9104.0
466.253967 2564.0
467.253296 652.0
470.212219 516.0
475.223267 256.0
481.239288 356.0
498.207214 476.0
529.246887 4968.0
530.250549 2252.0
531.249878 528.0
560.642334 396.0
571.290283 2136.0
572.297913 852.0
598.331177 284.0
611.271729 272.0
614.33252 1840.0
615.328369 480.0
616.338562 356.0
625.308533 620.0
640.337463 324.0
641.300537 272.0
642.143738 320.0
642.3302 178760.0
642.789062 288.0
642.9953 464.0
643.095154 312.0
643.165405 780.0
643.331909 70888.0
643.610718 332.0
643.715881 340.0
643.999939 544.0
644.334351 15044.0
644.738098 260.0
645.333984 2632.0
645.423584 440.0
646.260376 376.0
646.334778 292.0
646.707642 372.0
646.767334 304.0
647.059937 324.0
END IONS
