BEGIN IONS
PEPMASS=723.299
CHARGE=1
MSLEVEL=2
SOURCE_INSTRUMENT=LC-ESI-Orbitrap
FILENAME=Cpd_4_723.mgf
SEQ=*..*
IONMODE=Positive
ORGANISM=GNPS-LIBRARY
NAME=euphodendroidin A M+Na
PI=LITAUDON/TOUBOUL
DATACOLLECTOR=Esposito
SMILES=C[C@]1(C[C@](C([C@H](/C=C/C(C)([C@@H]([C@@H]([C@H](C([C@@H]2OC(C3=CC=CC=C3)=O)=C)OC(C(C)C)=O)O)OC(C)=O)C)C)=O)([C@@]2([C@H]1OC(C)=O)[H])O)OC(C)=O
INCHI=
INCHIAUX=
PUBMED=N/A
SUBMITUSER=lfnothias
TAGS=
LIBRARYQUALITY=1
SPECTRUMID=CCMSLIB00000840537
SCANS=1
193.521072 2385.121582
193.940857 2747.025635
200.180023 2466.791016
200.563705 4587.613281
222.859024 2604.033691
224.670151 2328.254639
235.897583 2954.274414
236.432404 3274.088623
265.157135 3817.092529
282.550781 2624.929688
283.169128 5174.821289
305.221313 2531.270508
311.165955 6510.561523
333.147034 4732.360352
345.642181 2447.076904
351.155884 9831.588867
355.547852 2665.970459
365.600098 2634.034668
366.245453 2851.905762
393.169464 19312.197266
407.525482 2644.958008
411.180634 30994.408203
421.202118 8826.584961
425.195587 3568.223877
431.763947 2982.455078
439.208221 5094.091797
453.187836 44170.324219
455.559296 2506.966797
461.405182 3572.574463
471.197815 30777.527344
473.198395 4626.541992
481.217773 18812.158203
481.856598 2378.532227
499.22644 16349.939453
513.211426 22879.701172
515.20282 26652.544922
533.212585 5222.604492
541.239014 110334.976562
543.233276 5611.30957
545.66217 2589.638916
557.218506 6635.763672
574.581787 2578.948486
575.227661 317720.84375
601.257568 239789.421875
603.256836 109829.992188
635.244995 771693.25
635.305481 3234.031982
645.259216 4313.586914
659.001099 5948.410156
659.320801 4753.654297
662.698486 7136.085938
662.724304 11892.443359
662.956421 14279.829102
662.982239 18202.779297
663.033813 19992.394531
663.059631 21495.404297
663.085449 29872.943359
663.111267 27224.525391
663.137085 32915.191406
663.162842 30571.953125
663.18866 39596.152344
663.279053 4811283.0
663.369385 22665.611328
663.395264 35999.902344
663.421082 32871.523438
663.446899 30075.755859
663.472717 21816.162109
663.498535 26787.447266
663.57605 15975.339844
663.601868 18851.251953
663.782776 8626.441406
663.808655 13869.219727
663.834473 5714.428711
663.860352 10783.078125
666.609192 2825.0979
666.635193 2659.020752
667.27301 4138.341797
667.598755 5460.835938
715.108704 2393.449951
END IONS
